Minimize
 obj: M
Subject To
 block_size_0: 1 x_r0_g5 + 1 x_r0_g7 + 1 x_r0_g11 + 1 x_r0_g12 + 1 x_r0_g15 + 1 x_r0_g17 + 1 x_r0_g19 + 1 x_r0_g24 + 1 x_r0_g30 + 1 x_r0_g31 + 1 x_r0_g34 + 1 x_r0_g35 + 1 x_r0_g38 + 1 x_r0_g39 + 1 x_r0_g47 + 1 x_r0_g53 + 1 x_r0_g55 + 1 x_r0_g56 + 1 x_r0_g57 + 1 x_r0_g60 + 1 x_r0_g74 + 1 x_r0_g79 + 1 x_r0_g85 + 1 x_r0_g90 + 1 x_r0_g91 + 1 x_r0_g93 + 1 x_r0_g103 + 1 x_r0_g108 + 1 x_r0_g119 + 1 x_r0_g121 + 1 x_r0_g124 + 1 x_r0_g125 + 1 x_r0_g135 + 1 x_r0_g142 + 1 x_r0_g143 + 1 x_r0_g144 + 1 x_r0_g148 + 1 x_r0_g154 + 1 x_r0_g159 + 1 x_r0_g163 = 20
 block_size_1: 1 x_r1_g6 + 1 x_r1_g8 + 1 x_r1_g21 + 1 x_r1_g22 + 1 x_r1_g23 + 1 x_r1_g26 + 1 x_r1_g29 + 1 x_r1_g34 + 1 x_r1_g35 + 1 x_r1_g38 + 1 x_r1_g39 + 1 x_r1_g40 + 1 x_r1_g42 + 1 x_r1_g45 + 1 x_r1_g48 + 1 x_r1_g50 + 1 x_r1_g61 + 1 x_r1_g64 + 1 x_r1_g68 + 1 x_r1_g69 + 1 x_r1_g74 + 1 x_r1_g77 + 1 x_r1_g80 + 1 x_r1_g82 + 1 x_r1_g85 + 1 x_r1_g88 + 1 x_r1_g99 + 1 x_r1_g121 + 1 x_r1_g124 + 1 x_r1_g127 + 1 x_r1_g128 + 1 x_r1_g129 + 1 x_r1_g130 + 1 x_r1_g138 + 1 x_r1_g141 + 1 x_r1_g144 + 1 x_r1_g155 + 1 x_r1_g161 + 1 x_r1_g162 + 1 x_r1_g163 = 20
 block_size_2: 1 x_r2_g1 + 1 x_r2_g4 + 1 x_r2_g15 + 1 x_r2_g20 + 1 x_r2_g21 + 1 x_r2_g32 + 1 x_r2_g34 + 1 x_r2_g35 + 1 x_r2_g44 + 1 x_r2_g51 + 1 x_r2_g52 + 1 x_r2_g53 + 1 x_r2_g55 + 1 x_r2_g58 + 1 x_r2_g59 + 1 x_r2_g73 + 1 x_r2_g74 + 1 x_r2_g75 + 1 x_r2_g83 + 1 x_r2_g85 + 1 x_r2_g86 + 1 x_r2_g90 + 1 x_r2_g95 + 1 x_r2_g101 + 1 x_r2_g104 + 1 x_r2_g106 + 1 x_r2_g112 + 1 x_r2_g117 + 1 x_r2_g121 + 1 x_r2_g124 + 1 x_r2_g130 + 1 x_r2_g133 + 1 x_r2_g135 + 1 x_r2_g141 + 1 x_r2_g146 + 1 x_r2_g147 + 1 x_r2_g155 + 1 x_r2_g157 + 1 x_r2_g161 + 1 x_r2_g162 = 20
 block_size_3: 1 x_r3_g1 + 1 x_r3_g2 + 1 x_r3_g5 + 1 x_r3_g7 + 1 x_r3_g9 + 1 x_r3_g17 + 1 x_r3_g20 + 1 x_r3_g21 + 1 x_r3_g22 + 1 x_r3_g25 + 1 x_r3_g26 + 1 x_r3_g31 + 1 x_r3_g33 + 1 x_r3_g39 + 1 x_r3_g42 + 1 x_r3_g44 + 1 x_r3_g45 + 1 x_r3_g49 + 1 x_r3_g51 + 1 x_r3_g52 + 1 x_r3_g53 + 1 x_r3_g59 + 1 x_r3_g60 + 1 x_r3_g62 + 1 x_r3_g64 + 1 x_r3_g66 + 1 x_r3_g68 + 1 x_r3_g69 + 1 x_r3_g71 + 1 x_r3_g73 + 1 x_r3_g77 + 1 x_r3_g83 + 1 x_r3_g117 + 1 x_r3_g118 + 1 x_r3_g122 + 1 x_r3_g132 + 1 x_r3_g141 + 1 x_r3_g156 + 1 x_r3_g161 + 1 x_r3_g166 = 20
 lin1_5_0_12: p_r0_g12_h7_t5 - x_r0_g12 <= 0
 lin2_5_0_12: p_r0_g12_h7_t5 - x_r0_g7 <= 0
 lin3_5_0_12: p_r0_g12_h7_t5 - x_r0_g12 - x_r0_g7 >= -1
 lin1_5_0_17: p_r0_g17_h12_t5 - x_r0_g17 <= 0
 lin2_5_0_17: p_r0_g17_h12_t5 - x_r0_g12 <= 0
 lin3_5_0_17: p_r0_g17_h12_t5 - x_r0_g17 - x_r0_g12 >= -1
 lin1_5_0_24: p_r0_g24_h19_t5 - x_r0_g24 <= 0
 lin2_5_0_24: p_r0_g24_h19_t5 - x_r0_g19 <= 0
 lin3_5_0_24: p_r0_g24_h19_t5 - x_r0_g24 - x_r0_g19 >= -1
 lin1_5_0_35: p_r0_g35_h30_t5 - x_r0_g35 <= 0
 lin2_5_0_35: p_r0_g35_h30_t5 - x_r0_g30 <= 0
 lin3_5_0_35: p_r0_g35_h30_t5 - x_r0_g35 - x_r0_g30 >= -1
 lin1_5_0_39: p_r0_g39_h34_t5 - x_r0_g39 <= 0
 lin2_5_0_39: p_r0_g39_h34_t5 - x_r0_g34 <= 0
 lin3_5_0_39: p_r0_g39_h34_t5 - x_r0_g39 - x_r0_g34 >= -1
 lin1_5_0_60: p_r0_g60_h55_t5 - x_r0_g60 <= 0
 lin2_5_0_60: p_r0_g60_h55_t5 - x_r0_g55 <= 0
 lin3_5_0_60: p_r0_g60_h55_t5 - x_r0_g60 - x_r0_g55 >= -1
 lin1_5_0_79: p_r0_g79_h74_t5 - x_r0_g79 <= 0
 lin2_5_0_79: p_r0_g79_h74_t5 - x_r0_g74 <= 0
 lin3_5_0_79: p_r0_g79_h74_t5 - x_r0_g79 - x_r0_g74 >= -1
 lin1_5_0_90: p_r0_g90_h85_t5 - x_r0_g90 <= 0
 lin2_5_0_90: p_r0_g90_h85_t5 - x_r0_g85 <= 0
 lin3_5_0_90: p_r0_g90_h85_t5 - x_r0_g90 - x_r0_g85 >= -1
 lin1_5_0_108: p_r0_g108_h103_t5 - x_r0_g108 <= 0
 lin2_5_0_108: p_r0_g108_h103_t5 - x_r0_g103 <= 0
 lin3_5_0_108: p_r0_g108_h103_t5 - x_r0_g108 - x_r0_g103 >= -1
 lin1_5_0_124: p_r0_g124_h119_t5 - x_r0_g124 <= 0
 lin2_5_0_124: p_r0_g124_h119_t5 - x_r0_g119 <= 0
 lin3_5_0_124: p_r0_g124_h119_t5 - x_r0_g124 - x_r0_g119 >= -1
 lin1_5_0_148: p_r0_g148_h143_t5 - x_r0_g148 <= 0
 lin2_5_0_148: p_r0_g148_h143_t5 - x_r0_g143 <= 0
 lin3_5_0_148: p_r0_g148_h143_t5 - x_r0_g148 - x_r0_g143 >= -1
 lin1_5_0_159: p_r0_g159_h154_t5 - x_r0_g159 <= 0
 lin2_5_0_159: p_r0_g159_h154_t5 - x_r0_g154 <= 0
 lin3_5_0_159: p_r0_g159_h154_t5 - x_r0_g159 - x_r0_g154 >= -1
 lin1_5_1_26: p_r1_g26_h21_t5 - x_r1_g26 <= 0
 lin2_5_1_26: p_r1_g26_h21_t5 - x_r1_g21 <= 0
 lin3_5_1_26: p_r1_g26_h21_t5 - x_r1_g26 - x_r1_g21 >= -1
 lin1_5_1_34: p_r1_g34_h29_t5 - x_r1_g34 <= 0
 lin2_5_1_34: p_r1_g34_h29_t5 - x_r1_g29 <= 0
 lin3_5_1_34: p_r1_g34_h29_t5 - x_r1_g34 - x_r1_g29 >= -1
 lin1_5_1_39: p_r1_g39_h34_t5 - x_r1_g39 <= 0
 lin2_5_1_39: p_r1_g39_h34_t5 - x_r1_g34 <= 0
 lin3_5_1_39: p_r1_g39_h34_t5 - x_r1_g39 - x_r1_g34 >= -1
 lin1_5_1_40: p_r1_g40_h35_t5 - x_r1_g40 <= 0
 lin2_5_1_40: p_r1_g40_h35_t5 - x_r1_g35 <= 0
 lin3_5_1_40: p_r1_g40_h35_t5 - x_r1_g40 - x_r1_g35 >= -1
 lin1_5_1_45: p_r1_g45_h40_t5 - x_r1_g45 <= 0
 lin2_5_1_45: p_r1_g45_h40_t5 - x_r1_g40 <= 0
 lin3_5_1_45: p_r1_g45_h40_t5 - x_r1_g45 - x_r1_g40 >= -1
 lin1_5_1_50: p_r1_g50_h45_t5 - x_r1_g50 <= 0
 lin2_5_1_50: p_r1_g50_h45_t5 - x_r1_g45 <= 0
 lin3_5_1_50: p_r1_g50_h45_t5 - x_r1_g50 - x_r1_g45 >= -1
 lin1_5_1_69: p_r1_g69_h64_t5 - x_r1_g69 <= 0
 lin2_5_1_69: p_r1_g69_h64_t5 - x_r1_g64 <= 0
 lin3_5_1_69: p_r1_g69_h64_t5 - x_r1_g69 - x_r1_g64 >= -1
 lin1_5_1_74: p_r1_g74_h69_t5 - x_r1_g74 <= 0
 lin2_5_1_74: p_r1_g74_h69_t5 - x_r1_g69 <= 0
 lin3_5_1_74: p_r1_g74_h69_t5 - x_r1_g74 - x_r1_g69 >= -1
 lin1_5_1_82: p_r1_g82_h77_t5 - x_r1_g82 <= 0
 lin2_5_1_82: p_r1_g82_h77_t5 - x_r1_g77 <= 0
 lin3_5_1_82: p_r1_g82_h77_t5 - x_r1_g82 - x_r1_g77 >= -1
 lin1_5_1_85: p_r1_g85_h80_t5 - x_r1_g85 <= 0
 lin2_5_1_85: p_r1_g85_h80_t5 - x_r1_g80 <= 0
 lin3_5_1_85: p_r1_g85_h80_t5 - x_r1_g85 - x_r1_g80 >= -1
 lin1_5_1_129: p_r1_g129_h124_t5 - x_r1_g129 <= 0
 lin2_5_1_129: p_r1_g129_h124_t5 - x_r1_g124 <= 0
 lin3_5_1_129: p_r1_g129_h124_t5 - x_r1_g129 - x_r1_g124 >= -1
 lin1_5_2_20: p_r2_g20_h15_t5 - x_r2_g20 <= 0
 lin2_5_2_20: p_r2_g20_h15_t5 - x_r2_g15 <= 0
 lin3_5_2_20: p_r2_g20_h15_t5 - x_r2_g20 - x_r2_g15 >= -1
 lin1_5_2_58: p_r2_g58_h53_t5 - x_r2_g58 <= 0
 lin2_5_2_58: p_r2_g58_h53_t5 - x_r2_g53 <= 0
 lin3_5_2_58: p_r2_g58_h53_t5 - x_r2_g58 - x_r2_g53 >= -1
 lin1_5_2_90: p_r2_g90_h85_t5 - x_r2_g90 <= 0
 lin2_5_2_90: p_r2_g90_h85_t5 - x_r2_g85 <= 0
 lin3_5_2_90: p_r2_g90_h85_t5 - x_r2_g90 - x_r2_g85 >= -1
 lin1_5_2_95: p_r2_g95_h90_t5 - x_r2_g95 <= 0
 lin2_5_2_95: p_r2_g95_h90_t5 - x_r2_g90 <= 0
 lin3_5_2_95: p_r2_g95_h90_t5 - x_r2_g95 - x_r2_g90 >= -1
 lin1_5_2_106: p_r2_g106_h101_t5 - x_r2_g106 <= 0
 lin2_5_2_106: p_r2_g106_h101_t5 - x_r2_g101 <= 0
 lin3_5_2_106: p_r2_g106_h101_t5 - x_r2_g106 - x_r2_g101 >= -1
 lin1_5_2_117: p_r2_g117_h112_t5 - x_r2_g117 <= 0
 lin2_5_2_117: p_r2_g117_h112_t5 - x_r2_g112 <= 0
 lin3_5_2_117: p_r2_g117_h112_t5 - x_r2_g117 - x_r2_g112 >= -1
 lin1_5_2_135: p_r2_g135_h130_t5 - x_r2_g135 <= 0
 lin2_5_2_135: p_r2_g135_h130_t5 - x_r2_g130 <= 0
 lin3_5_2_135: p_r2_g135_h130_t5 - x_r2_g135 - x_r2_g130 >= -1
 lin1_5_2_146: p_r2_g146_h141_t5 - x_r2_g146 <= 0
 lin2_5_2_146: p_r2_g146_h141_t5 - x_r2_g141 <= 0
 lin3_5_2_146: p_r2_g146_h141_t5 - x_r2_g146 - x_r2_g141 >= -1
 lin1_5_2_162: p_r2_g162_h157_t5 - x_r2_g162 <= 0
 lin2_5_2_162: p_r2_g162_h157_t5 - x_r2_g157 <= 0
 lin3_5_2_162: p_r2_g162_h157_t5 - x_r2_g162 - x_r2_g157 >= -1
 lin1_5_3_7: p_r3_g7_h2_t5 - x_r3_g7 <= 0
 lin2_5_3_7: p_r3_g7_h2_t5 - x_r3_g2 <= 0
 lin3_5_3_7: p_r3_g7_h2_t5 - x_r3_g7 - x_r3_g2 >= -1
 lin1_5_3_22: p_r3_g22_h17_t5 - x_r3_g22 <= 0
 lin2_5_3_22: p_r3_g22_h17_t5 - x_r3_g17 <= 0
 lin3_5_3_22: p_r3_g22_h17_t5 - x_r3_g22 - x_r3_g17 >= -1
 lin1_5_3_25: p_r3_g25_h20_t5 - x_r3_g25 <= 0
 lin2_5_3_25: p_r3_g25_h20_t5 - x_r3_g20 <= 0
 lin3_5_3_25: p_r3_g25_h20_t5 - x_r3_g25 - x_r3_g20 >= -1
 lin1_5_3_26: p_r3_g26_h21_t5 - x_r3_g26 <= 0
 lin2_5_3_26: p_r3_g26_h21_t5 - x_r3_g21 <= 0
 lin3_5_3_26: p_r3_g26_h21_t5 - x_r3_g26 - x_r3_g21 >= -1
 lin1_5_3_31: p_r3_g31_h26_t5 - x_r3_g31 <= 0
 lin2_5_3_31: p_r3_g31_h26_t5 - x_r3_g26 <= 0
 lin3_5_3_31: p_r3_g31_h26_t5 - x_r3_g31 - x_r3_g26 >= -1
 lin1_5_3_44: p_r3_g44_h39_t5 - x_r3_g44 <= 0
 lin2_5_3_44: p_r3_g44_h39_t5 - x_r3_g39 <= 0
 lin3_5_3_44: p_r3_g44_h39_t5 - x_r3_g44 - x_r3_g39 >= -1
 lin1_5_3_49: p_r3_g49_h44_t5 - x_r3_g49 <= 0
 lin2_5_3_49: p_r3_g49_h44_t5 - x_r3_g44 <= 0
 lin3_5_3_49: p_r3_g49_h44_t5 - x_r3_g49 - x_r3_g44 >= -1
 lin1_5_3_64: p_r3_g64_h59_t5 - x_r3_g64 <= 0
 lin2_5_3_64: p_r3_g64_h59_t5 - x_r3_g59 <= 0
 lin3_5_3_64: p_r3_g64_h59_t5 - x_r3_g64 - x_r3_g59 >= -1
 lin1_5_3_69: p_r3_g69_h64_t5 - x_r3_g69 <= 0
 lin2_5_3_69: p_r3_g69_h64_t5 - x_r3_g64 <= 0
 lin3_5_3_69: p_r3_g69_h64_t5 - x_r3_g69 - x_r3_g64 >= -1
 lin1_5_3_71: p_r3_g71_h66_t5 - x_r3_g71 <= 0
 lin2_5_3_71: p_r3_g71_h66_t5 - x_r3_g66 <= 0
 lin3_5_3_71: p_r3_g71_h66_t5 - x_r3_g71 - x_r3_g66 >= -1
 lin1_5_3_73: p_r3_g73_h68_t5 - x_r3_g73 <= 0
 lin2_5_3_73: p_r3_g73_h68_t5 - x_r3_g68 <= 0
 lin3_5_3_73: p_r3_g73_h68_t5 - x_r3_g73 - x_r3_g68 >= -1
 lin1_5_3_122: p_r3_g122_h117_t5 - x_r3_g122 <= 0
 lin2_5_3_122: p_r3_g122_h117_t5 - x_r3_g117 <= 0
 lin3_5_3_122: p_r3_g122_h117_t5 - x_r3_g122 - x_r3_g117 >= -1
 lin1_5_3_161: p_r3_g161_h156_t5 - x_r3_g161 <= 0
 lin2_5_3_161: p_r3_g161_h156_t5 - x_r3_g156 <= 0
 lin3_5_3_161: p_r3_g161_h156_t5 - x_r3_g161 - x_r3_g156 >= -1
 lin1_5_3_166: p_r3_g166_h161_t5 - x_r3_g166 <= 0
 lin2_5_3_166: p_r3_g166_h161_t5 - x_r3_g161 <= 0
 lin3_5_3_166: p_r3_g166_h161_t5 - x_r3_g166 - x_r3_g161 >= -1
 defect_5: 1 d_5 - 1 x_r0_g11 - 1 x_r0_g15 - 1 x_r0_g19 - 1 x_r0_g30 - 1 x_r0_g31 - 1 x_r0_g35 - 1 x_r0_g38 - 2 x_r0_g47 - 2 x_r0_g53 - 1 x_r0_g56 - 2 x_r0_g57 - 1 x_r0_g60 - 2 x_r0_g93 - 1 x_r0_g103 - 1 x_r0_g108 - 2 x_r0_g121 - 1 x_r0_g125 - 1 x_r0_g142 - 2 x_r0_g144 - 1 x_r0_g154 - 1 x_r0_g163 - 2 x_r1_g6 - 1 x_r1_g8 - 1 x_r1_g22 - 1 x_r1_g23 - 1 x_r1_g26 - 1 x_r1_g39 - 1 x_r1_g42 - 1 x_r1_g48 - 2 x_r1_g61 - 1 x_r1_g74 - 1 x_r1_g82 - 1 x_r1_g85 - 1 x_r1_g124 - 1 x_r1_g127 - 1 x_r1_g128 - 1 x_r1_g141 - 1 x_r1_g155 - 2 x_r1_g161 - 1 x_r1_g162 - 1 x_r1_g163 - 1 x_r2_g1 - 1 x_r2_g20 - 1 x_r2_g21 - 1 x_r2_g32 - 1 x_r2_g34 - 1 x_r2_g35 - 2 x_r2_g44 - 2 x_r2_g51 - 1 x_r2_g53 - 1 x_r2_g55 - 1 x_r2_g58 - 1 x_r2_g59 - 2 x_r2_g73 - 1 x_r2_g75 - 1 x_r2_g83 - 1 x_r2_g85 - 1 x_r2_g117 - 2 x_r2_g121 - 2 x_r2_g124 - 1 x_r2_g133 - 1 x_r2_g135 - 1 x_r2_g141 - 1 x_r2_g146 - 1 x_r2_g147 - 2 x_r2_g155 - 1 x_r2_g157 - 1 x_r2_g162 - 2 x_r3_g1 - 1 x_r3_g7 - 1 x_r3_g9 - 1 x_r3_g17 - 1 x_r3_g22 - 1 x_r3_g25 - 1 x_r3_g31 - 2 x_r3_g33 - 2 x_r3_g42 - 1 x_r3_g45 - 1 x_r3_g51 - 1 x_r3_g52 - 2 x_r3_g60 - 1 x_r3_g66 - 1 x_r3_g69 - 1 x_r3_g71 - 1 x_r3_g73 - 1 x_r3_g83 - 1 x_r3_g117 - 1 x_r3_g118 - 1 x_r3_g122 - 2 x_r3_g132 - 1 x_r3_g141 - 1 x_r3_g156 - 1 x_r3_g166 - 1 p_r0_g12_h7_t5 - 1 p_r0_g17_h12_t5 - 1 p_r0_g24_h19_t5 - 1 p_r0_g35_h30_t5 - 1 p_r0_g39_h34_t5 - 1 p_r0_g60_h55_t5 - 1 p_r0_g79_h74_t5 - 1 p_r0_g90_h85_t5 - 1 p_r0_g108_h103_t5 - 1 p_r0_g124_h119_t5 - 1 p_r0_g148_h143_t5 - 1 p_r0_g159_h154_t5 - 1 p_r1_g26_h21_t5 - 1 p_r1_g34_h29_t5 - 1 p_r1_g39_h34_t5 - 1 p_r1_g40_h35_t5 - 1 p_r1_g45_h40_t5 - 1 p_r1_g50_h45_t5 - 1 p_r1_g69_h64_t5 - 1 p_r1_g74_h69_t5 - 1 p_r1_g82_h77_t5 - 1 p_r1_g85_h80_t5 - 1 p_r1_g129_h124_t5 - 1 p_r2_g20_h15_t5 - 1 p_r2_g58_h53_t5 - 1 p_r2_g90_h85_t5 - 1 p_r2_g95_h90_t5 - 1 p_r2_g106_h101_t5 - 1 p_r2_g117_h112_t5 - 1 p_r2_g135_h130_t5 - 1 p_r2_g146_h141_t5 - 1 p_r2_g162_h157_t5 - 1 p_r3_g7_h2_t5 - 1 p_r3_g22_h17_t5 - 1 p_r3_g25_h20_t5 - 1 p_r3_g26_h21_t5 - 1 p_r3_g31_h26_t5 - 1 p_r3_g44_h39_t5 - 1 p_r3_g49_h44_t5 - 1 p_r3_g64_h59_t5 - 1 p_r3_g69_h64_t5 - 1 p_r3_g71_h66_t5 - 1 p_r3_g73_h68_t5 - 1 p_r3_g122_h117_t5 - 1 p_r3_g161_h156_t5 - 1 p_r3_g166_h161_t5 = -49
 abs_pos_5: d_5 - u_5 <= 0
 abs_neg_5: - d_5 - u_5 <= 0
 max_def_5: u_5 - M <= 0
 cap_5: u_5 <= 2
 lin1_12_0_17: p_r0_g17_h5_t12 - x_r0_g17 <= 0
 lin2_12_0_17: p_r0_g17_h5_t12 - x_r0_g5 <= 0
 lin3_12_0_17: p_r0_g17_h5_t12 - x_r0_g17 - x_r0_g5 >= -1
 lin1_12_0_19: p_r0_g19_h7_t12 - x_r0_g19 <= 0
 lin2_12_0_19: p_r0_g19_h7_t12 - x_r0_g7 <= 0
 lin3_12_0_19: p_r0_g19_h7_t12 - x_r0_g19 - x_r0_g7 >= -1
 lin1_12_0_24: p_r0_g24_h12_t12 - x_r0_g24 <= 0
 lin2_12_0_24: p_r0_g24_h12_t12 - x_r0_g12 <= 0
 lin3_12_0_24: p_r0_g24_h12_t12 - x_r0_g24 - x_r0_g12 >= -1
 lin1_12_0_31: p_r0_g31_h19_t12 - x_r0_g31 <= 0
 lin2_12_0_31: p_r0_g31_h19_t12 - x_r0_g19 <= 0
 lin3_12_0_31: p_r0_g31_h19_t12 - x_r0_g31 - x_r0_g19 >= -1
 lin1_12_0_47: p_r0_g47_h35_t12 - x_r0_g47 <= 0
 lin2_12_0_47: p_r0_g47_h35_t12 - x_r0_g35 <= 0
 lin3_12_0_47: p_r0_g47_h35_t12 - x_r0_g47 - x_r0_g35 >= -1
 lin1_12_0_91: p_r0_g91_h79_t12 - x_r0_g91 <= 0
 lin2_12_0_91: p_r0_g91_h79_t12 - x_r0_g79 <= 0
 lin3_12_0_91: p_r0_g91_h79_t12 - x_r0_g91 - x_r0_g79 >= -1
 lin1_12_0_103: p_r0_g103_h91_t12 - x_r0_g103 <= 0
 lin2_12_0_103: p_r0_g103_h91_t12 - x_r0_g91 <= 0
 lin3_12_0_103: p_r0_g103_h91_t12 - x_r0_g103 - x_r0_g91 >= -1
 lin1_12_0_154: p_r0_g154_h142_t12 - x_r0_g154 <= 0
 lin2_12_0_154: p_r0_g154_h142_t12 - x_r0_g142 <= 0
 lin3_12_0_154: p_r0_g154_h142_t12 - x_r0_g154 - x_r0_g142 >= -1
 lin1_12_1_6: p_r1_g6_h161_t12 - x_r1_g6 <= 0
 lin2_12_1_6: p_r1_g6_h161_t12 - x_r1_g161 <= 0
 lin3_12_1_6: p_r1_g6_h161_t12 - x_r1_g6 - x_r1_g161 >= -1
 lin1_12_1_8: p_r1_g8_h163_t12 - x_r1_g8 <= 0
 lin2_12_1_8: p_r1_g8_h163_t12 - x_r1_g163 <= 0
 lin3_12_1_8: p_r1_g8_h163_t12 - x_r1_g8 - x_r1_g163 >= -1
 lin1_12_1_34: p_r1_g34_h22_t12 - x_r1_g34 <= 0
 lin2_12_1_34: p_r1_g34_h22_t12 - x_r1_g22 <= 0
 lin3_12_1_34: p_r1_g34_h22_t12 - x_r1_g34 - x_r1_g22 >= -1
 lin1_12_1_35: p_r1_g35_h23_t12 - x_r1_g35 <= 0
 lin2_12_1_35: p_r1_g35_h23_t12 - x_r1_g23 <= 0
 lin3_12_1_35: p_r1_g35_h23_t12 - x_r1_g35 - x_r1_g23 >= -1
 lin1_12_1_38: p_r1_g38_h26_t12 - x_r1_g38 <= 0
 lin2_12_1_38: p_r1_g38_h26_t12 - x_r1_g26 <= 0
 lin3_12_1_38: p_r1_g38_h26_t12 - x_r1_g38 - x_r1_g26 >= -1
 lin1_12_1_50: p_r1_g50_h38_t12 - x_r1_g50 <= 0
 lin2_12_1_50: p_r1_g50_h38_t12 - x_r1_g38 <= 0
 lin3_12_1_50: p_r1_g50_h38_t12 - x_r1_g50 - x_r1_g38 >= -1
 lin1_12_1_80: p_r1_g80_h68_t12 - x_r1_g80 <= 0
 lin2_12_1_80: p_r1_g80_h68_t12 - x_r1_g68 <= 0
 lin3_12_1_80: p_r1_g80_h68_t12 - x_r1_g80 - x_r1_g68 >= -1
 lin1_12_1_141: p_r1_g141_h129_t12 - x_r1_g141 <= 0
 lin2_12_1_141: p_r1_g141_h129_t12 - x_r1_g129 <= 0
 lin3_12_1_141: p_r1_g141_h129_t12 - x_r1_g141 - x_r1_g129 >= -1
 lin1_12_2_32: p_r2_g32_h20_t12 - x_r2_g32 <= 0
 lin2_12_2_32: p_r2_g32_h20_t12 - x_r2_g20 <= 0
 lin3_12_2_32: p_r2_g32_h20_t12 - x_r2_g32 - x_r2_g20 >= -1
 lin1_12_2_44: p_r2_g44_h32_t12 - x_r2_g44 <= 0
 lin2_12_2_44: p_r2_g44_h32_t12 - x_r2_g32 <= 0
 lin3_12_2_44: p_r2_g44_h32_t12 - x_r2_g44 - x_r2_g32 >= -1
 lin1_12_2_85: p_r2_g85_h73_t12 - x_r2_g85 <= 0
 lin2_12_2_85: p_r2_g85_h73_t12 - x_r2_g73 <= 0
 lin3_12_2_85: p_r2_g85_h73_t12 - x_r2_g85 - x_r2_g73 >= -1
 lin1_12_2_86: p_r2_g86_h74_t12 - x_r2_g86 <= 0
 lin2_12_2_86: p_r2_g86_h74_t12 - x_r2_g74 <= 0
 lin3_12_2_86: p_r2_g86_h74_t12 - x_r2_g86 - x_r2_g74 >= -1
 lin1_12_2_95: p_r2_g95_h83_t12 - x_r2_g95 <= 0
 lin2_12_2_95: p_r2_g95_h83_t12 - x_r2_g83 <= 0
 lin3_12_2_95: p_r2_g95_h83_t12 - x_r2_g95 - x_r2_g83 >= -1
 lin1_12_2_124: p_r2_g124_h112_t12 - x_r2_g124 <= 0
 lin2_12_2_124: p_r2_g124_h112_t12 - x_r2_g112 <= 0
 lin3_12_2_124: p_r2_g124_h112_t12 - x_r2_g124 - x_r2_g112 >= -1
 lin1_12_2_133: p_r2_g133_h121_t12 - x_r2_g133 <= 0
 lin2_12_2_133: p_r2_g133_h121_t12 - x_r2_g121 <= 0
 lin3_12_2_133: p_r2_g133_h121_t12 - x_r2_g133 - x_r2_g121 >= -1
 lin1_12_2_147: p_r2_g147_h135_t12 - x_r2_g147 <= 0
 lin2_12_2_147: p_r2_g147_h135_t12 - x_r2_g135 <= 0
 lin3_12_2_147: p_r2_g147_h135_t12 - x_r2_g147 - x_r2_g135 >= -1
 lin1_12_3_1: p_r3_g1_h156_t12 - x_r3_g1 <= 0
 lin2_12_3_1: p_r3_g1_h156_t12 - x_r3_g156 <= 0
 lin3_12_3_1: p_r3_g1_h156_t12 - x_r3_g1 - x_r3_g156 >= -1
 lin1_12_3_17: p_r3_g17_h5_t12 - x_r3_g17 <= 0
 lin2_12_3_17: p_r3_g17_h5_t12 - x_r3_g5 <= 0
 lin3_12_3_17: p_r3_g17_h5_t12 - x_r3_g17 - x_r3_g5 >= -1
 lin1_12_3_21: p_r3_g21_h9_t12 - x_r3_g21 <= 0
 lin2_12_3_21: p_r3_g21_h9_t12 - x_r3_g9 <= 0
 lin3_12_3_21: p_r3_g21_h9_t12 - x_r3_g21 - x_r3_g9 >= -1
 lin1_12_3_33: p_r3_g33_h21_t12 - x_r3_g33 <= 0
 lin2_12_3_33: p_r3_g33_h21_t12 - x_r3_g21 <= 0
 lin3_12_3_33: p_r3_g33_h21_t12 - x_r3_g33 - x_r3_g21 >= -1
 lin1_12_3_45: p_r3_g45_h33_t12 - x_r3_g45 <= 0
 lin2_12_3_45: p_r3_g45_h33_t12 - x_r3_g33 <= 0
 lin3_12_3_45: p_r3_g45_h33_t12 - x_r3_g45 - x_r3_g33 >= -1
 lin1_12_3_51: p_r3_g51_h39_t12 - x_r3_g51 <= 0
 lin2_12_3_51: p_r3_g51_h39_t12 - x_r3_g39 <= 0
 lin3_12_3_51: p_r3_g51_h39_t12 - x_r3_g51 - x_r3_g39 >= -1
 lin1_12_3_64: p_r3_g64_h52_t12 - x_r3_g64 <= 0
 lin2_12_3_64: p_r3_g64_h52_t12 - x_r3_g52 <= 0
 lin3_12_3_64: p_r3_g64_h52_t12 - x_r3_g64 - x_r3_g52 >= -1
 lin1_12_3_71: p_r3_g71_h59_t12 - x_r3_g71 <= 0
 lin2_12_3_71: p_r3_g71_h59_t12 - x_r3_g59 <= 0
 lin3_12_3_71: p_r3_g71_h59_t12 - x_r3_g71 - x_r3_g59 >= -1
 lin1_12_3_83: p_r3_g83_h71_t12 - x_r3_g83 <= 0
 lin2_12_3_83: p_r3_g83_h71_t12 - x_r3_g71 <= 0
 lin3_12_3_83: p_r3_g83_h71_t12 - x_r3_g83 - x_r3_g71 >= -1
 defect_12: 1 d_12 - 1 x_r0_g5 - 1 x_r0_g15 - 1 x_r0_g24 - 1 x_r0_g30 - 1 x_r0_g31 - 1 x_r0_g34 - 1 x_r0_g39 - 1 x_r0_g47 - 1 x_r0_g53 - 2 x_r0_g55 - 1 x_r0_g56 - 1 x_r0_g57 - 1 x_r0_g60 - 1 x_r0_g74 - 1 x_r0_g79 - 1 x_r0_g90 - 1 x_r0_g108 - 1 x_r0_g119 - 1 x_r0_g124 - 2 x_r0_g125 - 1 x_r0_g135 - 2 x_r0_g143 - 1 x_r0_g144 - 2 x_r0_g148 - 1 x_r0_g163 - 1 x_r1_g6 - 1 x_r1_g8 - 1 x_r1_g22 - 1 x_r1_g23 - 1 x_r1_g34 - 1 x_r1_g39 - 1 x_r1_g45 - 1 x_r1_g48 - 1 x_r1_g50 - 1 x_r1_g61 - 1 x_r1_g68 - 2 x_r1_g69 - 1 x_r1_g74 - 2 x_r1_g77 - 1 x_r1_g82 - 1 x_r1_g88 - 1 x_r1_g99 - 1 x_r1_g121 - 1 x_r1_g124 - 1 x_r1_g127 - 1 x_r1_g128 - 2 x_r1_g144 - 1 x_r2_g15 - 1 x_r2_g21 - 1 x_r2_g34 - 1 x_r2_g44 - 2 x_r2_g51 - 1 x_r2_g52 - 2 x_r2_g53 - 1 x_r2_g55 - 1 x_r2_g58 - 1 x_r2_g73 - 1 x_r2_g75 - 1 x_r2_g86 - 2 x_r2_g90 - 1 x_r2_g101 - 1 x_r2_g104 - 1 x_r2_g106 - 2 x_r2_g117 - 1 x_r2_g124 - 2 x_r2_g141 - 2 x_r2_g146 - 1 x_r2_g155 - 2 x_r2_g162 - 1 x_r3_g1 - 1 x_r3_g5 - 2 x_r3_g7 - 2 x_r3_g20 - 2 x_r3_g25 - 1 x_r3_g26 - 2 x_r3_g31 - 1 x_r3_g39 - 1 x_r3_g42 - 1 x_r3_g44 - 2 x_r3_g49 - 1 x_r3_g52 - 2 x_r3_g53 - 1 x_r3_g59 - 1 x_r3_g62 - 1 x_r3_g64 - 1 x_r3_g66 - 1 x_r3_g68 - 1 x_r3_g69 - 1 x_r3_g73 - 2 x_r3_g77 - 1 x_r3_g117 - 1 x_r3_g118 - 2 x_r3_g122 - 1 x_r3_g132 - 1 x_r3_g141 - 1 x_r3_g156 - 2 x_r3_g161 - 1 x_r3_g166 - 1 p_r0_g17_h5_t12 - 1 p_r0_g19_h7_t12 - 1 p_r0_g24_h12_t12 - 1 p_r0_g31_h19_t12 - 1 p_r0_g47_h35_t12 - 1 p_r0_g91_h79_t12 - 1 p_r0_g103_h91_t12 - 1 p_r0_g154_h142_t12 - 1 p_r1_g6_h161_t12 - 1 p_r1_g8_h163_t12 - 1 p_r1_g34_h22_t12 - 1 p_r1_g35_h23_t12 - 1 p_r1_g38_h26_t12 - 1 p_r1_g50_h38_t12 - 1 p_r1_g80_h68_t12 - 1 p_r1_g141_h129_t12 - 1 p_r2_g32_h20_t12 - 1 p_r2_g44_h32_t12 - 1 p_r2_g85_h73_t12 - 1 p_r2_g86_h74_t12 - 1 p_r2_g95_h83_t12 - 1 p_r2_g124_h112_t12 - 1 p_r2_g133_h121_t12 - 1 p_r2_g147_h135_t12 - 1 p_r3_g1_h156_t12 - 1 p_r3_g17_h5_t12 - 1 p_r3_g21_h9_t12 - 1 p_r3_g33_h21_t12 - 1 p_r3_g45_h33_t12 - 1 p_r3_g51_h39_t12 - 1 p_r3_g64_h52_t12 - 1 p_r3_g71_h59_t12 - 1 p_r3_g83_h71_t12 = -58
 abs_pos_12: d_12 - u_12 <= 0
 abs_neg_12: - d_12 - u_12 <= 0
 max_def_12: u_12 - M <= 0
 cap_12: u_12 <= 1
 lin1_27_0_19: p_r0_g19_h159_t27 - x_r0_g19 <= 0
 lin2_27_0_19: p_r0_g19_h159_t27 - x_r0_g159 <= 0
 lin3_27_0_19: p_r0_g19_h159_t27 - x_r0_g19 - x_r0_g159 >= -1
 lin1_27_0_34: p_r0_g34_h7_t27 - x_r0_g34 <= 0
 lin2_27_0_34: p_r0_g34_h7_t27 - x_r0_g7 <= 0
 lin3_27_0_34: p_r0_g34_h7_t27 - x_r0_g34 - x_r0_g7 >= -1
 lin1_27_0_38: p_r0_g38_h11_t27 - x_r0_g38 <= 0
 lin2_27_0_38: p_r0_g38_h11_t27 - x_r0_g11 <= 0
 lin3_27_0_38: p_r0_g38_h11_t27 - x_r0_g38 - x_r0_g11 >= -1
 lin1_27_0_39: p_r0_g39_h12_t27 - x_r0_g39 <= 0
 lin2_27_0_39: p_r0_g39_h12_t27 - x_r0_g12 <= 0
 lin3_27_0_39: p_r0_g39_h12_t27 - x_r0_g39 - x_r0_g12 >= -1
 lin1_27_0_57: p_r0_g57_h30_t27 - x_r0_g57 <= 0
 lin2_27_0_57: p_r0_g57_h30_t27 - x_r0_g30 <= 0
 lin3_27_0_57: p_r0_g57_h30_t27 - x_r0_g57 - x_r0_g30 >= -1
 lin1_27_0_74: p_r0_g74_h47_t27 - x_r0_g74 <= 0
 lin2_27_0_74: p_r0_g74_h47_t27 - x_r0_g47 <= 0
 lin3_27_0_74: p_r0_g74_h47_t27 - x_r0_g74 - x_r0_g47 >= -1
 lin1_27_0_135: p_r0_g135_h108_t27 - x_r0_g135 <= 0
 lin2_27_0_135: p_r0_g135_h108_t27 - x_r0_g108 <= 0
 lin3_27_0_135: p_r0_g135_h108_t27 - x_r0_g135 - x_r0_g108 >= -1
 lin1_27_0_148: p_r0_g148_h121_t27 - x_r0_g148 <= 0
 lin2_27_0_148: p_r0_g148_h121_t27 - x_r0_g121 <= 0
 lin3_27_0_148: p_r0_g148_h121_t27 - x_r0_g148 - x_r0_g121 >= -1
 lin1_27_1_21: p_r1_g21_h161_t27 - x_r1_g21 <= 0
 lin2_27_1_21: p_r1_g21_h161_t27 - x_r1_g161 <= 0
 lin3_27_1_21: p_r1_g21_h161_t27 - x_r1_g21 - x_r1_g161 >= -1
 lin1_27_1_22: p_r1_g22_h162_t27 - x_r1_g22 <= 0
 lin2_27_1_22: p_r1_g22_h162_t27 - x_r1_g162 <= 0
 lin3_27_1_22: p_r1_g22_h162_t27 - x_r1_g22 - x_r1_g162 >= -1
 lin1_27_1_23: p_r1_g23_h163_t27 - x_r1_g23 <= 0
 lin2_27_1_23: p_r1_g23_h163_t27 - x_r1_g163 <= 0
 lin3_27_1_23: p_r1_g23_h163_t27 - x_r1_g23 - x_r1_g163 >= -1
 lin1_27_1_35: p_r1_g35_h8_t27 - x_r1_g35 <= 0
 lin2_27_1_35: p_r1_g35_h8_t27 - x_r1_g8 <= 0
 lin3_27_1_35: p_r1_g35_h8_t27 - x_r1_g35 - x_r1_g8 >= -1
 lin1_27_1_48: p_r1_g48_h21_t27 - x_r1_g48 <= 0
 lin2_27_1_48: p_r1_g48_h21_t27 - x_r1_g21 <= 0
 lin3_27_1_48: p_r1_g48_h21_t27 - x_r1_g48 - x_r1_g21 >= -1
 lin1_27_1_50: p_r1_g50_h23_t27 - x_r1_g50 <= 0
 lin2_27_1_50: p_r1_g50_h23_t27 - x_r1_g23 <= 0
 lin3_27_1_50: p_r1_g50_h23_t27 - x_r1_g50 - x_r1_g23 >= -1
 lin1_27_1_61: p_r1_g61_h34_t27 - x_r1_g61 <= 0
 lin2_27_1_61: p_r1_g61_h34_t27 - x_r1_g34 <= 0
 lin3_27_1_61: p_r1_g61_h34_t27 - x_r1_g61 - x_r1_g34 >= -1
 lin1_27_1_69: p_r1_g69_h42_t27 - x_r1_g69 <= 0
 lin2_27_1_69: p_r1_g69_h42_t27 - x_r1_g42 <= 0
 lin3_27_1_69: p_r1_g69_h42_t27 - x_r1_g69 - x_r1_g42 >= -1
 lin1_27_1_77: p_r1_g77_h50_t27 - x_r1_g77 <= 0
 lin2_27_1_77: p_r1_g77_h50_t27 - x_r1_g50 <= 0
 lin3_27_1_77: p_r1_g77_h50_t27 - x_r1_g77 - x_r1_g50 >= -1
 lin1_27_1_88: p_r1_g88_h61_t27 - x_r1_g88 <= 0
 lin2_27_1_88: p_r1_g88_h61_t27 - x_r1_g61 <= 0
 lin3_27_1_88: p_r1_g88_h61_t27 - x_r1_g88 - x_r1_g61 >= -1
 lin1_27_1_155: p_r1_g155_h128_t27 - x_r1_g155 <= 0
 lin2_27_1_155: p_r1_g155_h128_t27 - x_r1_g128 <= 0
 lin3_27_1_155: p_r1_g155_h128_t27 - x_r1_g155 - x_r1_g128 >= -1
 lin1_27_2_1: p_r2_g1_h141_t27 - x_r2_g1 <= 0
 lin2_27_2_1: p_r2_g1_h141_t27 - x_r2_g141 <= 0
 lin3_27_2_1: p_r2_g1_h141_t27 - x_r2_g1 - x_r2_g141 >= -1
 lin1_27_2_15: p_r2_g15_h155_t27 - x_r2_g15 <= 0
 lin2_27_2_15: p_r2_g15_h155_t27 - x_r2_g155 <= 0
 lin3_27_2_15: p_r2_g15_h155_t27 - x_r2_g15 - x_r2_g155 >= -1
 lin1_27_2_21: p_r2_g21_h161_t27 - x_r2_g21 <= 0
 lin2_27_2_21: p_r2_g21_h161_t27 - x_r2_g161 <= 0
 lin3_27_2_21: p_r2_g21_h161_t27 - x_r2_g21 - x_r2_g161 >= -1
 lin1_27_2_59: p_r2_g59_h32_t27 - x_r2_g59 <= 0
 lin2_27_2_59: p_r2_g59_h32_t27 - x_r2_g32 <= 0
 lin3_27_2_59: p_r2_g59_h32_t27 - x_r2_g59 - x_r2_g32 >= -1
 lin1_27_2_85: p_r2_g85_h58_t27 - x_r2_g85 <= 0
 lin2_27_2_85: p_r2_g85_h58_t27 - x_r2_g58 <= 0
 lin3_27_2_85: p_r2_g85_h58_t27 - x_r2_g85 - x_r2_g58 >= -1
 lin1_27_2_86: p_r2_g86_h59_t27 - x_r2_g86 <= 0
 lin2_27_2_86: p_r2_g86_h59_t27 - x_r2_g59 <= 0
 lin3_27_2_86: p_r2_g86_h59_t27 - x_r2_g86 - x_r2_g59 >= -1
 lin1_27_2_101: p_r2_g101_h74_t27 - x_r2_g101 <= 0
 lin2_27_2_101: p_r2_g101_h74_t27 - x_r2_g74 <= 0
 lin3_27_2_101: p_r2_g101_h74_t27 - x_r2_g101 - x_r2_g74 >= -1
 lin1_27_2_112: p_r2_g112_h85_t27 - x_r2_g112 <= 0
 lin2_27_2_112: p_r2_g112_h85_t27 - x_r2_g85 <= 0
 lin3_27_2_112: p_r2_g112_h85_t27 - x_r2_g112 - x_r2_g85 >= -1
 lin1_27_2_117: p_r2_g117_h90_t27 - x_r2_g117 <= 0
 lin2_27_2_117: p_r2_g117_h90_t27 - x_r2_g90 <= 0
 lin3_27_2_117: p_r2_g117_h90_t27 - x_r2_g117 - x_r2_g90 >= -1
 lin1_27_2_133: p_r2_g133_h106_t27 - x_r2_g133 <= 0
 lin2_27_2_133: p_r2_g133_h106_t27 - x_r2_g106 <= 0
 lin3_27_2_133: p_r2_g133_h106_t27 - x_r2_g133 - x_r2_g106 >= -1
 lin1_27_2_157: p_r2_g157_h130_t27 - x_r2_g157 <= 0
 lin2_27_2_157: p_r2_g157_h130_t27 - x_r2_g130 <= 0
 lin3_27_2_157: p_r2_g157_h130_t27 - x_r2_g157 - x_r2_g130 >= -1
 lin1_27_2_162: p_r2_g162_h135_t27 - x_r2_g162 <= 0
 lin2_27_2_162: p_r2_g162_h135_t27 - x_r2_g135 <= 0
 lin3_27_2_162: p_r2_g162_h135_t27 - x_r2_g162 - x_r2_g135 >= -1
 lin1_27_3_1: p_r3_g1_h141_t27 - x_r3_g1 <= 0
 lin2_27_3_1: p_r3_g1_h141_t27 - x_r3_g141 <= 0
 lin3_27_3_1: p_r3_g1_h141_t27 - x_r3_g1 - x_r3_g141 >= -1
 lin1_27_3_21: p_r3_g21_h161_t27 - x_r3_g21 <= 0
 lin2_27_3_21: p_r3_g21_h161_t27 - x_r3_g161 <= 0
 lin3_27_3_21: p_r3_g21_h161_t27 - x_r3_g21 - x_r3_g161 >= -1
 lin1_27_3_26: p_r3_g26_h166_t27 - x_r3_g26 <= 0
 lin2_27_3_26: p_r3_g26_h166_t27 - x_r3_g166 <= 0
 lin3_27_3_26: p_r3_g26_h166_t27 - x_r3_g26 - x_r3_g166 >= -1
 lin1_27_3_44: p_r3_g44_h17_t27 - x_r3_g44 <= 0
 lin2_27_3_44: p_r3_g44_h17_t27 - x_r3_g17 <= 0
 lin3_27_3_44: p_r3_g44_h17_t27 - x_r3_g44 - x_r3_g17 >= -1
 lin1_27_3_49: p_r3_g49_h22_t27 - x_r3_g49 <= 0
 lin2_27_3_49: p_r3_g49_h22_t27 - x_r3_g22 <= 0
 lin3_27_3_49: p_r3_g49_h22_t27 - x_r3_g49 - x_r3_g22 >= -1
 lin1_27_3_52: p_r3_g52_h25_t27 - x_r3_g52 <= 0
 lin2_27_3_52: p_r3_g52_h25_t27 - x_r3_g25 <= 0
 lin3_27_3_52: p_r3_g52_h25_t27 - x_r3_g52 - x_r3_g25 >= -1
 lin1_27_3_53: p_r3_g53_h26_t27 - x_r3_g53 <= 0
 lin2_27_3_53: p_r3_g53_h26_t27 - x_r3_g26 <= 0
 lin3_27_3_53: p_r3_g53_h26_t27 - x_r3_g53 - x_r3_g26 >= -1
 lin1_27_3_60: p_r3_g60_h33_t27 - x_r3_g60 <= 0
 lin2_27_3_60: p_r3_g60_h33_t27 - x_r3_g33 <= 0
 lin3_27_3_60: p_r3_g60_h33_t27 - x_r3_g60 - x_r3_g33 >= -1
 lin1_27_3_66: p_r3_g66_h39_t27 - x_r3_g66 <= 0
 lin2_27_3_66: p_r3_g66_h39_t27 - x_r3_g39 <= 0
 lin3_27_3_66: p_r3_g66_h39_t27 - x_r3_g66 - x_r3_g39 >= -1
 lin1_27_3_69: p_r3_g69_h42_t27 - x_r3_g69 <= 0
 lin2_27_3_69: p_r3_g69_h42_t27 - x_r3_g42 <= 0
 lin3_27_3_69: p_r3_g69_h42_t27 - x_r3_g69 - x_r3_g42 >= -1
 lin1_27_3_71: p_r3_g71_h44_t27 - x_r3_g71 <= 0
 lin2_27_3_71: p_r3_g71_h44_t27 - x_r3_g44 <= 0
 lin3_27_3_71: p_r3_g71_h44_t27 - x_r3_g71 - x_r3_g44 >= -1
 defect_27: 1 d_27 - 1 x_r0_g11 - 1 x_r0_g12 - 2 x_r0_g15 - 1 x_r0_g17 - 1 x_r0_g19 - 1 x_r0_g24 - 1 x_r0_g30 - 1 x_r0_g31 - 1 x_r0_g35 - 1 x_r0_g38 - 1 x_r0_g47 - 1 x_r0_g74 - 1 x_r0_g79 - 1 x_r0_g85 - 1 x_r0_g90 - 1 x_r0_g91 - 1 x_r0_g93 - 1 x_r0_g119 - 1 x_r0_g124 - 2 x_r0_g125 - 2 x_r0_g143 - 2 x_r0_g154 - 1 x_r0_g159 - 1 x_r0_g163 - 1 x_r1_g6 - 1 x_r1_g22 - 2 x_r1_g26 - 1 x_r1_g29 - 1 x_r1_g35 - 2 x_r1_g38 - 1 x_r1_g39 - 1 x_r1_g42 - 1 x_r1_g45 - 2 x_r1_g64 - 1 x_r1_g68 - 1 x_r1_g69 - 2 x_r1_g80 - 1 x_r1_g82 - 1 x_r1_g85 - 1 x_r1_g88 - 2 x_r1_g127 - 1 x_r1_g129 - 2 x_r1_g130 - 2 x_r1_g141 - 1 x_r1_g155 - 1 x_r2_g1 - 1 x_r2_g4 - 1 x_r2_g20 - 1 x_r2_g21 - 2 x_r2_g34 - 1 x_r2_g51 - 1 x_r2_g52 - 2 x_r2_g53 - 2 x_r2_g55 - 1 x_r2_g58 - 1 x_r2_g73 - 2 x_r2_g75 - 2 x_r2_g83 - 1 x_r2_g86 - 1 x_r2_g90 - 2 x_r2_g95 - 1 x_r2_g101 - 1 x_r2_g112 - 2 x_r2_g121 - 1 x_r2_g124 - 1 x_r2_g133 - 1 x_r2_g141 - 1 x_r2_g146 - 2 x_r2_g147 - 1 x_r2_g155 - 1 x_r2_g161 - 1 x_r3_g1 - 1 x_r3_g2 - 2 x_r3_g5 - 2 x_r3_g9 - 2 x_r3_g20 - 1 x_r3_g22 - 1 x_r3_g31 - 1 x_r3_g33 - 1 x_r3_g39 - 1 x_r3_g45 - 1 x_r3_g49 - 1 x_r3_g51 - 1 x_r3_g53 - 2 x_r3_g59 - 1 x_r3_g62 - 1 x_r3_g64 - 1 x_r3_g68 - 1 x_r3_g71 - 1 x_r3_g73 - 1 x_r3_g83 - 1 x_r3_g117 - 1 x_r3_g118 - 1 x_r3_g122 - 1 x_r3_g156 - 1 x_r3_g161 - 1 x_r3_g166 - 1 p_r0_g19_h159_t27 - 1 p_r0_g34_h7_t27 - 1 p_r0_g38_h11_t27 - 1 p_r0_g39_h12_t27 - 1 p_r0_g57_h30_t27 - 1 p_r0_g74_h47_t27 - 1 p_r0_g135_h108_t27 - 1 p_r0_g148_h121_t27 - 1 p_r1_g21_h161_t27 - 1 p_r1_g22_h162_t27 - 1 p_r1_g23_h163_t27 - 1 p_r1_g35_h8_t27 - 1 p_r1_g48_h21_t27 - 1 p_r1_g50_h23_t27 - 1 p_r1_g61_h34_t27 - 1 p_r1_g69_h42_t27 - 1 p_r1_g77_h50_t27 - 1 p_r1_g88_h61_t27 - 1 p_r1_g155_h128_t27 - 1 p_r2_g1_h141_t27 - 1 p_r2_g15_h155_t27 - 1 p_r2_g21_h161_t27 - 1 p_r2_g59_h32_t27 - 1 p_r2_g85_h58_t27 - 1 p_r2_g86_h59_t27 - 1 p_r2_g101_h74_t27 - 1 p_r2_g112_h85_t27 - 1 p_r2_g117_h90_t27 - 1 p_r2_g133_h106_t27 - 1 p_r2_g157_h130_t27 - 1 p_r2_g162_h135_t27 - 1 p_r3_g1_h141_t27 - 1 p_r3_g21_h161_t27 - 1 p_r3_g26_h166_t27 - 1 p_r3_g44_h17_t27 - 1 p_r3_g49_h22_t27 - 1 p_r3_g52_h25_t27 - 1 p_r3_g53_h26_t27 - 1 p_r3_g60_h33_t27 - 1 p_r3_g66_h39_t27 - 1 p_r3_g69_h42_t27 - 1 p_r3_g71_h44_t27 = -92
 abs_pos_27: d_27 - u_27 <= 0
 abs_neg_27: - d_27 - u_27 <= 0
 max_def_27: u_27 - M <= 0
 cap_27: u_27 <= 2
 lin1_29_0_5: p_r0_g5_h143_t29 - x_r0_g5 <= 0
 lin2_29_0_5: p_r0_g5_h143_t29 - x_r0_g143 <= 0
 lin3_29_0_5: p_r0_g5_h143_t29 - x_r0_g5 - x_r0_g143 >= -1
 lin1_29_0_34: p_r0_g34_h5_t29 - x_r0_g34 <= 0
 lin2_29_0_34: p_r0_g34_h5_t29 - x_r0_g5 <= 0
 lin3_29_0_34: p_r0_g34_h5_t29 - x_r0_g34 - x_r0_g5 >= -1
 lin1_29_0_53: p_r0_g53_h24_t29 - x_r0_g53 <= 0
 lin2_29_0_53: p_r0_g53_h24_t29 - x_r0_g24 <= 0
 lin3_29_0_53: p_r0_g53_h24_t29 - x_r0_g53 - x_r0_g24 >= -1
 lin1_29_0_60: p_r0_g60_h31_t29 - x_r0_g60 <= 0
 lin2_29_0_60: p_r0_g60_h31_t29 - x_r0_g31 <= 0
 lin3_29_0_60: p_r0_g60_h31_t29 - x_r0_g60 - x_r0_g31 >= -1
 lin1_29_0_85: p_r0_g85_h56_t29 - x_r0_g85 <= 0
 lin2_29_0_85: p_r0_g85_h56_t29 - x_r0_g56 <= 0
 lin3_29_0_85: p_r0_g85_h56_t29 - x_r0_g85 - x_r0_g56 >= -1
 lin1_29_0_103: p_r0_g103_h74_t29 - x_r0_g103 <= 0
 lin2_29_0_103: p_r0_g103_h74_t29 - x_r0_g74 <= 0
 lin3_29_0_103: p_r0_g103_h74_t29 - x_r0_g103 - x_r0_g74 >= -1
 lin1_29_0_108: p_r0_g108_h79_t29 - x_r0_g108 <= 0
 lin2_29_0_108: p_r0_g108_h79_t29 - x_r0_g79 <= 0
 lin3_29_0_108: p_r0_g108_h79_t29 - x_r0_g108 - x_r0_g79 >= -1
 lin1_29_0_119: p_r0_g119_h90_t29 - x_r0_g119 <= 0
 lin2_29_0_119: p_r0_g119_h90_t29 - x_r0_g90 <= 0
 lin3_29_0_119: p_r0_g119_h90_t29 - x_r0_g119 - x_r0_g90 >= -1
 lin1_29_0_148: p_r0_g148_h119_t29 - x_r0_g148 <= 0
 lin2_29_0_148: p_r0_g148_h119_t29 - x_r0_g119 <= 0
 lin3_29_0_148: p_r0_g148_h119_t29 - x_r0_g148 - x_r0_g119 >= -1
 lin1_29_0_154: p_r0_g154_h125_t29 - x_r0_g154 <= 0
 lin2_29_0_154: p_r0_g154_h125_t29 - x_r0_g125 <= 0
 lin3_29_0_154: p_r0_g154_h125_t29 - x_r0_g154 - x_r0_g125 >= -1
 lin1_29_1_6: p_r1_g6_h144_t29 - x_r1_g6 <= 0
 lin2_29_1_6: p_r1_g6_h144_t29 - x_r1_g144 <= 0
 lin3_29_1_6: p_r1_g6_h144_t29 - x_r1_g6 - x_r1_g144 >= -1
 lin1_29_1_23: p_r1_g23_h161_t29 - x_r1_g23 <= 0
 lin2_29_1_23: p_r1_g23_h161_t29 - x_r1_g161 <= 0
 lin3_29_1_23: p_r1_g23_h161_t29 - x_r1_g23 - x_r1_g161 >= -1
 lin1_29_1_35: p_r1_g35_h6_t29 - x_r1_g35 <= 0
 lin2_29_1_35: p_r1_g35_h6_t29 - x_r1_g6 <= 0
 lin3_29_1_35: p_r1_g35_h6_t29 - x_r1_g35 - x_r1_g6 >= -1
 lin1_29_1_50: p_r1_g50_h21_t29 - x_r1_g50 <= 0
 lin2_29_1_50: p_r1_g50_h21_t29 - x_r1_g21 <= 0
 lin3_29_1_50: p_r1_g50_h21_t29 - x_r1_g50 - x_r1_g21 >= -1
 lin1_29_1_64: p_r1_g64_h35_t29 - x_r1_g64 <= 0
 lin2_29_1_64: p_r1_g64_h35_t29 - x_r1_g35 <= 0
 lin3_29_1_64: p_r1_g64_h35_t29 - x_r1_g64 - x_r1_g35 >= -1
 lin1_29_1_68: p_r1_g68_h39_t29 - x_r1_g68 <= 0
 lin2_29_1_68: p_r1_g68_h39_t29 - x_r1_g39 <= 0
 lin3_29_1_68: p_r1_g68_h39_t29 - x_r1_g68 - x_r1_g39 >= -1
 lin1_29_1_69: p_r1_g69_h40_t29 - x_r1_g69 <= 0
 lin2_29_1_69: p_r1_g69_h40_t29 - x_r1_g40 <= 0
 lin3_29_1_69: p_r1_g69_h40_t29 - x_r1_g69 - x_r1_g40 >= -1
 lin1_29_1_74: p_r1_g74_h45_t29 - x_r1_g74 <= 0
 lin2_29_1_74: p_r1_g74_h45_t29 - x_r1_g45 <= 0
 lin3_29_1_74: p_r1_g74_h45_t29 - x_r1_g74 - x_r1_g45 >= -1
 lin1_29_1_77: p_r1_g77_h48_t29 - x_r1_g77 <= 0
 lin2_29_1_77: p_r1_g77_h48_t29 - x_r1_g48 <= 0
 lin3_29_1_77: p_r1_g77_h48_t29 - x_r1_g77 - x_r1_g48 >= -1
 lin1_29_1_128: p_r1_g128_h99_t29 - x_r1_g128 <= 0
 lin2_29_1_128: p_r1_g128_h99_t29 - x_r1_g99 <= 0
 lin3_29_1_128: p_r1_g128_h99_t29 - x_r1_g128 - x_r1_g99 >= -1
 lin1_29_2_44: p_r2_g44_h15_t29 - x_r2_g44 <= 0
 lin2_29_2_44: p_r2_g44_h15_t29 - x_r2_g15 <= 0
 lin3_29_2_44: p_r2_g44_h15_t29 - x_r2_g44 - x_r2_g15 >= -1
 lin1_29_2_73: p_r2_g73_h44_t29 - x_r2_g73 <= 0
 lin2_29_2_73: p_r2_g73_h44_t29 - x_r2_g44 <= 0
 lin3_29_2_73: p_r2_g73_h44_t29 - x_r2_g73 - x_r2_g44 >= -1
 lin1_29_2_104: p_r2_g104_h75_t29 - x_r2_g104 <= 0
 lin2_29_2_104: p_r2_g104_h75_t29 - x_r2_g75 <= 0
 lin3_29_2_104: p_r2_g104_h75_t29 - x_r2_g104 - x_r2_g75 >= -1
 lin1_29_2_112: p_r2_g112_h83_t29 - x_r2_g112 <= 0
 lin2_29_2_112: p_r2_g112_h83_t29 - x_r2_g83 <= 0
 lin3_29_2_112: p_r2_g112_h83_t29 - x_r2_g112 - x_r2_g83 >= -1
 lin1_29_2_124: p_r2_g124_h95_t29 - x_r2_g124 <= 0
 lin2_29_2_124: p_r2_g124_h95_t29 - x_r2_g95 <= 0
 lin3_29_2_124: p_r2_g124_h95_t29 - x_r2_g124 - x_r2_g95 >= -1
 lin1_29_2_130: p_r2_g130_h101_t29 - x_r2_g130 <= 0
 lin2_29_2_130: p_r2_g130_h101_t29 - x_r2_g101 <= 0
 lin3_29_2_130: p_r2_g130_h101_t29 - x_r2_g130 - x_r2_g101 >= -1
 lin1_29_2_133: p_r2_g133_h104_t29 - x_r2_g133 <= 0
 lin2_29_2_133: p_r2_g133_h104_t29 - x_r2_g104 <= 0
 lin3_29_2_133: p_r2_g133_h104_t29 - x_r2_g133 - x_r2_g104 >= -1
 lin1_29_2_135: p_r2_g135_h106_t29 - x_r2_g135 <= 0
 lin2_29_2_135: p_r2_g135_h106_t29 - x_r2_g106 <= 0
 lin3_29_2_135: p_r2_g135_h106_t29 - x_r2_g135 - x_r2_g106 >= -1
 lin1_29_2_141: p_r2_g141_h112_t29 - x_r2_g141 <= 0
 lin2_29_2_141: p_r2_g141_h112_t29 - x_r2_g112 <= 0
 lin3_29_2_141: p_r2_g141_h112_t29 - x_r2_g141 - x_r2_g112 >= -1
 lin1_29_2_146: p_r2_g146_h117_t29 - x_r2_g146 <= 0
 lin2_29_2_146: p_r2_g146_h117_t29 - x_r2_g117 <= 0
 lin3_29_2_146: p_r2_g146_h117_t29 - x_r2_g146 - x_r2_g117 >= -1
 lin1_29_2_162: p_r2_g162_h133_t29 - x_r2_g162 <= 0
 lin2_29_2_162: p_r2_g162_h133_t29 - x_r2_g133 <= 0
 lin3_29_2_162: p_r2_g162_h133_t29 - x_r2_g162 - x_r2_g133 >= -1
 lin1_29_3_31: p_r3_g31_h2_t29 - x_r3_g31 <= 0
 lin2_29_3_31: p_r3_g31_h2_t29 - x_r3_g2 <= 0
 lin3_29_3_31: p_r3_g31_h2_t29 - x_r3_g31 - x_r3_g2 >= -1
 lin1_29_3_49: p_r3_g49_h20_t29 - x_r3_g49 <= 0
 lin2_29_3_49: p_r3_g49_h20_t29 - x_r3_g20 <= 0
 lin3_29_3_49: p_r3_g49_h20_t29 - x_r3_g49 - x_r3_g20 >= -1
 lin1_29_3_51: p_r3_g51_h22_t29 - x_r3_g51 <= 0
 lin2_29_3_51: p_r3_g51_h22_t29 - x_r3_g22 <= 0
 lin3_29_3_51: p_r3_g51_h22_t29 - x_r3_g51 - x_r3_g22 >= -1
 lin1_29_3_60: p_r3_g60_h31_t29 - x_r3_g60 <= 0
 lin2_29_3_60: p_r3_g60_h31_t29 - x_r3_g31 <= 0
 lin3_29_3_60: p_r3_g60_h31_t29 - x_r3_g60 - x_r3_g31 >= -1
 lin1_29_3_62: p_r3_g62_h33_t29 - x_r3_g62 <= 0
 lin2_29_3_62: p_r3_g62_h33_t29 - x_r3_g33 <= 0
 lin3_29_3_62: p_r3_g62_h33_t29 - x_r3_g62 - x_r3_g33 >= -1
 lin1_29_3_68: p_r3_g68_h39_t29 - x_r3_g68 <= 0
 lin2_29_3_68: p_r3_g68_h39_t29 - x_r3_g39 <= 0
 lin3_29_3_68: p_r3_g68_h39_t29 - x_r3_g68 - x_r3_g39 >= -1
 lin1_29_3_71: p_r3_g71_h42_t29 - x_r3_g71 <= 0
 lin2_29_3_71: p_r3_g71_h42_t29 - x_r3_g42 <= 0
 lin3_29_3_71: p_r3_g71_h42_t29 - x_r3_g71 - x_r3_g42 >= -1
 lin1_29_3_73: p_r3_g73_h44_t29 - x_r3_g73 <= 0
 lin2_29_3_73: p_r3_g73_h44_t29 - x_r3_g44 <= 0
 lin3_29_3_73: p_r3_g73_h44_t29 - x_r3_g73 - x_r3_g44 >= -1
 lin1_29_3_161: p_r3_g161_h132_t29 - x_r3_g161 <= 0
 lin2_29_3_161: p_r3_g161_h132_t29 - x_r3_g132 <= 0
 lin3_29_3_161: p_r3_g161_h132_t29 - x_r3_g161 - x_r3_g132 >= -1
 defect_29: 1 d_29 - 1 x_r0_g7 - 2 x_r0_g11 - 2 x_r0_g17 - 2 x_r0_g19 - 1 x_r0_g30 - 1 x_r0_g34 - 1 x_r0_g35 - 1 x_r0_g38 - 1 x_r0_g39 - 1 x_r0_g74 - 2 x_r0_g91 - 1 x_r0_g93 - 1 x_r0_g103 - 1 x_r0_g108 - 1 x_r0_g142 - 1 x_r0_g144 - 1 x_r0_g163 - 2 x_r1_g8 - 1 x_r1_g21 - 1 x_r1_g22 - 1 x_r1_g26 - 1 x_r1_g39 - 1 x_r1_g40 - 1 x_r1_g50 - 2 x_r1_g61 - 1 x_r1_g69 - 1 x_r1_g74 - 1 x_r1_g80 - 1 x_r1_g82 - 2 x_r1_g85 - 1 x_r1_g99 - 1 x_r1_g124 - 2 x_r1_g127 - 1 x_r1_g128 - 1 x_r1_g129 - 1 x_r1_g130 - 1 x_r1_g138 - 2 x_r1_g141 - 1 x_r1_g144 - 1 x_r1_g161 - 1 x_r1_g163 - 2 x_r2_g1 - 1 x_r2_g4 - 1 x_r2_g15 - 2 x_r2_g20 - 1 x_r2_g32 - 1 x_r2_g34 - 1 x_r2_g35 - 1 x_r2_g51 - 1 x_r2_g53 - 1 x_r2_g55 - 1 x_r2_g59 - 1 x_r2_g73 - 1 x_r2_g74 - 1 x_r2_g75 - 2 x_r2_g85 - 1 x_r2_g86 - 2 x_r2_g90 - 1 x_r2_g121 - 1 x_r2_g124 - 1 x_r2_g155 - 1 x_r2_g157 - 1 x_r2_g161 - 2 x_r3_g1 - 1 x_r3_g2 - 1 x_r3_g5 - 2 x_r3_g7 - 1 x_r3_g9 - 1 x_r3_g17 - 1 x_r3_g22 - 1 x_r3_g25 - 1 x_r3_g26 - 1 x_r3_g33 - 1 x_r3_g42 - 1 x_r3_g45 - 1 x_r3_g49 - 1 x_r3_g51 - 2 x_r3_g52 - 1 x_r3_g59 - 1 x_r3_g60 - 1 x_r3_g66 - 2 x_r3_g69 - 1 x_r3_g77 - 1 x_r3_g83 - 1 x_r3_g117 - 1 x_r3_g118 - 1 x_r3_g122 - 1 x_r3_g141 - 2 x_r3_g156 - 1 x_r3_g161 - 2 x_r3_g166 - 1 p_r0_g5_h143_t29 - 1 p_r0_g34_h5_t29 - 1 p_r0_g53_h24_t29 - 1 p_r0_g60_h31_t29 - 1 p_r0_g85_h56_t29 - 1 p_r0_g103_h74_t29 - 1 p_r0_g108_h79_t29 - 1 p_r0_g119_h90_t29 - 1 p_r0_g148_h119_t29 - 1 p_r0_g154_h125_t29 - 1 p_r1_g6_h144_t29 - 1 p_r1_g23_h161_t29 - 1 p_r1_g35_h6_t29 - 1 p_r1_g50_h21_t29 - 1 p_r1_g64_h35_t29 - 1 p_r1_g68_h39_t29 - 1 p_r1_g69_h40_t29 - 1 p_r1_g74_h45_t29 - 1 p_r1_g77_h48_t29 - 1 p_r1_g128_h99_t29 - 1 p_r2_g44_h15_t29 - 1 p_r2_g73_h44_t29 - 1 p_r2_g104_h75_t29 - 1 p_r2_g112_h83_t29 - 1 p_r2_g124_h95_t29 - 1 p_r2_g130_h101_t29 - 1 p_r2_g133_h104_t29 - 1 p_r2_g135_h106_t29 - 1 p_r2_g141_h112_t29 - 1 p_r2_g146_h117_t29 - 1 p_r2_g162_h133_t29 - 1 p_r3_g31_h2_t29 - 1 p_r3_g49_h20_t29 - 1 p_r3_g51_h22_t29 - 1 p_r3_g60_h31_t29 - 1 p_r3_g62_h33_t29 - 1 p_r3_g68_h39_t29 - 1 p_r3_g71_h42_t29 - 1 p_r3_g73_h44_t29 - 1 p_r3_g161_h132_t29 = -73
 abs_pos_29: d_29 - u_29 <= 0
 abs_neg_29: - d_29 - u_29 <= 0
 max_def_29: u_29 - M <= 0
 cap_29: u_29 <= 1
 lin1_34_0_11: p_r0_g11_h144_t34 - x_r0_g11 <= 0
 lin2_34_0_11: p_r0_g11_h144_t34 - x_r0_g144 <= 0
 lin3_34_0_11: p_r0_g11_h144_t34 - x_r0_g11 - x_r0_g144 >= -1
 lin1_34_0_15: p_r0_g15_h148_t34 - x_r0_g15 <= 0
 lin2_34_0_15: p_r0_g15_h148_t34 - x_r0_g148 <= 0
 lin3_34_0_15: p_r0_g15_h148_t34 - x_r0_g15 - x_r0_g148 >= -1
 lin1_34_0_30: p_r0_g30_h163_t34 - x_r0_g30 <= 0
 lin2_34_0_30: p_r0_g30_h163_t34 - x_r0_g163 <= 0
 lin3_34_0_30: p_r0_g30_h163_t34 - x_r0_g30 - x_r0_g163 >= -1
 lin1_34_0_39: p_r0_g39_h5_t34 - x_r0_g39 <= 0
 lin2_34_0_39: p_r0_g39_h5_t34 - x_r0_g5 <= 0
 lin3_34_0_39: p_r0_g39_h5_t34 - x_r0_g39 - x_r0_g5 >= -1
 lin1_34_0_53: p_r0_g53_h19_t34 - x_r0_g53 <= 0
 lin2_34_0_53: p_r0_g53_h19_t34 - x_r0_g19 <= 0
 lin3_34_0_53: p_r0_g53_h19_t34 - x_r0_g53 - x_r0_g19 >= -1
 lin1_34_0_90: p_r0_g90_h56_t34 - x_r0_g90 <= 0
 lin2_34_0_90: p_r0_g90_h56_t34 - x_r0_g56 <= 0
 lin3_34_0_90: p_r0_g90_h56_t34 - x_r0_g90 - x_r0_g56 >= -1
 lin1_34_0_91: p_r0_g91_h57_t34 - x_r0_g91 <= 0
 lin2_34_0_91: p_r0_g91_h57_t34 - x_r0_g57 <= 0
 lin3_34_0_91: p_r0_g91_h57_t34 - x_r0_g91 - x_r0_g57 >= -1
 lin1_34_0_108: p_r0_g108_h74_t34 - x_r0_g108 <= 0
 lin2_34_0_108: p_r0_g108_h74_t34 - x_r0_g74 <= 0
 lin3_34_0_108: p_r0_g108_h74_t34 - x_r0_g108 - x_r0_g74 >= -1
 lin1_34_0_119: p_r0_g119_h85_t34 - x_r0_g119 <= 0
 lin2_34_0_119: p_r0_g119_h85_t34 - x_r0_g85 <= 0
 lin3_34_0_119: p_r0_g119_h85_t34 - x_r0_g119 - x_r0_g85 >= -1
 lin1_34_0_124: p_r0_g124_h90_t34 - x_r0_g124 <= 0
 lin2_34_0_124: p_r0_g124_h90_t34 - x_r0_g90 <= 0
 lin3_34_0_124: p_r0_g124_h90_t34 - x_r0_g124 - x_r0_g90 >= -1
 lin1_34_0_125: p_r0_g125_h91_t34 - x_r0_g125 <= 0
 lin2_34_0_125: p_r0_g125_h91_t34 - x_r0_g91 <= 0
 lin3_34_0_125: p_r0_g125_h91_t34 - x_r0_g125 - x_r0_g91 >= -1
 lin1_34_0_142: p_r0_g142_h108_t34 - x_r0_g142 <= 0
 lin2_34_0_142: p_r0_g142_h108_t34 - x_r0_g108 <= 0
 lin3_34_0_142: p_r0_g142_h108_t34 - x_r0_g142 - x_r0_g108 >= -1
 lin1_34_0_159: p_r0_g159_h125_t34 - x_r0_g159 <= 0
 lin2_34_0_159: p_r0_g159_h125_t34 - x_r0_g125 <= 0
 lin3_34_0_159: p_r0_g159_h125_t34 - x_r0_g159 - x_r0_g125 >= -1
 lin1_34_1_8: p_r1_g8_h141_t34 - x_r1_g8 <= 0
 lin2_34_1_8: p_r1_g8_h141_t34 - x_r1_g141 <= 0
 lin3_34_1_8: p_r1_g8_h141_t34 - x_r1_g8 - x_r1_g141 >= -1
 lin1_34_1_22: p_r1_g22_h155_t34 - x_r1_g22 <= 0
 lin2_34_1_22: p_r1_g22_h155_t34 - x_r1_g155 <= 0
 lin3_34_1_22: p_r1_g22_h155_t34 - x_r1_g22 - x_r1_g155 >= -1
 lin1_34_1_29: p_r1_g29_h162_t34 - x_r1_g29 <= 0
 lin2_34_1_29: p_r1_g29_h162_t34 - x_r1_g162 <= 0
 lin3_34_1_29: p_r1_g29_h162_t34 - x_r1_g29 - x_r1_g162 >= -1
 lin1_34_1_40: p_r1_g40_h6_t34 - x_r1_g40 <= 0
 lin2_34_1_40: p_r1_g40_h6_t34 - x_r1_g6 <= 0
 lin3_34_1_40: p_r1_g40_h6_t34 - x_r1_g40 - x_r1_g6 >= -1
 lin1_34_1_42: p_r1_g42_h8_t34 - x_r1_g42 <= 0
 lin2_34_1_42: p_r1_g42_h8_t34 - x_r1_g8 <= 0
 lin3_34_1_42: p_r1_g42_h8_t34 - x_r1_g42 - x_r1_g8 >= -1
 lin1_34_1_68: p_r1_g68_h34_t34 - x_r1_g68 <= 0
 lin2_34_1_68: p_r1_g68_h34_t34 - x_r1_g34 <= 0
 lin3_34_1_68: p_r1_g68_h34_t34 - x_r1_g68 - x_r1_g34 >= -1
 lin1_34_1_69: p_r1_g69_h35_t34 - x_r1_g69 <= 0
 lin2_34_1_69: p_r1_g69_h35_t34 - x_r1_g35 <= 0
 lin3_34_1_69: p_r1_g69_h35_t34 - x_r1_g69 - x_r1_g35 >= -1
 lin1_34_1_74: p_r1_g74_h40_t34 - x_r1_g74 <= 0
 lin2_34_1_74: p_r1_g74_h40_t34 - x_r1_g40 <= 0
 lin3_34_1_74: p_r1_g74_h40_t34 - x_r1_g74 - x_r1_g40 >= -1
 lin1_34_1_82: p_r1_g82_h48_t34 - x_r1_g82 <= 0
 lin2_34_1_82: p_r1_g82_h48_t34 - x_r1_g48 <= 0
 lin3_34_1_82: p_r1_g82_h48_t34 - x_r1_g82 - x_r1_g48 >= -1
 lin1_34_1_155: p_r1_g155_h121_t34 - x_r1_g155 <= 0
 lin2_34_1_155: p_r1_g155_h121_t34 - x_r1_g121 <= 0
 lin3_34_1_155: p_r1_g155_h121_t34 - x_r1_g155 - x_r1_g121 >= -1
 lin1_34_1_161: p_r1_g161_h127_t34 - x_r1_g161 <= 0
 lin2_34_1_161: p_r1_g161_h127_t34 - x_r1_g127 <= 0
 lin3_34_1_161: p_r1_g161_h127_t34 - x_r1_g161 - x_r1_g127 >= -1
 lin1_34_1_162: p_r1_g162_h128_t34 - x_r1_g162 <= 0
 lin2_34_1_162: p_r1_g162_h128_t34 - x_r1_g128 <= 0
 lin3_34_1_162: p_r1_g162_h128_t34 - x_r1_g162 - x_r1_g128 >= -1
 lin1_34_1_163: p_r1_g163_h129_t34 - x_r1_g163 <= 0
 lin2_34_1_163: p_r1_g163_h129_t34 - x_r1_g129 <= 0
 lin3_34_1_163: p_r1_g163_h129_t34 - x_r1_g163 - x_r1_g129 >= -1
 lin1_34_2_35: p_r2_g35_h1_t34 - x_r2_g35 <= 0
 lin2_34_2_35: p_r2_g35_h1_t34 - x_r2_g1 <= 0
 lin3_34_2_35: p_r2_g35_h1_t34 - x_r2_g35 - x_r2_g1 >= -1
 lin1_34_2_55: p_r2_g55_h21_t34 - x_r2_g55 <= 0
 lin2_34_2_55: p_r2_g55_h21_t34 - x_r2_g21 <= 0
 lin3_34_2_55: p_r2_g55_h21_t34 - x_r2_g55 - x_r2_g21 >= -1
 lin1_34_2_85: p_r2_g85_h51_t34 - x_r2_g85 <= 0
 lin2_34_2_85: p_r2_g85_h51_t34 - x_r2_g51 <= 0
 lin3_34_2_85: p_r2_g85_h51_t34 - x_r2_g85 - x_r2_g51 >= -1
 lin1_34_2_86: p_r2_g86_h52_t34 - x_r2_g86 <= 0
 lin2_34_2_86: p_r2_g86_h52_t34 - x_r2_g52 <= 0
 lin3_34_2_86: p_r2_g86_h52_t34 - x_r2_g86 - x_r2_g52 >= -1
 lin1_34_2_117: p_r2_g117_h83_t34 - x_r2_g117 <= 0
 lin2_34_2_117: p_r2_g117_h83_t34 - x_r2_g83 <= 0
 lin3_34_2_117: p_r2_g117_h83_t34 - x_r2_g117 - x_r2_g83 >= -1
 lin1_34_2_124: p_r2_g124_h90_t34 - x_r2_g124 <= 0
 lin2_34_2_124: p_r2_g124_h90_t34 - x_r2_g90 <= 0
 lin3_34_2_124: p_r2_g124_h90_t34 - x_r2_g124 - x_r2_g90 >= -1
 lin1_34_2_135: p_r2_g135_h101_t34 - x_r2_g135 <= 0
 lin2_34_2_135: p_r2_g135_h101_t34 - x_r2_g101 <= 0
 lin3_34_2_135: p_r2_g135_h101_t34 - x_r2_g135 - x_r2_g101 >= -1
 lin1_34_2_146: p_r2_g146_h112_t34 - x_r2_g146 <= 0
 lin2_34_2_146: p_r2_g146_h112_t34 - x_r2_g112 <= 0
 lin3_34_2_146: p_r2_g146_h112_t34 - x_r2_g146 - x_r2_g112 >= -1
 lin1_34_2_155: p_r2_g155_h121_t34 - x_r2_g155 <= 0
 lin2_34_2_155: p_r2_g155_h121_t34 - x_r2_g121 <= 0
 lin3_34_2_155: p_r2_g155_h121_t34 - x_r2_g155 - x_r2_g121 >= -1
 lin1_34_3_33: p_r3_g33_h166_t34 - x_r3_g33 <= 0
 lin2_34_3_33: p_r3_g33_h166_t34 - x_r3_g166 <= 0
 lin3_34_3_33: p_r3_g33_h166_t34 - x_r3_g33 - x_r3_g166 >= -1
 lin1_34_3_39: p_r3_g39_h5_t34 - x_r3_g39 <= 0
 lin2_34_3_39: p_r3_g39_h5_t34 - x_r3_g5 <= 0
 lin3_34_3_39: p_r3_g39_h5_t34 - x_r3_g39 - x_r3_g5 >= -1
 lin1_34_3_51: p_r3_g51_h17_t34 - x_r3_g51 <= 0
 lin2_34_3_51: p_r3_g51_h17_t34 - x_r3_g17 <= 0
 lin3_34_3_51: p_r3_g51_h17_t34 - x_r3_g51 - x_r3_g17 >= -1
 lin1_34_3_59: p_r3_g59_h25_t34 - x_r3_g59 <= 0
 lin2_34_3_59: p_r3_g59_h25_t34 - x_r3_g25 <= 0
 lin3_34_3_59: p_r3_g59_h25_t34 - x_r3_g59 - x_r3_g25 >= -1
 lin1_34_3_60: p_r3_g60_h26_t34 - x_r3_g60 <= 0
 lin2_34_3_60: p_r3_g60_h26_t34 - x_r3_g26 <= 0
 lin3_34_3_60: p_r3_g60_h26_t34 - x_r3_g60 - x_r3_g26 >= -1
 lin1_34_3_73: p_r3_g73_h39_t34 - x_r3_g73 <= 0
 lin2_34_3_73: p_r3_g73_h39_t34 - x_r3_g39 <= 0
 lin3_34_3_73: p_r3_g73_h39_t34 - x_r3_g73 - x_r3_g39 >= -1
 lin1_34_3_83: p_r3_g83_h49_t34 - x_r3_g83 <= 0
 lin2_34_3_83: p_r3_g83_h49_t34 - x_r3_g49 <= 0
 lin3_34_3_83: p_r3_g83_h49_t34 - x_r3_g83 - x_r3_g49 >= -1
 lin1_34_3_117: p_r3_g117_h83_t34 - x_r3_g117 <= 0
 lin2_34_3_117: p_r3_g117_h83_t34 - x_r3_g83 <= 0
 lin3_34_3_117: p_r3_g117_h83_t34 - x_r3_g117 - x_r3_g83 >= -1
 lin1_34_3_156: p_r3_g156_h122_t34 - x_r3_g156 <= 0
 lin2_34_3_156: p_r3_g156_h122_t34 - x_r3_g122 <= 0
 lin3_34_3_156: p_r3_g156_h122_t34 - x_r3_g156 - x_r3_g122 >= -1
 lin1_34_3_166: p_r3_g166_h132_t34 - x_r3_g166 <= 0
 lin2_34_3_166: p_r3_g166_h132_t34 - x_r3_g132 <= 0
 lin3_34_3_166: p_r3_g166_h132_t34 - x_r3_g166 - x_r3_g132 >= -1
 defect_34: 1 d_34 - 1 x_r0_g11 - 1 x_r0_g12 - 1 x_r0_g15 - 1 x_r0_g17 - 1 x_r0_g19 - 2 x_r0_g24 - 1 x_r0_g31 - 1 x_r0_g34 - 1 x_r0_g47 - 1 x_r0_g74 - 2 x_r0_g79 - 1 x_r0_g85 - 2 x_r0_g93 - 1 x_r0_g103 - 1 x_r0_g121 - 1 x_r0_g124 - 1 x_r0_g135 - 1 x_r0_g154 - 1 x_r1_g21 - 1 x_r1_g22 - 2 x_r1_g23 - 1 x_r1_g26 - 1 x_r1_g35 - 2 x_r1_g45 - 1 x_r1_g50 - 2 x_r1_g61 - 1 x_r1_g64 - 1 x_r1_g69 - 1 x_r1_g74 - 2 x_r1_g80 - 1 x_r1_g85 - 1 x_r1_g99 - 1 x_r1_g121 - 1 x_r1_g124 - 1 x_r1_g129 - 2 x_r1_g130 - 1 x_r1_g141 - 1 x_r1_g144 - 1 x_r2_g1 - 1 x_r2_g4 - 2 x_r2_g15 - 1 x_r2_g20 - 1 x_r2_g32 - 2 x_r2_g34 - 1 x_r2_g44 - 1 x_r2_g52 - 1 x_r2_g59 - 1 x_r2_g73 - 1 x_r2_g75 - 1 x_r2_g83 - 1 x_r2_g85 - 1 x_r2_g86 - 1 x_r2_g90 - 2 x_r2_g95 - 1 x_r2_g106 - 1 x_r2_g112 - 1 x_r2_g117 - 1 x_r2_g124 - 1 x_r2_g133 - 2 x_r2_g147 - 2 x_r2_g161 - 1 x_r2_g162 - 1 x_r3_g1 - 1 x_r3_g2 - 1 x_r3_g5 - 2 x_r3_g7 - 2 x_r3_g9 - 2 x_r3_g21 - 1 x_r3_g31 - 2 x_r3_g42 - 1 x_r3_g44 - 2 x_r3_g52 - 1 x_r3_g53 - 1 x_r3_g60 - 1 x_r3_g62 - 2 x_r3_g64 - 1 x_r3_g66 - 1 x_r3_g71 - 2 x_r3_g77 - 1 x_r3_g117 - 1 x_r3_g132 - 1 x_r3_g141 - 1 x_r3_g156 - 2 x_r3_g161 - 1 p_r0_g11_h144_t34 - 1 p_r0_g15_h148_t34 - 1 p_r0_g30_h163_t34 - 1 p_r0_g39_h5_t34 - 1 p_r0_g53_h19_t34 - 1 p_r0_g90_h56_t34 - 1 p_r0_g91_h57_t34 - 1 p_r0_g108_h74_t34 - 1 p_r0_g119_h85_t34 - 1 p_r0_g124_h90_t34 - 1 p_r0_g125_h91_t34 - 1 p_r0_g142_h108_t34 - 1 p_r0_g159_h125_t34 - 1 p_r1_g8_h141_t34 - 1 p_r1_g22_h155_t34 - 1 p_r1_g29_h162_t34 - 1 p_r1_g40_h6_t34 - 1 p_r1_g42_h8_t34 - 1 p_r1_g68_h34_t34 - 1 p_r1_g69_h35_t34 - 1 p_r1_g74_h40_t34 - 1 p_r1_g82_h48_t34 - 1 p_r1_g155_h121_t34 - 1 p_r1_g161_h127_t34 - 1 p_r1_g162_h128_t34 - 1 p_r1_g163_h129_t34 - 1 p_r2_g35_h1_t34 - 1 p_r2_g55_h21_t34 - 1 p_r2_g85_h51_t34 - 1 p_r2_g86_h52_t34 - 1 p_r2_g117_h83_t34 - 1 p_r2_g124_h90_t34 - 1 p_r2_g135_h101_t34 - 1 p_r2_g146_h112_t34 - 1 p_r2_g155_h121_t34 - 1 p_r3_g33_h166_t34 - 1 p_r3_g39_h5_t34 - 1 p_r3_g51_h17_t34 - 1 p_r3_g59_h25_t34 - 1 p_r3_g60_h26_t34 - 1 p_r3_g73_h39_t34 - 1 p_r3_g83_h49_t34 - 1 p_r3_g117_h83_t34 - 1 p_r3_g156_h122_t34 - 1 p_r3_g166_h132_t34 = -43
 abs_pos_34: d_34 - u_34 <= 0
 abs_neg_34: - d_34 - u_34 <= 0
 max_def_34: u_34 - M <= 0
 cap_34: u_34 <= 2
 lin1_36_0_11: p_r0_g11_h142_t36 - x_r0_g11 <= 0
 lin2_36_0_11: p_r0_g11_h142_t36 - x_r0_g142 <= 0
 lin3_36_0_11: p_r0_g11_h142_t36 - x_r0_g11 - x_r0_g142 >= -1
 lin1_36_0_12: p_r0_g12_h143_t36 - x_r0_g12 <= 0
 lin2_36_0_12: p_r0_g12_h143_t36 - x_r0_g143 <= 0
 lin3_36_0_12: p_r0_g12_h143_t36 - x_r0_g12 - x_r0_g143 >= -1
 lin1_36_0_17: p_r0_g17_h148_t36 - x_r0_g17 <= 0
 lin2_36_0_17: p_r0_g17_h148_t36 - x_r0_g148 <= 0
 lin3_36_0_17: p_r0_g17_h148_t36 - x_r0_g17 - x_r0_g148 >= -1
 lin1_36_0_47: p_r0_g47_h11_t36 - x_r0_g47 <= 0
 lin2_36_0_47: p_r0_g47_h11_t36 - x_r0_g11 <= 0
 lin3_36_0_47: p_r0_g47_h11_t36 - x_r0_g47 - x_r0_g11 >= -1
 lin1_36_0_53: p_r0_g53_h17_t36 - x_r0_g53 <= 0
 lin2_36_0_53: p_r0_g53_h17_t36 - x_r0_g17 <= 0
 lin3_36_0_53: p_r0_g53_h17_t36 - x_r0_g53 - x_r0_g17 >= -1
 lin1_36_0_55: p_r0_g55_h19_t36 - x_r0_g55 <= 0
 lin2_36_0_55: p_r0_g55_h19_t36 - x_r0_g19 <= 0
 lin3_36_0_55: p_r0_g55_h19_t36 - x_r0_g55 - x_r0_g19 >= -1
 lin1_36_0_60: p_r0_g60_h24_t36 - x_r0_g60 <= 0
 lin2_36_0_60: p_r0_g60_h24_t36 - x_r0_g24 <= 0
 lin3_36_0_60: p_r0_g60_h24_t36 - x_r0_g60 - x_r0_g24 >= -1
 lin1_36_0_74: p_r0_g74_h38_t36 - x_r0_g74 <= 0
 lin2_36_0_74: p_r0_g74_h38_t36 - x_r0_g38 <= 0
 lin3_36_0_74: p_r0_g74_h38_t36 - x_r0_g74 - x_r0_g38 >= -1
 lin1_36_0_91: p_r0_g91_h55_t36 - x_r0_g91 <= 0
 lin2_36_0_91: p_r0_g91_h55_t36 - x_r0_g55 <= 0
 lin3_36_0_91: p_r0_g91_h55_t36 - x_r0_g91 - x_r0_g55 >= -1
 lin1_36_0_93: p_r0_g93_h57_t36 - x_r0_g93 <= 0
 lin2_36_0_93: p_r0_g93_h57_t36 - x_r0_g57 <= 0
 lin3_36_0_93: p_r0_g93_h57_t36 - x_r0_g93 - x_r0_g57 >= -1
 lin1_36_0_121: p_r0_g121_h85_t36 - x_r0_g121 <= 0
 lin2_36_0_121: p_r0_g121_h85_t36 - x_r0_g85 <= 0
 lin3_36_0_121: p_r0_g121_h85_t36 - x_r0_g121 - x_r0_g85 >= -1
 lin1_36_0_144: p_r0_g144_h108_t36 - x_r0_g144 <= 0
 lin2_36_0_144: p_r0_g144_h108_t36 - x_r0_g108 <= 0
 lin3_36_0_144: p_r0_g144_h108_t36 - x_r0_g144 - x_r0_g108 >= -1
 lin1_36_1_42: p_r1_g42_h6_t36 - x_r1_g42 <= 0
 lin2_36_1_42: p_r1_g42_h6_t36 - x_r1_g6 <= 0
 lin3_36_1_42: p_r1_g42_h6_t36 - x_r1_g42 - x_r1_g6 >= -1
 lin1_36_1_74: p_r1_g74_h38_t36 - x_r1_g74 <= 0
 lin2_36_1_74: p_r1_g74_h38_t36 - x_r1_g38 <= 0
 lin3_36_1_74: p_r1_g74_h38_t36 - x_r1_g74 - x_r1_g38 >= -1
 lin1_36_1_121: p_r1_g121_h85_t36 - x_r1_g121 <= 0
 lin2_36_1_121: p_r1_g121_h85_t36 - x_r1_g85 <= 0
 lin3_36_1_121: p_r1_g121_h85_t36 - x_r1_g121 - x_r1_g85 >= -1
 lin1_36_1_124: p_r1_g124_h88_t36 - x_r1_g124 <= 0
 lin2_36_1_124: p_r1_g124_h88_t36 - x_r1_g88 <= 0
 lin3_36_1_124: p_r1_g124_h88_t36 - x_r1_g124 - x_r1_g88 >= -1
 lin1_36_1_163: p_r1_g163_h127_t36 - x_r1_g163 <= 0
 lin2_36_1_163: p_r1_g163_h127_t36 - x_r1_g127 <= 0
 lin3_36_1_163: p_r1_g163_h127_t36 - x_r1_g163 - x_r1_g127 >= -1
 lin1_36_2_4: p_r2_g4_h135_t36 - x_r2_g4 <= 0
 lin2_36_2_4: p_r2_g4_h135_t36 - x_r2_g135 <= 0
 lin3_36_2_4: p_r2_g4_h135_t36 - x_r2_g4 - x_r2_g135 >= -1
 lin1_36_2_15: p_r2_g15_h146_t36 - x_r2_g15 <= 0
 lin2_36_2_15: p_r2_g15_h146_t36 - x_r2_g146 <= 0
 lin3_36_2_15: p_r2_g15_h146_t36 - x_r2_g15 - x_r2_g146 >= -1
 lin1_36_2_51: p_r2_g51_h15_t36 - x_r2_g51 <= 0
 lin2_36_2_51: p_r2_g51_h15_t36 - x_r2_g15 <= 0
 lin3_36_2_51: p_r2_g51_h15_t36 - x_r2_g51 - x_r2_g15 >= -1
 lin1_36_2_95: p_r2_g95_h59_t36 - x_r2_g95 <= 0
 lin2_36_2_95: p_r2_g95_h59_t36 - x_r2_g59 <= 0
 lin3_36_2_95: p_r2_g95_h59_t36 - x_r2_g95 - x_r2_g59 >= -1
 lin1_36_2_121: p_r2_g121_h85_t36 - x_r2_g121 <= 0
 lin2_36_2_121: p_r2_g121_h85_t36 - x_r2_g85 <= 0
 lin3_36_2_121: p_r2_g121_h85_t36 - x_r2_g121 - x_r2_g85 >= -1
 lin1_36_2_157: p_r2_g157_h121_t36 - x_r2_g157 <= 0
 lin2_36_2_157: p_r2_g157_h121_t36 - x_r2_g121 <= 0
 lin3_36_2_157: p_r2_g157_h121_t36 - x_r2_g157 - x_r2_g121 >= -1
 lin1_36_3_1: p_r3_g1_h132_t36 - x_r3_g1 <= 0
 lin2_36_3_1: p_r3_g1_h132_t36 - x_r3_g132 <= 0
 lin3_36_3_1: p_r3_g1_h132_t36 - x_r3_g1 - x_r3_g132 >= -1
 lin1_36_3_25: p_r3_g25_h156_t36 - x_r3_g25 <= 0
 lin2_36_3_25: p_r3_g25_h156_t36 - x_r3_g156 <= 0
 lin3_36_3_25: p_r3_g25_h156_t36 - x_r3_g25 - x_r3_g156 >= -1
 lin1_36_3_45: p_r3_g45_h9_t36 - x_r3_g45 <= 0
 lin2_36_3_45: p_r3_g45_h9_t36 - x_r3_g9 <= 0
 lin3_36_3_45: p_r3_g45_h9_t36 - x_r3_g45 - x_r3_g9 >= -1
 lin1_36_3_53: p_r3_g53_h17_t36 - x_r3_g53 <= 0
 lin2_36_3_53: p_r3_g53_h17_t36 - x_r3_g17 <= 0
 lin3_36_3_53: p_r3_g53_h17_t36 - x_r3_g53 - x_r3_g17 >= -1
 lin1_36_3_62: p_r3_g62_h26_t36 - x_r3_g62 <= 0
 lin2_36_3_62: p_r3_g62_h26_t36 - x_r3_g26 <= 0
 lin3_36_3_62: p_r3_g62_h26_t36 - x_r3_g62 - x_r3_g26 >= -1
 lin1_36_3_69: p_r3_g69_h33_t36 - x_r3_g69 <= 0
 lin2_36_3_69: p_r3_g69_h33_t36 - x_r3_g33 <= 0
 lin3_36_3_69: p_r3_g69_h33_t36 - x_r3_g69 - x_r3_g33 >= -1
 defect_36: 1 d_36 - 1 x_r0_g5 - 1 x_r0_g7 - 1 x_r0_g12 - 2 x_r0_g15 - 1 x_r0_g24 - 1 x_r0_g31 - 2 x_r0_g34 - 1 x_r0_g39 - 1 x_r0_g56 - 1 x_r0_g79 - 1 x_r0_g85 - 2 x_r0_g90 - 1 x_r0_g91 - 2 x_r0_g103 - 1 x_r0_g119 - 1 x_r0_g121 - 2 x_r0_g124 - 1 x_r0_g144 - 1 x_r0_g154 - 1 x_r0_g159 - 1 x_r0_g163 - 1 x_r1_g8 - 1 x_r1_g21 - 1 x_r1_g23 - 2 x_r1_g26 - 2 x_r1_g29 - 1 x_r1_g34 - 1 x_r1_g35 - 1 x_r1_g39 - 1 x_r1_g42 - 1 x_r1_g45 - 1 x_r1_g48 - 1 x_r1_g61 - 1 x_r1_g64 - 1 x_r1_g68 - 1 x_r1_g77 - 1 x_r1_g80 - 1 x_r1_g82 - 1 x_r1_g85 - 1 x_r1_g121 - 1 x_r1_g124 - 1 x_r1_g127 - 1 x_r1_g128 - 1 x_r1_g130 - 1 x_r1_g141 - 1 x_r1_g144 - 1 x_r1_g155 - 1 x_r1_g162 - 1 x_r1_g163 - 1 x_r2_g1 - 2 x_r2_g20 - 1 x_r2_g21 - 2 x_r2_g32 - 1 x_r2_g34 - 1 x_r2_g44 - 1 x_r2_g58 - 1 x_r2_g74 - 1 x_r2_g75 - 1 x_r2_g83 - 1 x_r2_g85 - 1 x_r2_g86 - 1 x_r2_g90 - 2 x_r2_g101 - 2 x_r2_g104 - 1 x_r2_g112 - 1 x_r2_g117 - 1 x_r2_g124 - 1 x_r2_g130 - 1 x_r2_g141 - 1 x_r2_g146 - 1 x_r2_g155 - 1 x_r2_g157 - 1 x_r2_g161 - 2 x_r2_g162 - 1 x_r3_g1 - 1 x_r3_g2 - 1 x_r3_g5 - 2 x_r3_g7 - 1 x_r3_g9 - 1 x_r3_g17 - 1 x_r3_g20 - 1 x_r3_g25 - 1 x_r3_g31 - 1 x_r3_g39 - 2 x_r3_g42 - 2 x_r3_g44 - 1 x_r3_g45 - 1 x_r3_g49 - 1 x_r3_g53 - 1 x_r3_g59 - 1 x_r3_g62 - 1 x_r3_g64 - 1 x_r3_g66 - 1 x_r3_g68 - 1 x_r3_g73 - 1 x_r3_g77 - 2 x_r3_g83 - 1 x_r3_g117 - 1 x_r3_g118 - 1 x_r3_g122 - 1 x_r3_g161 - 1 p_r0_g11_h142_t36 - 1 p_r0_g12_h143_t36 - 1 p_r0_g17_h148_t36 - 1 p_r0_g47_h11_t36 - 1 p_r0_g53_h17_t36 - 1 p_r0_g55_h19_t36 - 1 p_r0_g60_h24_t36 - 1 p_r0_g74_h38_t36 - 1 p_r0_g91_h55_t36 - 1 p_r0_g93_h57_t36 - 1 p_r0_g121_h85_t36 - 1 p_r0_g144_h108_t36 - 1 p_r1_g42_h6_t36 - 1 p_r1_g74_h38_t36 - 1 p_r1_g121_h85_t36 - 1 p_r1_g124_h88_t36 - 1 p_r1_g163_h127_t36 - 1 p_r2_g4_h135_t36 - 1 p_r2_g15_h146_t36 - 1 p_r2_g51_h15_t36 - 1 p_r2_g95_h59_t36 - 1 p_r2_g121_h85_t36 - 1 p_r2_g157_h121_t36 - 1 p_r3_g1_h132_t36 - 1 p_r3_g25_h156_t36 - 1 p_r3_g45_h9_t36 - 1 p_r3_g53_h17_t36 - 1 p_r3_g62_h26_t36 - 1 p_r3_g69_h33_t36 = -82
 abs_pos_36: d_36 - u_36 <= 0
 abs_neg_36: - d_36 - u_36 <= 0
 max_def_36: u_36 - M <= 0
 cap_36: u_36 <= 2
 lin1_40_0_15: p_r0_g15_h142_t40 - x_r0_g15 <= 0
 lin2_40_0_15: p_r0_g15_h142_t40 - x_r0_g142 <= 0
 lin3_40_0_15: p_r0_g15_h142_t40 - x_r0_g15 - x_r0_g142 >= -1
 lin1_40_0_17: p_r0_g17_h144_t40 - x_r0_g17 <= 0
 lin2_40_0_17: p_r0_g17_h144_t40 - x_r0_g144 <= 0
 lin3_40_0_17: p_r0_g17_h144_t40 - x_r0_g17 - x_r0_g144 >= -1
 lin1_40_0_47: p_r0_g47_h7_t40 - x_r0_g47 <= 0
 lin2_40_0_47: p_r0_g47_h7_t40 - x_r0_g7 <= 0
 lin3_40_0_47: p_r0_g47_h7_t40 - x_r0_g47 - x_r0_g7 >= -1
 lin1_40_0_55: p_r0_g55_h15_t40 - x_r0_g55 <= 0
 lin2_40_0_55: p_r0_g55_h15_t40 - x_r0_g15 <= 0
 lin3_40_0_55: p_r0_g55_h15_t40 - x_r0_g55 - x_r0_g15 >= -1
 lin1_40_0_57: p_r0_g57_h17_t40 - x_r0_g57 <= 0
 lin2_40_0_57: p_r0_g57_h17_t40 - x_r0_g17 <= 0
 lin3_40_0_57: p_r0_g57_h17_t40 - x_r0_g57 - x_r0_g17 >= -1
 lin1_40_0_74: p_r0_g74_h34_t40 - x_r0_g74 <= 0
 lin2_40_0_74: p_r0_g74_h34_t40 - x_r0_g34 <= 0
 lin3_40_0_74: p_r0_g74_h34_t40 - x_r0_g74 - x_r0_g34 >= -1
 lin1_40_0_79: p_r0_g79_h39_t40 - x_r0_g79 <= 0
 lin2_40_0_79: p_r0_g79_h39_t40 - x_r0_g39 <= 0
 lin3_40_0_79: p_r0_g79_h39_t40 - x_r0_g79 - x_r0_g39 >= -1
 lin1_40_0_93: p_r0_g93_h53_t40 - x_r0_g93 <= 0
 lin2_40_0_93: p_r0_g93_h53_t40 - x_r0_g53 <= 0
 lin3_40_0_93: p_r0_g93_h53_t40 - x_r0_g93 - x_r0_g53 >= -1
 lin1_40_0_119: p_r0_g119_h79_t40 - x_r0_g119 <= 0
 lin2_40_0_119: p_r0_g119_h79_t40 - x_r0_g79 <= 0
 lin3_40_0_119: p_r0_g119_h79_t40 - x_r0_g119 - x_r0_g79 >= -1
 lin1_40_0_125: p_r0_g125_h85_t40 - x_r0_g125 <= 0
 lin2_40_0_125: p_r0_g125_h85_t40 - x_r0_g85 <= 0
 lin3_40_0_125: p_r0_g125_h85_t40 - x_r0_g125 - x_r0_g85 >= -1
 lin1_40_0_143: p_r0_g143_h103_t40 - x_r0_g143 <= 0
 lin2_40_0_143: p_r0_g143_h103_t40 - x_r0_g103 <= 0
 lin3_40_0_143: p_r0_g143_h103_t40 - x_r0_g143 - x_r0_g103 >= -1
 lin1_40_0_148: p_r0_g148_h108_t40 - x_r0_g148 <= 0
 lin2_40_0_148: p_r0_g148_h108_t40 - x_r0_g108 <= 0
 lin3_40_0_148: p_r0_g148_h108_t40 - x_r0_g148 - x_r0_g108 >= -1
 lin1_40_0_159: p_r0_g159_h119_t40 - x_r0_g159 <= 0
 lin2_40_0_159: p_r0_g159_h119_t40 - x_r0_g119 <= 0
 lin3_40_0_159: p_r0_g159_h119_t40 - x_r0_g159 - x_r0_g119 >= -1
 lin1_40_1_34: p_r1_g34_h161_t40 - x_r1_g34 <= 0
 lin2_40_1_34: p_r1_g34_h161_t40 - x_r1_g161 <= 0
 lin3_40_1_34: p_r1_g34_h161_t40 - x_r1_g34 - x_r1_g161 >= -1
 lin1_40_1_35: p_r1_g35_h162_t40 - x_r1_g35 <= 0
 lin2_40_1_35: p_r1_g35_h162_t40 - x_r1_g162 <= 0
 lin3_40_1_35: p_r1_g35_h162_t40 - x_r1_g35 - x_r1_g162 >= -1
 lin1_40_1_48: p_r1_g48_h8_t40 - x_r1_g48 <= 0
 lin2_40_1_48: p_r1_g48_h8_t40 - x_r1_g8 <= 0
 lin3_40_1_48: p_r1_g48_h8_t40 - x_r1_g48 - x_r1_g8 >= -1
 lin1_40_1_61: p_r1_g61_h21_t40 - x_r1_g61 <= 0
 lin2_40_1_61: p_r1_g61_h21_t40 - x_r1_g21 <= 0
 lin3_40_1_61: p_r1_g61_h21_t40 - x_r1_g61 - x_r1_g21 >= -1
 lin1_40_1_69: p_r1_g69_h29_t40 - x_r1_g69 <= 0
 lin2_40_1_69: p_r1_g69_h29_t40 - x_r1_g29 <= 0
 lin3_40_1_69: p_r1_g69_h29_t40 - x_r1_g69 - x_r1_g29 >= -1
 lin1_40_1_74: p_r1_g74_h34_t40 - x_r1_g74 <= 0
 lin2_40_1_74: p_r1_g74_h34_t40 - x_r1_g34 <= 0
 lin3_40_1_74: p_r1_g74_h34_t40 - x_r1_g74 - x_r1_g34 >= -1
 lin1_40_1_80: p_r1_g80_h40_t40 - x_r1_g80 <= 0
 lin2_40_1_80: p_r1_g80_h40_t40 - x_r1_g40 <= 0
 lin3_40_1_80: p_r1_g80_h40_t40 - x_r1_g80 - x_r1_g40 >= -1
 lin1_40_1_82: p_r1_g82_h42_t40 - x_r1_g82 <= 0
 lin2_40_1_82: p_r1_g82_h42_t40 - x_r1_g42 <= 0
 lin3_40_1_82: p_r1_g82_h42_t40 - x_r1_g82 - x_r1_g42 >= -1
 lin1_40_1_85: p_r1_g85_h45_t40 - x_r1_g85 <= 0
 lin2_40_1_85: p_r1_g85_h45_t40 - x_r1_g45 <= 0
 lin3_40_1_85: p_r1_g85_h45_t40 - x_r1_g85 - x_r1_g45 >= -1
 lin1_40_1_88: p_r1_g88_h48_t40 - x_r1_g88 <= 0
 lin2_40_1_88: p_r1_g88_h48_t40 - x_r1_g48 <= 0
 lin3_40_1_88: p_r1_g88_h48_t40 - x_r1_g88 - x_r1_g48 >= -1
 lin1_40_1_128: p_r1_g128_h88_t40 - x_r1_g128 <= 0
 lin2_40_1_128: p_r1_g128_h88_t40 - x_r1_g88 <= 0
 lin3_40_1_128: p_r1_g128_h88_t40 - x_r1_g128 - x_r1_g88 >= -1
 lin1_40_1_161: p_r1_g161_h121_t40 - x_r1_g161 <= 0
 lin2_40_1_161: p_r1_g161_h121_t40 - x_r1_g121 <= 0
 lin3_40_1_161: p_r1_g161_h121_t40 - x_r1_g161 - x_r1_g121 >= -1
 lin1_40_2_20: p_r2_g20_h147_t40 - x_r2_g20 <= 0
 lin2_40_2_20: p_r2_g20_h147_t40 - x_r2_g147 <= 0
 lin3_40_2_20: p_r2_g20_h147_t40 - x_r2_g20 - x_r2_g147 >= -1
 lin1_40_2_34: p_r2_g34_h161_t40 - x_r2_g34 <= 0
 lin2_40_2_34: p_r2_g34_h161_t40 - x_r2_g161 <= 0
 lin3_40_2_34: p_r2_g34_h161_t40 - x_r2_g34 - x_r2_g161 >= -1
 lin1_40_2_35: p_r2_g35_h162_t40 - x_r2_g35 <= 0
 lin2_40_2_35: p_r2_g35_h162_t40 - x_r2_g162 <= 0
 lin3_40_2_35: p_r2_g35_h162_t40 - x_r2_g35 - x_r2_g162 >= -1
 lin1_40_2_44: p_r2_g44_h4_t40 - x_r2_g44 <= 0
 lin2_40_2_44: p_r2_g44_h4_t40 - x_r2_g4 <= 0
 lin3_40_2_44: p_r2_g44_h4_t40 - x_r2_g44 - x_r2_g4 >= -1
 lin1_40_2_55: p_r2_g55_h15_t40 - x_r2_g55 <= 0
 lin2_40_2_55: p_r2_g55_h15_t40 - x_r2_g15 <= 0
 lin3_40_2_55: p_r2_g55_h15_t40 - x_r2_g55 - x_r2_g15 >= -1
 lin1_40_2_74: p_r2_g74_h34_t40 - x_r2_g74 <= 0
 lin2_40_2_74: p_r2_g74_h34_t40 - x_r2_g34 <= 0
 lin3_40_2_74: p_r2_g74_h34_t40 - x_r2_g74 - x_r2_g34 >= -1
 lin1_40_2_75: p_r2_g75_h35_t40 - x_r2_g75 <= 0
 lin2_40_2_75: p_r2_g75_h35_t40 - x_r2_g35 <= 0
 lin3_40_2_75: p_r2_g75_h35_t40 - x_r2_g75 - x_r2_g35 >= -1
 lin1_40_2_95: p_r2_g95_h55_t40 - x_r2_g95 <= 0
 lin2_40_2_95: p_r2_g95_h55_t40 - x_r2_g55 <= 0
 lin3_40_2_95: p_r2_g95_h55_t40 - x_r2_g95 - x_r2_g55 >= -1
 lin1_40_2_130: p_r2_g130_h90_t40 - x_r2_g130 <= 0
 lin2_40_2_130: p_r2_g130_h90_t40 - x_r2_g90 <= 0
 lin3_40_2_130: p_r2_g130_h90_t40 - x_r2_g130 - x_r2_g90 >= -1
 lin1_40_2_135: p_r2_g135_h95_t40 - x_r2_g135 <= 0
 lin2_40_2_135: p_r2_g135_h95_t40 - x_r2_g95 <= 0
 lin3_40_2_135: p_r2_g135_h95_t40 - x_r2_g135 - x_r2_g95 >= -1
 lin1_40_2_141: p_r2_g141_h101_t40 - x_r2_g141 <= 0
 lin2_40_2_141: p_r2_g141_h101_t40 - x_r2_g101 <= 0
 lin3_40_2_141: p_r2_g141_h101_t40 - x_r2_g141 - x_r2_g101 >= -1
 lin1_40_2_146: p_r2_g146_h106_t40 - x_r2_g146 <= 0
 lin2_40_2_146: p_r2_g146_h106_t40 - x_r2_g106 <= 0
 lin3_40_2_146: p_r2_g146_h106_t40 - x_r2_g146 - x_r2_g106 >= -1
 lin1_40_2_157: p_r2_g157_h117_t40 - x_r2_g157 <= 0
 lin2_40_2_157: p_r2_g157_h117_t40 - x_r2_g117 <= 0
 lin3_40_2_157: p_r2_g157_h117_t40 - x_r2_g157 - x_r2_g117 >= -1
 lin1_40_2_161: p_r2_g161_h121_t40 - x_r2_g161 <= 0
 lin2_40_2_161: p_r2_g161_h121_t40 - x_r2_g121 <= 0
 lin3_40_2_161: p_r2_g161_h121_t40 - x_r2_g161 - x_r2_g121 >= -1
 lin1_40_3_5: p_r3_g5_h132_t40 - x_r3_g5 <= 0
 lin2_40_3_5: p_r3_g5_h132_t40 - x_r3_g132 <= 0
 lin3_40_3_5: p_r3_g5_h132_t40 - x_r3_g5 - x_r3_g132 >= -1
 lin1_40_3_39: p_r3_g39_h166_t40 - x_r3_g39 <= 0
 lin2_40_3_39: p_r3_g39_h166_t40 - x_r3_g166 <= 0
 lin3_40_3_39: p_r3_g39_h166_t40 - x_r3_g39 - x_r3_g166 >= -1
 lin1_40_3_42: p_r3_g42_h2_t40 - x_r3_g42 <= 0
 lin2_40_3_42: p_r3_g42_h2_t40 - x_r3_g2 <= 0
 lin3_40_3_42: p_r3_g42_h2_t40 - x_r3_g42 - x_r3_g2 >= -1
 lin1_40_3_45: p_r3_g45_h5_t40 - x_r3_g45 <= 0
 lin2_40_3_45: p_r3_g45_h5_t40 - x_r3_g5 <= 0
 lin3_40_3_45: p_r3_g45_h5_t40 - x_r3_g45 - x_r3_g5 >= -1
 lin1_40_3_49: p_r3_g49_h9_t40 - x_r3_g49 <= 0
 lin2_40_3_49: p_r3_g49_h9_t40 - x_r3_g9 <= 0
 lin3_40_3_49: p_r3_g49_h9_t40 - x_r3_g49 - x_r3_g9 >= -1
 lin1_40_3_60: p_r3_g60_h20_t40 - x_r3_g60 <= 0
 lin2_40_3_60: p_r3_g60_h20_t40 - x_r3_g20 <= 0
 lin3_40_3_60: p_r3_g60_h20_t40 - x_r3_g60 - x_r3_g20 >= -1
 lin1_40_3_62: p_r3_g62_h22_t40 - x_r3_g62 <= 0
 lin2_40_3_62: p_r3_g62_h22_t40 - x_r3_g22 <= 0
 lin3_40_3_62: p_r3_g62_h22_t40 - x_r3_g62 - x_r3_g22 >= -1
 lin1_40_3_66: p_r3_g66_h26_t40 - x_r3_g66 <= 0
 lin2_40_3_66: p_r3_g66_h26_t40 - x_r3_g26 <= 0
 lin3_40_3_66: p_r3_g66_h26_t40 - x_r3_g66 - x_r3_g26 >= -1
 lin1_40_3_71: p_r3_g71_h31_t40 - x_r3_g71 <= 0
 lin2_40_3_71: p_r3_g71_h31_t40 - x_r3_g31 <= 0
 lin3_40_3_71: p_r3_g71_h31_t40 - x_r3_g71 - x_r3_g31 >= -1
 lin1_40_3_73: p_r3_g73_h33_t40 - x_r3_g73 <= 0
 lin2_40_3_73: p_r3_g73_h33_t40 - x_r3_g33 <= 0
 lin3_40_3_73: p_r3_g73_h33_t40 - x_r3_g73 - x_r3_g33 >= -1
 lin1_40_3_117: p_r3_g117_h77_t40 - x_r3_g117 <= 0
 lin2_40_3_117: p_r3_g117_h77_t40 - x_r3_g77 <= 0
 lin3_40_3_117: p_r3_g117_h77_t40 - x_r3_g117 - x_r3_g77 >= -1
 defect_40: 1 d_40 - 2 x_r0_g5 - 1 x_r0_g11 - 2 x_r0_g12 - 2 x_r0_g19 - 1 x_r0_g24 - 2 x_r0_g30 - 1 x_r0_g31 - 1 x_r0_g38 - 1 x_r0_g53 - 2 x_r0_g60 - 1 x_r0_g85 - 2 x_r0_g91 - 1 x_r0_g103 - 1 x_r0_g108 - 1 x_r0_g125 - 1 x_r0_g142 - 2 x_r0_g163 - 1 x_r1_g6 - 1 x_r1_g22 - 1 x_r1_g26 - 1 x_r1_g29 - 1 x_r1_g38 - 2 x_r1_g39 - 2 x_r1_g50 - 1 x_r1_g68 - 1 x_r1_g69 - 1 x_r1_g74 - 1 x_r1_g77 - 1 x_r1_g121 - 2 x_r1_g124 - 1 x_r1_g127 - 1 x_r1_g128 - 1 x_r1_g129 - 2 x_r1_g130 - 2 x_r1_g138 - 1 x_r1_g155 - 2 x_r1_g163 - 2 x_r2_g1 - 1 x_r2_g20 - 2 x_r2_g21 - 2 x_r2_g58 - 2 x_r2_g73 - 1 x_r2_g74 - 1 x_r2_g75 - 1 x_r2_g83 - 1 x_r2_g85 - 2 x_r2_g86 - 1 x_r2_g101 - 1 x_r2_g104 - 1 x_r2_g112 - 1 x_r2_g141 - 2 x_r2_g155 - 1 x_r2_g157 - 1 x_r2_g162 - 2 x_r3_g1 - 1 x_r3_g2 - 2 x_r3_g7 - 1 x_r3_g17 - 2 x_r3_g21 - 1 x_r3_g22 - 1 x_r3_g25 - 1 x_r3_g33 - 1 x_r3_g44 - 1 x_r3_g49 - 1 x_r3_g52 - 1 x_r3_g53 - 2 x_r3_g59 - 1 x_r3_g66 - 2 x_r3_g68 - 1 x_r3_g71 - 1 x_r3_g77 - 2 x_r3_g83 - 1 x_r3_g118 - 1 x_r3_g122 - 1 p_r0_g15_h142_t40 - 1 p_r0_g17_h144_t40 - 1 p_r0_g47_h7_t40 - 1 p_r0_g55_h15_t40 - 1 p_r0_g57_h17_t40 - 1 p_r0_g74_h34_t40 - 1 p_r0_g79_h39_t40 - 1 p_r0_g93_h53_t40 - 1 p_r0_g119_h79_t40 - 1 p_r0_g125_h85_t40 - 1 p_r0_g143_h103_t40 - 1 p_r0_g148_h108_t40 - 1 p_r0_g159_h119_t40 - 1 p_r1_g34_h161_t40 - 1 p_r1_g35_h162_t40 - 1 p_r1_g48_h8_t40 - 1 p_r1_g61_h21_t40 - 1 p_r1_g69_h29_t40 - 1 p_r1_g74_h34_t40 - 1 p_r1_g80_h40_t40 - 1 p_r1_g82_h42_t40 - 1 p_r1_g85_h45_t40 - 1 p_r1_g88_h48_t40 - 1 p_r1_g128_h88_t40 - 1 p_r1_g161_h121_t40 - 1 p_r2_g20_h147_t40 - 1 p_r2_g34_h161_t40 - 1 p_r2_g35_h162_t40 - 1 p_r2_g44_h4_t40 - 1 p_r2_g55_h15_t40 - 1 p_r2_g74_h34_t40 - 1 p_r2_g75_h35_t40 - 1 p_r2_g95_h55_t40 - 1 p_r2_g130_h90_t40 - 1 p_r2_g135_h95_t40 - 1 p_r2_g141_h101_t40 - 1 p_r2_g146_h106_t40 - 1 p_r2_g157_h117_t40 - 1 p_r2_g161_h121_t40 - 1 p_r3_g5_h132_t40 - 1 p_r3_g39_h166_t40 - 1 p_r3_g42_h2_t40 - 1 p_r3_g45_h5_t40 - 1 p_r3_g49_h9_t40 - 1 p_r3_g60_h20_t40 - 1 p_r3_g62_h22_t40 - 1 p_r3_g66_h26_t40 - 1 p_r3_g71_h31_t40 - 1 p_r3_g73_h33_t40 - 1 p_r3_g117_h77_t40 = -86
 abs_pos_40: d_40 - u_40 <= 0
 abs_neg_40: - d_40 - u_40 <= 0
 max_def_40: u_40 - M <= 0
 cap_40: u_40 <= 2
 lin1_42_0_17: p_r0_g17_h142_t42 - x_r0_g17 <= 0
 lin2_42_0_17: p_r0_g17_h142_t42 - x_r0_g142 <= 0
 lin3_42_0_17: p_r0_g17_h142_t42 - x_r0_g17 - x_r0_g142 >= -1
 lin1_42_0_19: p_r0_g19_h144_t42 - x_r0_g19 <= 0
 lin2_42_0_19: p_r0_g19_h144_t42 - x_r0_g144 <= 0
 lin3_42_0_19: p_r0_g19_h144_t42 - x_r0_g19 - x_r0_g144 >= -1
 lin1_42_0_34: p_r0_g34_h159_t42 - x_r0_g34 <= 0
 lin2_42_0_34: p_r0_g34_h159_t42 - x_r0_g159 <= 0
 lin3_42_0_34: p_r0_g34_h159_t42 - x_r0_g34 - x_r0_g159 >= -1
 lin1_42_0_38: p_r0_g38_h163_t42 - x_r0_g38 <= 0
 lin2_42_0_38: p_r0_g38_h163_t42 - x_r0_g163 <= 0
 lin3_42_0_38: p_r0_g38_h163_t42 - x_r0_g38 - x_r0_g163 >= -1
 lin1_42_0_47: p_r0_g47_h5_t42 - x_r0_g47 <= 0
 lin2_42_0_47: p_r0_g47_h5_t42 - x_r0_g5 <= 0
 lin3_42_0_47: p_r0_g47_h5_t42 - x_r0_g47 - x_r0_g5 >= -1
 lin1_42_0_53: p_r0_g53_h11_t42 - x_r0_g53 <= 0
 lin2_42_0_53: p_r0_g53_h11_t42 - x_r0_g11 <= 0
 lin3_42_0_53: p_r0_g53_h11_t42 - x_r0_g53 - x_r0_g11 >= -1
 lin1_42_0_57: p_r0_g57_h15_t42 - x_r0_g57 <= 0
 lin2_42_0_57: p_r0_g57_h15_t42 - x_r0_g15 <= 0
 lin3_42_0_57: p_r0_g57_h15_t42 - x_r0_g57 - x_r0_g15 >= -1
 lin1_42_0_121: p_r0_g121_h79_t42 - x_r0_g121 <= 0
 lin2_42_0_121: p_r0_g121_h79_t42 - x_r0_g79 <= 0
 lin3_42_0_121: p_r0_g121_h79_t42 - x_r0_g121 - x_r0_g79 >= -1
 lin1_42_0_135: p_r0_g135_h93_t42 - x_r0_g135 <= 0
 lin2_42_0_135: p_r0_g135_h93_t42 - x_r0_g93 <= 0
 lin3_42_0_135: p_r0_g135_h93_t42 - x_r0_g135 - x_r0_g93 >= -1
 lin1_42_0_163: p_r0_g163_h121_t42 - x_r0_g163 <= 0
 lin2_42_0_163: p_r0_g163_h121_t42 - x_r0_g121 <= 0
 lin3_42_0_163: p_r0_g163_h121_t42 - x_r0_g163 - x_r0_g121 >= -1
 lin1_42_1_38: p_r1_g38_h163_t42 - x_r1_g38 <= 0
 lin2_42_1_38: p_r1_g38_h163_t42 - x_r1_g163 <= 0
 lin3_42_1_38: p_r1_g38_h163_t42 - x_r1_g38 - x_r1_g163 >= -1
 lin1_42_1_48: p_r1_g48_h6_t42 - x_r1_g48 <= 0
 lin2_42_1_48: p_r1_g48_h6_t42 - x_r1_g6 <= 0
 lin3_42_1_48: p_r1_g48_h6_t42 - x_r1_g48 - x_r1_g6 >= -1
 lin1_42_1_50: p_r1_g50_h8_t42 - x_r1_g50 <= 0
 lin2_42_1_50: p_r1_g50_h8_t42 - x_r1_g8 <= 0
 lin3_42_1_50: p_r1_g50_h8_t42 - x_r1_g50 - x_r1_g8 >= -1
 lin1_42_1_64: p_r1_g64_h22_t42 - x_r1_g64 <= 0
 lin2_42_1_64: p_r1_g64_h22_t42 - x_r1_g22 <= 0
 lin3_42_1_64: p_r1_g64_h22_t42 - x_r1_g64 - x_r1_g22 >= -1
 lin1_42_1_68: p_r1_g68_h26_t42 - x_r1_g68 <= 0
 lin2_42_1_68: p_r1_g68_h26_t42 - x_r1_g26 <= 0
 lin3_42_1_68: p_r1_g68_h26_t42 - x_r1_g68 - x_r1_g26 >= -1
 lin1_42_1_77: p_r1_g77_h35_t42 - x_r1_g77 <= 0
 lin2_42_1_77: p_r1_g77_h35_t42 - x_r1_g35 <= 0
 lin3_42_1_77: p_r1_g77_h35_t42 - x_r1_g77 - x_r1_g35 >= -1
 lin1_42_1_80: p_r1_g80_h38_t42 - x_r1_g80 <= 0
 lin2_42_1_80: p_r1_g80_h38_t42 - x_r1_g38 <= 0
 lin3_42_1_80: p_r1_g80_h38_t42 - x_r1_g80 - x_r1_g38 >= -1
 lin1_42_1_82: p_r1_g82_h40_t42 - x_r1_g82 <= 0
 lin2_42_1_82: p_r1_g82_h40_t42 - x_r1_g40 <= 0
 lin3_42_1_82: p_r1_g82_h40_t42 - x_r1_g82 - x_r1_g40 >= -1
 lin1_42_1_124: p_r1_g124_h82_t42 - x_r1_g124 <= 0
 lin2_42_1_124: p_r1_g124_h82_t42 - x_r1_g82 <= 0
 lin3_42_1_124: p_r1_g124_h82_t42 - x_r1_g124 - x_r1_g82 >= -1
 lin1_42_1_127: p_r1_g127_h85_t42 - x_r1_g127 <= 0
 lin2_42_1_127: p_r1_g127_h85_t42 - x_r1_g85 <= 0
 lin3_42_1_127: p_r1_g127_h85_t42 - x_r1_g127 - x_r1_g85 >= -1
 lin1_42_1_130: p_r1_g130_h88_t42 - x_r1_g130 <= 0
 lin2_42_1_130: p_r1_g130_h88_t42 - x_r1_g88 <= 0
 lin3_42_1_130: p_r1_g130_h88_t42 - x_r1_g130 - x_r1_g88 >= -1
 lin1_42_1_141: p_r1_g141_h99_t42 - x_r1_g141 <= 0
 lin2_42_1_141: p_r1_g141_h99_t42 - x_r1_g99 <= 0
 lin3_42_1_141: p_r1_g141_h99_t42 - x_r1_g141 - x_r1_g99 >= -1
 lin1_42_1_163: p_r1_g163_h121_t42 - x_r1_g163 <= 0
 lin2_42_1_163: p_r1_g163_h121_t42 - x_r1_g121 <= 0
 lin3_42_1_163: p_r1_g163_h121_t42 - x_r1_g163 - x_r1_g121 >= -1
 lin1_42_2_21: p_r2_g21_h146_t42 - x_r2_g21 <= 0
 lin2_42_2_21: p_r2_g21_h146_t42 - x_r2_g146 <= 0
 lin3_42_2_21: p_r2_g21_h146_t42 - x_r2_g21 - x_r2_g146 >= -1
 lin1_42_2_32: p_r2_g32_h157_t42 - x_r2_g32 <= 0
 lin2_42_2_32: p_r2_g32_h157_t42 - x_r2_g157 <= 0
 lin3_42_2_32: p_r2_g32_h157_t42 - x_r2_g32 - x_r2_g157 >= -1
 lin1_42_2_74: p_r2_g74_h32_t42 - x_r2_g74 <= 0
 lin2_42_2_74: p_r2_g74_h32_t42 - x_r2_g32 <= 0
 lin3_42_2_74: p_r2_g74_h32_t42 - x_r2_g74 - x_r2_g32 >= -1
 lin1_42_2_86: p_r2_g86_h44_t42 - x_r2_g86 <= 0
 lin2_42_2_86: p_r2_g86_h44_t42 - x_r2_g44 <= 0
 lin3_42_2_86: p_r2_g86_h44_t42 - x_r2_g86 - x_r2_g44 >= -1
 lin1_42_2_95: p_r2_g95_h53_t42 - x_r2_g95 <= 0
 lin2_42_2_95: p_r2_g95_h53_t42 - x_r2_g53 <= 0
 lin3_42_2_95: p_r2_g95_h53_t42 - x_r2_g95 - x_r2_g53 >= -1
 lin1_42_2_101: p_r2_g101_h59_t42 - x_r2_g101 <= 0
 lin2_42_2_101: p_r2_g101_h59_t42 - x_r2_g59 <= 0
 lin3_42_2_101: p_r2_g101_h59_t42 - x_r2_g101 - x_r2_g59 >= -1
 lin1_42_2_117: p_r2_g117_h75_t42 - x_r2_g117 <= 0
 lin2_42_2_117: p_r2_g117_h75_t42 - x_r2_g75 <= 0
 lin3_42_2_117: p_r2_g117_h75_t42 - x_r2_g117 - x_r2_g75 >= -1
 lin1_42_2_146: p_r2_g146_h104_t42 - x_r2_g146 <= 0
 lin2_42_2_146: p_r2_g146_h104_t42 - x_r2_g104 <= 0
 lin3_42_2_146: p_r2_g146_h104_t42 - x_r2_g146 - x_r2_g104 >= -1
 lin1_42_3_7: p_r3_g7_h132_t42 - x_r3_g7 <= 0
 lin2_42_3_7: p_r3_g7_h132_t42 - x_r3_g132 <= 0
 lin3_42_3_7: p_r3_g7_h132_t42 - x_r3_g7 - x_r3_g132 >= -1
 lin1_42_3_31: p_r3_g31_h156_t42 - x_r3_g31 <= 0
 lin2_42_3_31: p_r3_g31_h156_t42 - x_r3_g156 <= 0
 lin3_42_3_31: p_r3_g31_h156_t42 - x_r3_g31 - x_r3_g156 >= -1
 lin1_42_3_44: p_r3_g44_h2_t42 - x_r3_g44 <= 0
 lin2_42_3_44: p_r3_g44_h2_t42 - x_r3_g2 <= 0
 lin3_42_3_44: p_r3_g44_h2_t42 - x_r3_g44 - x_r3_g2 >= -1
 lin1_42_3_49: p_r3_g49_h7_t42 - x_r3_g49 <= 0
 lin2_42_3_49: p_r3_g49_h7_t42 - x_r3_g7 <= 0
 lin3_42_3_49: p_r3_g49_h7_t42 - x_r3_g49 - x_r3_g7 >= -1
 lin1_42_3_51: p_r3_g51_h9_t42 - x_r3_g51 <= 0
 lin2_42_3_51: p_r3_g51_h9_t42 - x_r3_g9 <= 0
 lin3_42_3_51: p_r3_g51_h9_t42 - x_r3_g51 - x_r3_g9 >= -1
 lin1_42_3_59: p_r3_g59_h17_t42 - x_r3_g59 <= 0
 lin2_42_3_59: p_r3_g59_h17_t42 - x_r3_g17 <= 0
 lin3_42_3_59: p_r3_g59_h17_t42 - x_r3_g59 - x_r3_g17 >= -1
 lin1_42_3_62: p_r3_g62_h20_t42 - x_r3_g62 <= 0
 lin2_42_3_62: p_r3_g62_h20_t42 - x_r3_g20 <= 0
 lin3_42_3_62: p_r3_g62_h20_t42 - x_r3_g62 - x_r3_g20 >= -1
 lin1_42_3_64: p_r3_g64_h22_t42 - x_r3_g64 <= 0
 lin2_42_3_64: p_r3_g64_h22_t42 - x_r3_g22 <= 0
 lin3_42_3_64: p_r3_g64_h22_t42 - x_r3_g64 - x_r3_g22 >= -1
 lin1_42_3_68: p_r3_g68_h26_t42 - x_r3_g68 <= 0
 lin2_42_3_68: p_r3_g68_h26_t42 - x_r3_g26 <= 0
 lin3_42_3_68: p_r3_g68_h26_t42 - x_r3_g68 - x_r3_g26 >= -1
 lin1_42_3_73: p_r3_g73_h31_t42 - x_r3_g73 <= 0
 lin2_42_3_73: p_r3_g73_h31_t42 - x_r3_g31 <= 0
 lin3_42_3_73: p_r3_g73_h31_t42 - x_r3_g73 - x_r3_g31 >= -1
 defect_42: 1 d_42 - 2 x_r0_g7 - 1 x_r0_g11 - 2 x_r0_g12 - 1 x_r0_g17 - 1 x_r0_g24 - 1 x_r0_g30 - 2 x_r0_g35 - 1 x_r0_g55 - 2 x_r0_g56 - 1 x_r0_g60 - 1 x_r0_g74 - 1 x_r0_g79 - 2 x_r0_g85 - 2 x_r0_g90 - 1 x_r0_g91 - 1 x_r0_g93 - 1 x_r0_g119 - 1 x_r0_g142 - 1 x_r0_g143 - 1 x_r0_g144 - 1 x_r1_g21 - 1 x_r1_g23 - 1 x_r1_g29 - 1 x_r1_g34 - 1 x_r1_g35 - 2 x_r1_g39 - 1 x_r1_g42 - 2 x_r1_g45 - 1 x_r1_g48 - 1 x_r1_g61 - 1 x_r1_g69 - 1 x_r1_g74 - 1 x_r1_g77 - 1 x_r1_g88 - 1 x_r1_g99 - 1 x_r1_g121 - 1 x_r1_g124 - 1 x_r1_g128 - 1 x_r1_g129 - 1 x_r1_g138 - 1 x_r1_g155 - 2 x_r1_g161 - 1 x_r1_g162 - 2 x_r2_g1 - 2 x_r2_g4 - 1 x_r2_g15 - 1 x_r2_g21 - 1 x_r2_g35 - 1 x_r2_g52 - 2 x_r2_g73 - 1 x_r2_g74 - 1 x_r2_g75 - 1 x_r2_g83 - 2 x_r2_g85 - 1 x_r2_g86 - 2 x_r2_g90 - 1 x_r2_g95 - 2 x_r2_g106 - 1 x_r2_g121 - 1 x_r2_g124 - 1 x_r2_g147 - 2 x_r2_g155 - 1 x_r2_g157 - 1 x_r2_g161 - 1 x_r2_g162 - 1 x_r3_g1 - 1 x_r3_g2 - 1 x_r3_g5 - 1 x_r3_g9 - 1 x_r3_g17 - 1 x_r3_g20 - 1 x_r3_g21 - 1 x_r3_g26 - 1 x_r3_g33 - 1 x_r3_g39 - 1 x_r3_g44 - 1 x_r3_g52 - 1 x_r3_g60 - 1 x_r3_g64 - 1 x_r3_g66 - 1 x_r3_g68 - 2 x_r3_g69 - 1 x_r3_g77 - 1 x_r3_g83 - 1 x_r3_g117 - 2 x_r3_g118 - 1 x_r3_g122 - 1 x_r3_g141 - 2 x_r3_g161 - 2 x_r3_g166 - 1 p_r0_g17_h142_t42 - 1 p_r0_g19_h144_t42 - 1 p_r0_g34_h159_t42 - 1 p_r0_g38_h163_t42 - 1 p_r0_g47_h5_t42 - 1 p_r0_g53_h11_t42 - 1 p_r0_g57_h15_t42 - 1 p_r0_g121_h79_t42 - 1 p_r0_g135_h93_t42 - 1 p_r0_g163_h121_t42 - 1 p_r1_g38_h163_t42 - 1 p_r1_g48_h6_t42 - 1 p_r1_g50_h8_t42 - 1 p_r1_g64_h22_t42 - 1 p_r1_g68_h26_t42 - 1 p_r1_g77_h35_t42 - 1 p_r1_g80_h38_t42 - 1 p_r1_g82_h40_t42 - 1 p_r1_g124_h82_t42 - 1 p_r1_g127_h85_t42 - 1 p_r1_g130_h88_t42 - 1 p_r1_g141_h99_t42 - 1 p_r1_g163_h121_t42 - 1 p_r2_g21_h146_t42 - 1 p_r2_g32_h157_t42 - 1 p_r2_g74_h32_t42 - 1 p_r2_g86_h44_t42 - 1 p_r2_g95_h53_t42 - 1 p_r2_g101_h59_t42 - 1 p_r2_g117_h75_t42 - 1 p_r2_g146_h104_t42 - 1 p_r3_g7_h132_t42 - 1 p_r3_g31_h156_t42 - 1 p_r3_g44_h2_t42 - 1 p_r3_g49_h7_t42 - 1 p_r3_g51_h9_t42 - 1 p_r3_g59_h17_t42 - 1 p_r3_g62_h20_t42 - 1 p_r3_g64_h22_t42 - 1 p_r3_g68_h26_t42 - 1 p_r3_g73_h31_t42 = -68
 abs_pos_42: d_42 - u_42 <= 0
 abs_neg_42: - d_42 - u_42 <= 0
 max_def_42: u_42 - M <= 0
 cap_42: u_42 <= 0
 lin1_44_0_12: p_r0_g12_h135_t44 - x_r0_g12 <= 0
 lin2_44_0_12: p_r0_g12_h135_t44 - x_r0_g135 <= 0
 lin3_44_0_12: p_r0_g12_h135_t44 - x_r0_g12 - x_r0_g135 >= -1
 lin1_44_0_19: p_r0_g19_h142_t44 - x_r0_g19 <= 0
 lin2_44_0_19: p_r0_g19_h142_t44 - x_r0_g142 <= 0
 lin3_44_0_19: p_r0_g19_h142_t44 - x_r0_g19 - x_r0_g142 >= -1
 lin1_44_0_31: p_r0_g31_h154_t44 - x_r0_g31 <= 0
 lin2_44_0_31: p_r0_g31_h154_t44 - x_r0_g154 <= 0
 lin3_44_0_31: p_r0_g31_h154_t44 - x_r0_g31 - x_r0_g154 >= -1
 lin1_44_0_55: p_r0_g55_h11_t44 - x_r0_g55 <= 0
 lin2_44_0_55: p_r0_g55_h11_t44 - x_r0_g11 <= 0
 lin3_44_0_55: p_r0_g55_h11_t44 - x_r0_g55 - x_r0_g11 >= -1
 lin1_44_0_56: p_r0_g56_h12_t44 - x_r0_g56 <= 0
 lin2_44_0_56: p_r0_g56_h12_t44 - x_r0_g12 <= 0
 lin3_44_0_56: p_r0_g56_h12_t44 - x_r0_g56 - x_r0_g12 >= -1
 lin1_44_0_74: p_r0_g74_h30_t44 - x_r0_g74 <= 0
 lin2_44_0_74: p_r0_g74_h30_t44 - x_r0_g30 <= 0
 lin3_44_0_74: p_r0_g74_h30_t44 - x_r0_g74 - x_r0_g30 >= -1
 lin1_44_0_79: p_r0_g79_h35_t44 - x_r0_g79 <= 0
 lin2_44_0_79: p_r0_g79_h35_t44 - x_r0_g35 <= 0
 lin3_44_0_79: p_r0_g79_h35_t44 - x_r0_g79 - x_r0_g35 >= -1
 lin1_44_0_91: p_r0_g91_h47_t44 - x_r0_g91 <= 0
 lin2_44_0_91: p_r0_g91_h47_t44 - x_r0_g47 <= 0
 lin3_44_0_91: p_r0_g91_h47_t44 - x_r0_g91 - x_r0_g47 >= -1
 lin1_44_0_135: p_r0_g135_h91_t44 - x_r0_g135 <= 0
 lin2_44_0_135: p_r0_g135_h91_t44 - x_r0_g91 <= 0
 lin3_44_0_135: p_r0_g135_h91_t44 - x_r0_g135 - x_r0_g91 >= -1
 lin1_44_0_163: p_r0_g163_h119_t44 - x_r0_g163 <= 0
 lin2_44_0_163: p_r0_g163_h119_t44 - x_r0_g119 <= 0
 lin3_44_0_163: p_r0_g163_h119_t44 - x_r0_g163 - x_r0_g119 >= -1
 lin1_44_1_6: p_r1_g6_h129_t44 - x_r1_g6 <= 0
 lin2_44_1_6: p_r1_g6_h129_t44 - x_r1_g129 <= 0
 lin3_44_1_6: p_r1_g6_h129_t44 - x_r1_g6 - x_r1_g129 >= -1
 lin1_44_1_21: p_r1_g21_h144_t44 - x_r1_g21 <= 0
 lin2_44_1_21: p_r1_g21_h144_t44 - x_r1_g144 <= 0
 lin3_44_1_21: p_r1_g21_h144_t44 - x_r1_g21 - x_r1_g144 >= -1
 lin1_44_1_38: p_r1_g38_h161_t44 - x_r1_g38 <= 0
 lin2_44_1_38: p_r1_g38_h161_t44 - x_r1_g161 <= 0
 lin3_44_1_38: p_r1_g38_h161_t44 - x_r1_g38 - x_r1_g161 >= -1
 lin1_44_1_39: p_r1_g39_h162_t44 - x_r1_g39 <= 0
 lin2_44_1_39: p_r1_g39_h162_t44 - x_r1_g162 <= 0
 lin3_44_1_39: p_r1_g39_h162_t44 - x_r1_g39 - x_r1_g162 >= -1
 lin1_44_1_40: p_r1_g40_h163_t44 - x_r1_g40 <= 0
 lin2_44_1_40: p_r1_g40_h163_t44 - x_r1_g163 <= 0
 lin3_44_1_40: p_r1_g40_h163_t44 - x_r1_g40 - x_r1_g163 >= -1
 lin1_44_1_50: p_r1_g50_h6_t44 - x_r1_g50 <= 0
 lin2_44_1_50: p_r1_g50_h6_t44 - x_r1_g6 <= 0
 lin3_44_1_50: p_r1_g50_h6_t44 - x_r1_g50 - x_r1_g6 >= -1
 lin1_44_1_82: p_r1_g82_h38_t44 - x_r1_g82 <= 0
 lin2_44_1_82: p_r1_g82_h38_t44 - x_r1_g38 <= 0
 lin3_44_1_82: p_r1_g82_h38_t44 - x_r1_g82 - x_r1_g38 >= -1
 lin1_44_1_121: p_r1_g121_h77_t44 - x_r1_g121 <= 0
 lin2_44_1_121: p_r1_g121_h77_t44 - x_r1_g77 <= 0
 lin3_44_1_121: p_r1_g121_h77_t44 - x_r1_g121 - x_r1_g77 >= -1
 lin1_44_1_124: p_r1_g124_h80_t44 - x_r1_g124 <= 0
 lin2_44_1_124: p_r1_g124_h80_t44 - x_r1_g80 <= 0
 lin3_44_1_124: p_r1_g124_h80_t44 - x_r1_g124 - x_r1_g80 >= -1
 lin1_44_1_129: p_r1_g129_h85_t44 - x_r1_g129 <= 0
 lin2_44_1_129: p_r1_g129_h85_t44 - x_r1_g85 <= 0
 lin3_44_1_129: p_r1_g129_h85_t44 - x_r1_g129 - x_r1_g85 >= -1
 lin1_44_2_1: p_r2_g1_h124_t44 - x_r2_g1 <= 0
 lin2_44_2_1: p_r2_g1_h124_t44 - x_r2_g124 <= 0
 lin3_44_2_1: p_r2_g1_h124_t44 - x_r2_g1 - x_r2_g124 >= -1
 lin1_44_2_32: p_r2_g32_h155_t44 - x_r2_g32 <= 0
 lin2_44_2_32: p_r2_g32_h155_t44 - x_r2_g155 <= 0
 lin3_44_2_32: p_r2_g32_h155_t44 - x_r2_g32 - x_r2_g155 >= -1
 lin1_44_2_34: p_r2_g34_h157_t44 - x_r2_g34 <= 0
 lin2_44_2_34: p_r2_g34_h157_t44 - x_r2_g157 <= 0
 lin3_44_2_34: p_r2_g34_h157_t44 - x_r2_g34 - x_r2_g157 >= -1
 lin1_44_2_59: p_r2_g59_h15_t44 - x_r2_g59 <= 0
 lin2_44_2_59: p_r2_g59_h15_t44 - x_r2_g15 <= 0
 lin3_44_2_59: p_r2_g59_h15_t44 - x_r2_g59 - x_r2_g15 >= -1
 lin1_44_2_95: p_r2_g95_h51_t44 - x_r2_g95 <= 0
 lin2_44_2_95: p_r2_g95_h51_t44 - x_r2_g51 <= 0
 lin3_44_2_95: p_r2_g95_h51_t44 - x_r2_g95 - x_r2_g51 >= -1
 lin1_44_2_117: p_r2_g117_h73_t44 - x_r2_g117 <= 0
 lin2_44_2_117: p_r2_g117_h73_t44 - x_r2_g73 <= 0
 lin3_44_2_117: p_r2_g117_h73_t44 - x_r2_g117 - x_r2_g73 >= -1
 lin1_44_2_130: p_r2_g130_h86_t44 - x_r2_g130 <= 0
 lin2_44_2_130: p_r2_g130_h86_t44 - x_r2_g86 <= 0
 lin3_44_2_130: p_r2_g130_h86_t44 - x_r2_g130 - x_r2_g86 >= -1
 lin1_44_2_161: p_r2_g161_h117_t44 - x_r2_g161 <= 0
 lin2_44_2_161: p_r2_g161_h117_t44 - x_r2_g117 <= 0
 lin3_44_2_161: p_r2_g161_h117_t44 - x_r2_g161 - x_r2_g117 >= -1
 lin1_44_3_9: p_r3_g9_h132_t44 - x_r3_g9 <= 0
 lin2_44_3_9: p_r3_g9_h132_t44 - x_r3_g132 <= 0
 lin3_44_3_9: p_r3_g9_h132_t44 - x_r3_g9 - x_r3_g132 >= -1
 lin1_44_3_33: p_r3_g33_h156_t44 - x_r3_g33 <= 0
 lin2_44_3_33: p_r3_g33_h156_t44 - x_r3_g156 <= 0
 lin3_44_3_33: p_r3_g33_h156_t44 - x_r3_g33 - x_r3_g156 >= -1
 lin1_44_3_45: p_r3_g45_h1_t44 - x_r3_g45 <= 0
 lin2_44_3_45: p_r3_g45_h1_t44 - x_r3_g1 <= 0
 lin3_44_3_45: p_r3_g45_h1_t44 - x_r3_g45 - x_r3_g1 >= -1
 lin1_44_3_49: p_r3_g49_h5_t44 - x_r3_g49 <= 0
 lin2_44_3_49: p_r3_g49_h5_t44 - x_r3_g5 <= 0
 lin3_44_3_49: p_r3_g49_h5_t44 - x_r3_g49 - x_r3_g5 >= -1
 lin1_44_3_51: p_r3_g51_h7_t44 - x_r3_g51 <= 0
 lin2_44_3_51: p_r3_g51_h7_t44 - x_r3_g7 <= 0
 lin3_44_3_51: p_r3_g51_h7_t44 - x_r3_g51 - x_r3_g7 >= -1
 lin1_44_3_53: p_r3_g53_h9_t44 - x_r3_g53 <= 0
 lin2_44_3_53: p_r3_g53_h9_t44 - x_r3_g9 <= 0
 lin3_44_3_53: p_r3_g53_h9_t44 - x_r3_g53 - x_r3_g9 >= -1
 lin1_44_3_64: p_r3_g64_h20_t44 - x_r3_g64 <= 0
 lin2_44_3_64: p_r3_g64_h20_t44 - x_r3_g20 <= 0
 lin3_44_3_64: p_r3_g64_h20_t44 - x_r3_g64 - x_r3_g20 >= -1
 lin1_44_3_66: p_r3_g66_h22_t44 - x_r3_g66 <= 0
 lin2_44_3_66: p_r3_g66_h22_t44 - x_r3_g22 <= 0
 lin3_44_3_66: p_r3_g66_h22_t44 - x_r3_g66 - x_r3_g22 >= -1
 lin1_44_3_69: p_r3_g69_h25_t44 - x_r3_g69 <= 0
 lin2_44_3_69: p_r3_g69_h25_t44 - x_r3_g25 <= 0
 lin3_44_3_69: p_r3_g69_h25_t44 - x_r3_g69 - x_r3_g25 >= -1
 lin1_44_3_77: p_r3_g77_h33_t44 - x_r3_g77 <= 0
 lin2_44_3_77: p_r3_g77_h33_t44 - x_r3_g33 <= 0
 lin3_44_3_77: p_r3_g77_h33_t44 - x_r3_g77 - x_r3_g33 >= -1
 lin1_44_3_83: p_r3_g83_h39_t44 - x_r3_g83 <= 0
 lin2_44_3_83: p_r3_g83_h39_t44 - x_r3_g39 <= 0
 lin3_44_3_83: p_r3_g83_h39_t44 - x_r3_g83 - x_r3_g39 >= -1
 lin1_44_3_117: p_r3_g117_h73_t44 - x_r3_g117 <= 0
 lin2_44_3_117: p_r3_g117_h73_t44 - x_r3_g73 <= 0
 lin3_44_3_117: p_r3_g117_h73_t44 - x_r3_g117 - x_r3_g73 >= -1
 lin1_44_3_161: p_r3_g161_h117_t44 - x_r3_g161 <= 0
 lin2_44_3_161: p_r3_g161_h117_t44 - x_r3_g117 <= 0
 lin3_44_3_161: p_r3_g161_h117_t44 - x_r3_g161 - x_r3_g117 >= -1
 lin1_44_3_166: p_r3_g166_h122_t44 - x_r3_g166 <= 0
 lin2_44_3_166: p_r3_g166_h122_t44 - x_r3_g122 <= 0
 lin3_44_3_166: p_r3_g166_h122_t44 - x_r3_g166 - x_r3_g122 >= -1
 defect_44: 1 d_44 - 1 x_r0_g5 - 1 x_r0_g7 - 1 x_r0_g15 - 1 x_r0_g19 - 1 x_r0_g24 - 1 x_r0_g34 - 1 x_r0_g35 - 1 x_r0_g47 - 1 x_r0_g56 - 2 x_r0_g57 - 1 x_r0_g74 - 1 x_r0_g79 - 1 x_r0_g90 - 2 x_r0_g93 - 1 x_r0_g103 - 1 x_r0_g108 - 2 x_r0_g121 - 1 x_r0_g142 - 1 x_r0_g143 - 1 x_r0_g144 - 1 x_r0_g148 - 1 x_r0_g159 - 1 x_r0_g163 - 1 x_r1_g21 - 1 x_r1_g22 - 1 x_r1_g23 - 1 x_r1_g26 - 2 x_r1_g34 - 1 x_r1_g35 - 1 x_r1_g40 - 2 x_r1_g45 - 2 x_r1_g64 - 1 x_r1_g68 - 2 x_r1_g69 - 1 x_r1_g80 - 2 x_r1_g88 - 1 x_r1_g124 - 1 x_r1_g128 - 1 x_r1_g138 - 1 x_r1_g141 - 1 x_r1_g144 - 1 x_r1_g155 - 1 x_r1_g163 - 1 x_r2_g1 - 2 x_r2_g4 - 1 x_r2_g20 - 1 x_r2_g21 - 1 x_r2_g34 - 1 x_r2_g35 - 1 x_r2_g44 - 1 x_r2_g51 - 2 x_r2_g58 - 1 x_r2_g74 - 2 x_r2_g75 - 2 x_r2_g83 - 2 x_r2_g85 - 2 x_r2_g90 - 1 x_r2_g95 - 2 x_r2_g104 - 1 x_r2_g106 - 1 x_r2_g112 - 1 x_r2_g121 - 1 x_r2_g124 - 1 x_r2_g130 - 1 x_r2_g141 - 1 x_r2_g146 - 1 x_r2_g157 - 1 x_r2_g162 - 1 x_r3_g1 - 1 x_r3_g2 - 1 x_r3_g5 - 2 x_r3_g17 - 1 x_r3_g20 - 2 x_r3_g21 - 1 x_r3_g22 - 1 x_r3_g25 - 1 x_r3_g26 - 2 x_r3_g31 - 1 x_r3_g39 - 1 x_r3_g42 - 1 x_r3_g45 - 1 x_r3_g52 - 2 x_r3_g62 - 1 x_r3_g64 - 1 x_r3_g66 - 1 x_r3_g68 - 1 x_r3_g71 - 1 x_r3_g83 - 2 x_r3_g118 - 1 x_r3_g122 - 1 x_r3_g141 - 1 x_r3_g156 - 1 x_r3_g161 - 1 x_r3_g166 - 1 p_r0_g12_h135_t44 - 1 p_r0_g19_h142_t44 - 1 p_r0_g31_h154_t44 - 1 p_r0_g55_h11_t44 - 1 p_r0_g56_h12_t44 - 1 p_r0_g74_h30_t44 - 1 p_r0_g79_h35_t44 - 1 p_r0_g91_h47_t44 - 1 p_r0_g135_h91_t44 - 1 p_r0_g163_h119_t44 - 1 p_r1_g6_h129_t44 - 1 p_r1_g21_h144_t44 - 1 p_r1_g38_h161_t44 - 1 p_r1_g39_h162_t44 - 1 p_r1_g40_h163_t44 - 1 p_r1_g50_h6_t44 - 1 p_r1_g82_h38_t44 - 1 p_r1_g121_h77_t44 - 1 p_r1_g124_h80_t44 - 1 p_r1_g129_h85_t44 - 1 p_r2_g1_h124_t44 - 1 p_r2_g32_h155_t44 - 1 p_r2_g34_h157_t44 - 1 p_r2_g59_h15_t44 - 1 p_r2_g95_h51_t44 - 1 p_r2_g117_h73_t44 - 1 p_r2_g130_h86_t44 - 1 p_r2_g161_h117_t44 - 1 p_r3_g9_h132_t44 - 1 p_r3_g33_h156_t44 - 1 p_r3_g45_h1_t44 - 1 p_r3_g49_h5_t44 - 1 p_r3_g51_h7_t44 - 1 p_r3_g53_h9_t44 - 1 p_r3_g64_h20_t44 - 1 p_r3_g66_h22_t44 - 1 p_r3_g69_h25_t44 - 1 p_r3_g77_h33_t44 - 1 p_r3_g83_h39_t44 - 1 p_r3_g117_h73_t44 - 1 p_r3_g161_h117_t44 - 1 p_r3_g166_h122_t44 = -86
 abs_pos_44: d_44 - u_44 <= 0
 abs_neg_44: - d_44 - u_44 <= 0
 max_def_44: u_44 - M <= 0
 cap_44: u_44 <= 2
 lin1_67_0_19: p_r0_g19_h119_t67 - x_r0_g19 <= 0
 lin2_67_0_19: p_r0_g19_h119_t67 - x_r0_g119 <= 0
 lin3_67_0_19: p_r0_g19_h119_t67 - x_r0_g19 - x_r0_g119 >= -1
 lin1_67_0_24: p_r0_g24_h124_t67 - x_r0_g24 <= 0
 lin2_67_0_24: p_r0_g24_h124_t67 - x_r0_g124 <= 0
 lin3_67_0_24: p_r0_g24_h124_t67 - x_r0_g24 - x_r0_g124 >= -1
 lin1_67_0_35: p_r0_g35_h135_t67 - x_r0_g35 <= 0
 lin2_67_0_35: p_r0_g35_h135_t67 - x_r0_g135 <= 0
 lin3_67_0_35: p_r0_g35_h135_t67 - x_r0_g35 - x_r0_g135 >= -1
 lin1_67_0_74: p_r0_g74_h7_t67 - x_r0_g74 <= 0
 lin2_67_0_74: p_r0_g74_h7_t67 - x_r0_g7 <= 0
 lin3_67_0_74: p_r0_g74_h7_t67 - x_r0_g74 - x_r0_g7 >= -1
 lin1_67_0_79: p_r0_g79_h12_t67 - x_r0_g79 <= 0
 lin2_67_0_79: p_r0_g79_h12_t67 - x_r0_g12 <= 0
 lin3_67_0_79: p_r0_g79_h12_t67 - x_r0_g79 - x_r0_g12 >= -1
 lin1_67_0_91: p_r0_g91_h24_t67 - x_r0_g91 <= 0
 lin2_67_0_91: p_r0_g91_h24_t67 - x_r0_g24 <= 0
 lin3_67_0_91: p_r0_g91_h24_t67 - x_r0_g91 - x_r0_g24 >= -1
 lin1_67_0_124: p_r0_g124_h57_t67 - x_r0_g124 <= 0
 lin2_67_0_124: p_r0_g124_h57_t67 - x_r0_g57 <= 0
 lin3_67_0_124: p_r0_g124_h57_t67 - x_r0_g124 - x_r0_g57 >= -1
 lin1_67_1_21: p_r1_g21_h121_t67 - x_r1_g21 <= 0
 lin2_67_1_21: p_r1_g21_h121_t67 - x_r1_g121 <= 0
 lin3_67_1_21: p_r1_g21_h121_t67 - x_r1_g21 - x_r1_g121 >= -1
 lin1_67_1_29: p_r1_g29_h129_t67 - x_r1_g29 <= 0
 lin2_67_1_29: p_r1_g29_h129_t67 - x_r1_g129 <= 0
 lin3_67_1_29: p_r1_g29_h129_t67 - x_r1_g29 - x_r1_g129 >= -1
 lin1_67_1_38: p_r1_g38_h138_t67 - x_r1_g38 <= 0
 lin2_67_1_38: p_r1_g38_h138_t67 - x_r1_g138 <= 0
 lin3_67_1_38: p_r1_g38_h138_t67 - x_r1_g38 - x_r1_g138 >= -1
 lin1_67_1_61: p_r1_g61_h161_t67 - x_r1_g61 <= 0
 lin2_67_1_61: p_r1_g61_h161_t67 - x_r1_g161 <= 0
 lin3_67_1_61: p_r1_g61_h161_t67 - x_r1_g61 - x_r1_g161 >= -1
 lin1_67_1_88: p_r1_g88_h21_t67 - x_r1_g88 <= 0
 lin2_67_1_88: p_r1_g88_h21_t67 - x_r1_g21 <= 0
 lin3_67_1_88: p_r1_g88_h21_t67 - x_r1_g88 - x_r1_g21 >= -1
 lin1_67_1_128: p_r1_g128_h61_t67 - x_r1_g128 <= 0
 lin2_67_1_128: p_r1_g128_h61_t67 - x_r1_g61 <= 0
 lin3_67_1_128: p_r1_g128_h61_t67 - x_r1_g128 - x_r1_g61 >= -1
 lin1_67_1_141: p_r1_g141_h74_t67 - x_r1_g141 <= 0
 lin2_67_1_141: p_r1_g141_h74_t67 - x_r1_g74 <= 0
 lin3_67_1_141: p_r1_g141_h74_t67 - x_r1_g141 - x_r1_g74 >= -1
 lin1_67_1_144: p_r1_g144_h77_t67 - x_r1_g144 <= 0
 lin2_67_1_144: p_r1_g144_h77_t67 - x_r1_g77 <= 0
 lin3_67_1_144: p_r1_g144_h77_t67 - x_r1_g144 - x_r1_g77 >= -1
 lin1_67_1_155: p_r1_g155_h88_t67 - x_r1_g155 <= 0
 lin2_67_1_155: p_r1_g155_h88_t67 - x_r1_g88 <= 0
 lin3_67_1_155: p_r1_g155_h88_t67 - x_r1_g155 - x_r1_g88 >= -1
 lin1_67_2_1: p_r2_g1_h101_t67 - x_r2_g1 <= 0
 lin2_67_2_1: p_r2_g1_h101_t67 - x_r2_g101 <= 0
 lin3_67_2_1: p_r2_g1_h101_t67 - x_r2_g1 - x_r2_g101 >= -1
 lin1_67_2_4: p_r2_g4_h104_t67 - x_r2_g4 <= 0
 lin2_67_2_4: p_r2_g4_h104_t67 - x_r2_g104 <= 0
 lin3_67_2_4: p_r2_g4_h104_t67 - x_r2_g4 - x_r2_g104 >= -1
 lin1_67_2_21: p_r2_g21_h121_t67 - x_r2_g21 <= 0
 lin2_67_2_21: p_r2_g21_h121_t67 - x_r2_g121 <= 0
 lin3_67_2_21: p_r2_g21_h121_t67 - x_r2_g21 - x_r2_g121 >= -1
 lin1_67_2_35: p_r2_g35_h135_t67 - x_r2_g35 <= 0
 lin2_67_2_35: p_r2_g35_h135_t67 - x_r2_g135 <= 0
 lin3_67_2_35: p_r2_g35_h135_t67 - x_r2_g35 - x_r2_g135 >= -1
 lin1_67_2_55: p_r2_g55_h155_t67 - x_r2_g55 <= 0
 lin2_67_2_55: p_r2_g55_h155_t67 - x_r2_g155 <= 0
 lin3_67_2_55: p_r2_g55_h155_t67 - x_r2_g55 - x_r2_g155 >= -1
 lin1_67_2_101: p_r2_g101_h34_t67 - x_r2_g101 <= 0
 lin2_67_2_101: p_r2_g101_h34_t67 - x_r2_g34 <= 0
 lin3_67_2_101: p_r2_g101_h34_t67 - x_r2_g101 - x_r2_g34 >= -1
 lin1_67_2_141: p_r2_g141_h74_t67 - x_r2_g141 <= 0
 lin2_67_2_141: p_r2_g141_h74_t67 - x_r2_g74 <= 0
 lin3_67_2_141: p_r2_g141_h74_t67 - x_r2_g141 - x_r2_g74 >= -1
 lin1_67_2_157: p_r2_g157_h90_t67 - x_r2_g157 <= 0
 lin2_67_2_157: p_r2_g157_h90_t67 - x_r2_g90 <= 0
 lin3_67_2_157: p_r2_g157_h90_t67 - x_r2_g157 - x_r2_g90 >= -1
 lin1_67_2_162: p_r2_g162_h95_t67 - x_r2_g162 <= 0
 lin2_67_2_162: p_r2_g162_h95_t67 - x_r2_g95 <= 0
 lin3_67_2_162: p_r2_g162_h95_t67 - x_r2_g162 - x_r2_g95 >= -1
 lin1_67_3_17: p_r3_g17_h117_t67 - x_r3_g17 <= 0
 lin2_67_3_17: p_r3_g17_h117_t67 - x_r3_g117 <= 0
 lin3_67_3_17: p_r3_g17_h117_t67 - x_r3_g17 - x_r3_g117 >= -1
 lin1_67_3_22: p_r3_g22_h122_t67 - x_r3_g22 <= 0
 lin2_67_3_22: p_r3_g22_h122_t67 - x_r3_g122 <= 0
 lin3_67_3_22: p_r3_g22_h122_t67 - x_r3_g22 - x_r3_g122 >= -1
 lin1_67_3_66: p_r3_g66_h166_t67 - x_r3_g66 <= 0
 lin2_67_3_66: p_r3_g66_h166_t67 - x_r3_g166 <= 0
 lin3_67_3_66: p_r3_g66_h166_t67 - x_r3_g66 - x_r3_g166 >= -1
 lin1_67_3_68: p_r3_g68_h1_t67 - x_r3_g68 <= 0
 lin2_67_3_68: p_r3_g68_h1_t67 - x_r3_g1 <= 0
 lin3_67_3_68: p_r3_g68_h1_t67 - x_r3_g68 - x_r3_g1 >= -1
 lin1_67_3_69: p_r3_g69_h2_t67 - x_r3_g69 <= 0
 lin2_67_3_69: p_r3_g69_h2_t67 - x_r3_g2 <= 0
 lin3_67_3_69: p_r3_g69_h2_t67 - x_r3_g69 - x_r3_g2 >= -1
 lin1_67_3_118: p_r3_g118_h51_t67 - x_r3_g118 <= 0
 lin2_67_3_118: p_r3_g118_h51_t67 - x_r3_g51 <= 0
 lin3_67_3_118: p_r3_g118_h51_t67 - x_r3_g118 - x_r3_g51 >= -1
 defect_67: 1 d_67 - 1 x_r0_g11 - 2 x_r0_g31 - 1 x_r0_g34 - 1 x_r0_g35 - 1 x_r0_g39 - 1 x_r0_g53 - 2 x_r0_g55 - 1 x_r0_g56 - 1 x_r0_g57 - 2 x_r0_g60 - 1 x_r0_g79 - 1 x_r0_g85 - 1 x_r0_g90 - 1 x_r0_g91 - 1 x_r0_g93 - 2 x_r0_g103 - 1 x_r0_g119 - 1 x_r0_g121 - 2 x_r0_g125 - 1 x_r0_g135 - 1 x_r0_g142 - 1 x_r0_g143 - 1 x_r0_g144 - 1 x_r0_g148 - 1 x_r0_g154 - 1 x_r0_g159 - 1 x_r0_g163 - 1 x_r1_g8 - 1 x_r1_g22 - 2 x_r1_g23 - 1 x_r1_g29 - 2 x_r1_g40 - 1 x_r1_g42 - 1 x_r1_g45 - 1 x_r1_g48 - 1 x_r1_g64 - 1 x_r1_g68 - 1 x_r1_g77 - 1 x_r1_g82 - 1 x_r1_g85 - 2 x_r1_g99 - 1 x_r1_g124 - 1 x_r1_g127 - 1 x_r1_g129 - 1 x_r1_g144 - 2 x_r1_g162 - 1 x_r1_g163 - 1 x_r2_g1 - 2 x_r2_g15 - 1 x_r2_g20 - 1 x_r2_g32 - 1 x_r2_g34 - 1 x_r2_g35 - 1 x_r2_g51 - 2 x_r2_g52 - 2 x_r2_g53 - 1 x_r2_g55 - 1 x_r2_g58 - 1 x_r2_g59 - 1 x_r2_g73 - 1 x_r2_g74 - 1 x_r2_g83 - 2 x_r2_g85 - 1 x_r2_g86 - 1 x_r2_g95 - 1 x_r2_g106 - 1 x_r2_g112 - 2 x_r2_g130 - 1 x_r2_g133 - 1 x_r2_g135 - 1 x_r2_g141 - 1 x_r2_g146 - 1 x_r2_g147 - 2 x_r2_g161 - 1 x_r3_g7 - 1 x_r3_g9 - 1 x_r3_g22 - 1 x_r3_g31 - 2 x_r3_g39 - 1 x_r3_g42 - 2 x_r3_g44 - 2 x_r3_g45 - 1 x_r3_g49 - 1 x_r3_g51 - 1 x_r3_g52 - 2 x_r3_g60 - 2 x_r3_g62 - 2 x_r3_g71 - 2 x_r3_g73 - 1 x_r3_g77 - 1 x_r3_g118 - 1 x_r3_g122 - 2 x_r3_g132 - 2 x_r3_g141 - 1 x_r3_g156 - 2 x_r3_g161 - 1 x_r3_g166 - 1 p_r0_g19_h119_t67 - 1 p_r0_g24_h124_t67 - 1 p_r0_g35_h135_t67 - 1 p_r0_g74_h7_t67 - 1 p_r0_g79_h12_t67 - 1 p_r0_g91_h24_t67 - 1 p_r0_g124_h57_t67 - 1 p_r1_g21_h121_t67 - 1 p_r1_g29_h129_t67 - 1 p_r1_g38_h138_t67 - 1 p_r1_g61_h161_t67 - 1 p_r1_g88_h21_t67 - 1 p_r1_g128_h61_t67 - 1 p_r1_g141_h74_t67 - 1 p_r1_g144_h77_t67 - 1 p_r1_g155_h88_t67 - 1 p_r2_g1_h101_t67 - 1 p_r2_g4_h104_t67 - 1 p_r2_g21_h121_t67 - 1 p_r2_g35_h135_t67 - 1 p_r2_g55_h155_t67 - 1 p_r2_g101_h34_t67 - 1 p_r2_g141_h74_t67 - 1 p_r2_g157_h90_t67 - 1 p_r2_g162_h95_t67 - 1 p_r3_g17_h117_t67 - 1 p_r3_g22_h122_t67 - 1 p_r3_g66_h166_t67 - 1 p_r3_g68_h1_t67 - 1 p_r3_g69_h2_t67 - 1 p_r3_g118_h51_t67 = -63
 abs_pos_67: d_67 - u_67 <= 0
 abs_neg_67: - d_67 - u_67 <= 0
 max_def_67: u_67 - M <= 0
 cap_67: u_67 <= 0
 lin1_75_0_11: p_r0_g11_h103_t75 - x_r0_g11 <= 0
 lin2_75_0_11: p_r0_g11_h103_t75 - x_r0_g103 <= 0
 lin3_75_0_11: p_r0_g11_h103_t75 - x_r0_g11 - x_r0_g103 >= -1
 lin1_75_0_56: p_r0_g56_h148_t75 - x_r0_g56 <= 0
 lin2_75_0_56: p_r0_g56_h148_t75 - x_r0_g148 <= 0
 lin3_75_0_56: p_r0_g56_h148_t75 - x_r0_g56 - x_r0_g148 >= -1
 lin1_75_0_90: p_r0_g90_h15_t75 - x_r0_g90 <= 0
 lin2_75_0_90: p_r0_g90_h15_t75 - x_r0_g15 <= 0
 lin3_75_0_90: p_r0_g90_h15_t75 - x_r0_g90 - x_r0_g15 >= -1
 lin1_75_0_135: p_r0_g135_h60_t75 - x_r0_g135 <= 0
 lin2_75_0_135: p_r0_g135_h60_t75 - x_r0_g60 <= 0
 lin3_75_0_135: p_r0_g135_h60_t75 - x_r0_g135 - x_r0_g60 >= -1
 lin1_75_0_154: p_r0_g154_h79_t75 - x_r0_g154 <= 0
 lin2_75_0_154: p_r0_g154_h79_t75 - x_r0_g79 <= 0
 lin3_75_0_154: p_r0_g154_h79_t75 - x_r0_g154 - x_r0_g79 >= -1
 lin1_75_1_29: p_r1_g29_h121_t75 - x_r1_g29 <= 0
 lin2_75_1_29: p_r1_g29_h121_t75 - x_r1_g121 <= 0
 lin3_75_1_29: p_r1_g29_h121_t75 - x_r1_g29 - x_r1_g121 >= -1
 lin1_75_1_35: p_r1_g35_h127_t75 - x_r1_g35 <= 0
 lin2_75_1_35: p_r1_g35_h127_t75 - x_r1_g127 <= 0
 lin3_75_1_35: p_r1_g35_h127_t75 - x_r1_g35 - x_r1_g127 >= -1
 lin1_75_1_38: p_r1_g38_h130_t75 - x_r1_g38 <= 0
 lin2_75_1_38: p_r1_g38_h130_t75 - x_r1_g130 <= 0
 lin3_75_1_38: p_r1_g38_h130_t75 - x_r1_g38 - x_r1_g130 >= -1
 lin1_75_1_69: p_r1_g69_h161_t75 - x_r1_g69 <= 0
 lin2_75_1_69: p_r1_g69_h161_t75 - x_r1_g161 <= 0
 lin3_75_1_69: p_r1_g69_h161_t75 - x_r1_g69 - x_r1_g161 >= -1
 lin1_75_1_144: p_r1_g144_h69_t75 - x_r1_g144 <= 0
 lin2_75_1_144: p_r1_g144_h69_t75 - x_r1_g69 <= 0
 lin3_75_1_144: p_r1_g144_h69_t75 - x_r1_g144 - x_r1_g69 >= -1
 lin1_75_1_155: p_r1_g155_h80_t75 - x_r1_g155 <= 0
 lin2_75_1_155: p_r1_g155_h80_t75 - x_r1_g80 <= 0
 lin3_75_1_155: p_r1_g155_h80_t75 - x_r1_g155 - x_r1_g80 >= -1
 lin1_75_1_163: p_r1_g163_h88_t75 - x_r1_g163 <= 0
 lin2_75_1_163: p_r1_g163_h88_t75 - x_r1_g88 <= 0
 lin3_75_1_163: p_r1_g163_h88_t75 - x_r1_g163 - x_r1_g88 >= -1
 lin1_75_2_20: p_r2_g20_h112_t75 - x_r2_g20 <= 0
 lin2_75_2_20: p_r2_g20_h112_t75 - x_r2_g112 <= 0
 lin3_75_2_20: p_r2_g20_h112_t75 - x_r2_g20 - x_r2_g112 >= -1
 lin1_75_2_32: p_r2_g32_h124_t75 - x_r2_g32 <= 0
 lin2_75_2_32: p_r2_g32_h124_t75 - x_r2_g124 <= 0
 lin3_75_2_32: p_r2_g32_h124_t75 - x_r2_g32 - x_r2_g124 >= -1
 lin1_75_2_55: p_r2_g55_h147_t75 - x_r2_g55 <= 0
 lin2_75_2_55: p_r2_g55_h147_t75 - x_r2_g147 <= 0
 lin3_75_2_55: p_r2_g55_h147_t75 - x_r2_g55 - x_r2_g147 >= -1
 lin1_75_2_90: p_r2_g90_h15_t75 - x_r2_g90 <= 0
 lin2_75_2_90: p_r2_g90_h15_t75 - x_r2_g15 <= 0
 lin3_75_2_90: p_r2_g90_h15_t75 - x_r2_g90 - x_r2_g15 >= -1
 lin1_75_2_95: p_r2_g95_h20_t75 - x_r2_g95 <= 0
 lin2_75_2_95: p_r2_g95_h20_t75 - x_r2_g20 <= 0
 lin3_75_2_95: p_r2_g95_h20_t75 - x_r2_g95 - x_r2_g20 >= -1
 lin1_75_2_130: p_r2_g130_h55_t75 - x_r2_g130 <= 0
 lin2_75_2_130: p_r2_g130_h55_t75 - x_r2_g55 <= 0
 lin3_75_2_130: p_r2_g130_h55_t75 - x_r2_g130 - x_r2_g55 >= -1
 lin1_75_2_133: p_r2_g133_h58_t75 - x_r2_g133 <= 0
 lin2_75_2_133: p_r2_g133_h58_t75 - x_r2_g58 <= 0
 lin3_75_2_133: p_r2_g133_h58_t75 - x_r2_g133 - x_r2_g58 >= -1
 lin1_75_2_161: p_r2_g161_h86_t75 - x_r2_g161 <= 0
 lin2_75_2_161: p_r2_g161_h86_t75 - x_r2_g86 <= 0
 lin3_75_2_161: p_r2_g161_h86_t75 - x_r2_g161 - x_r2_g86 >= -1
 lin1_75_3_25: p_r3_g25_h117_t75 - x_r3_g25 <= 0
 lin2_75_3_25: p_r3_g25_h117_t75 - x_r3_g117 <= 0
 lin3_75_3_25: p_r3_g25_h117_t75 - x_r3_g25 - x_r3_g117 >= -1
 lin1_75_3_26: p_r3_g26_h118_t75 - x_r3_g26 <= 0
 lin2_75_3_26: p_r3_g26_h118_t75 - x_r3_g118 <= 0
 lin3_75_3_26: p_r3_g26_h118_t75 - x_r3_g26 - x_r3_g118 >= -1
 lin1_75_3_49: p_r3_g49_h141_t75 - x_r3_g49 <= 0
 lin2_75_3_49: p_r3_g49_h141_t75 - x_r3_g141 <= 0
 lin3_75_3_49: p_r3_g49_h141_t75 - x_r3_g49 - x_r3_g141 >= -1
 lin1_75_3_64: p_r3_g64_h156_t75 - x_r3_g64 <= 0
 lin2_75_3_64: p_r3_g64_h156_t75 - x_r3_g156 <= 0
 lin3_75_3_64: p_r3_g64_h156_t75 - x_r3_g64 - x_r3_g156 >= -1
 lin1_75_3_69: p_r3_g69_h161_t75 - x_r3_g69 <= 0
 lin2_75_3_69: p_r3_g69_h161_t75 - x_r3_g161 <= 0
 lin3_75_3_69: p_r3_g69_h161_t75 - x_r3_g69 - x_r3_g161 >= -1
 lin1_75_3_77: p_r3_g77_h2_t75 - x_r3_g77 <= 0
 lin2_75_3_77: p_r3_g77_h2_t75 - x_r3_g2 <= 0
 lin3_75_3_77: p_r3_g77_h2_t75 - x_r3_g77 - x_r3_g2 >= -1
 lin1_75_3_117: p_r3_g117_h42_t75 - x_r3_g117 <= 0
 lin2_75_3_117: p_r3_g117_h42_t75 - x_r3_g42 <= 0
 lin3_75_3_117: p_r3_g117_h42_t75 - x_r3_g117 - x_r3_g42 >= -1
 lin1_75_3_141: p_r3_g141_h66_t75 - x_r3_g141 <= 0
 lin2_75_3_141: p_r3_g141_h66_t75 - x_r3_g66 <= 0
 lin3_75_3_141: p_r3_g141_h66_t75 - x_r3_g141 - x_r3_g66 >= -1
 defect_75: 1 d_75 - 1 x_r0_g19 - 1 x_r0_g24 - 1 x_r0_g30 - 1 x_r0_g31 - 1 x_r0_g34 - 1 x_r0_g35 - 1 x_r0_g38 - 1 x_r0_g39 - 2 x_r0_g47 - 1 x_r0_g56 - 2 x_r0_g57 - 1 x_r0_g60 - 1 x_r0_g74 - 1 x_r0_g85 - 1 x_r0_g90 - 1 x_r0_g121 - 1 x_r0_g124 - 1 x_r0_g135 - 1 x_r0_g142 - 2 x_r0_g143 - 1 x_r0_g144 - 1 x_r0_g154 - 1 x_r0_g159 - 1 x_r0_g163 - 2 x_r1_g6 - 1 x_r1_g8 - 2 x_r1_g21 - 1 x_r1_g22 - 2 x_r1_g23 - 1 x_r1_g34 - 1 x_r1_g38 - 1 x_r1_g39 - 2 x_r1_g40 - 2 x_r1_g48 - 1 x_r1_g64 - 1 x_r1_g68 - 1 x_r1_g74 - 1 x_r1_g82 - 2 x_r1_g85 - 1 x_r1_g121 - 2 x_r1_g124 - 2 x_r1_g128 - 1 x_r1_g129 - 1 x_r1_g138 - 2 x_r1_g141 - 2 x_r1_g162 - 1 x_r2_g21 - 1 x_r2_g34 - 2 x_r2_g35 - 2 x_r2_g44 - 1 x_r2_g51 - 1 x_r2_g52 - 1 x_r2_g53 - 1 x_r2_g58 - 2 x_r2_g59 - 2 x_r2_g73 - 2 x_r2_g75 - 1 x_r2_g83 - 1 x_r2_g85 - 1 x_r2_g90 - 1 x_r2_g101 - 2 x_r2_g106 - 1 x_r2_g117 - 1 x_r2_g121 - 1 x_r2_g124 - 1 x_r2_g133 - 2 x_r2_g135 - 1 x_r2_g141 - 2 x_r2_g155 - 2 x_r2_g157 - 1 x_r3_g1 - 1 x_r3_g2 - 1 x_r3_g5 - 1 x_r3_g7 - 1 x_r3_g20 - 2 x_r3_g31 - 1 x_r3_g33 - 1 x_r3_g42 - 1 x_r3_g44 - 1 x_r3_g45 - 1 x_r3_g49 - 1 x_r3_g51 - 2 x_r3_g52 - 2 x_r3_g53 - 2 x_r3_g59 - 2 x_r3_g62 - 1 x_r3_g64 - 2 x_r3_g68 - 1 x_r3_g69 - 2 x_r3_g71 - 1 x_r3_g73 - 1 x_r3_g83 - 1 x_r3_g118 - 2 x_r3_g122 - 1 x_r3_g132 - 1 x_r3_g156 - 1 x_r3_g161 - 1 x_r3_g166 - 1 p_r0_g11_h103_t75 - 1 p_r0_g56_h148_t75 - 1 p_r0_g90_h15_t75 - 1 p_r0_g135_h60_t75 - 1 p_r0_g154_h79_t75 - 1 p_r1_g29_h121_t75 - 1 p_r1_g35_h127_t75 - 1 p_r1_g38_h130_t75 - 1 p_r1_g69_h161_t75 - 1 p_r1_g144_h69_t75 - 1 p_r1_g155_h80_t75 - 1 p_r1_g163_h88_t75 - 1 p_r2_g20_h112_t75 - 1 p_r2_g32_h124_t75 - 1 p_r2_g55_h147_t75 - 1 p_r2_g90_h15_t75 - 1 p_r2_g95_h20_t75 - 1 p_r2_g130_h55_t75 - 1 p_r2_g133_h58_t75 - 1 p_r2_g161_h86_t75 - 1 p_r3_g25_h117_t75 - 1 p_r3_g26_h118_t75 - 1 p_r3_g49_h141_t75 - 1 p_r3_g64_h156_t75 - 1 p_r3_g69_h161_t75 - 1 p_r3_g77_h2_t75 - 1 p_r3_g117_h42_t75 - 1 p_r3_g141_h66_t75 = -67
 abs_pos_75: d_75 - u_75 <= 0
 abs_neg_75: - d_75 - u_75 <= 0
 max_def_75: u_75 - M <= 0
 cap_75: u_75 <= 0
 lin1_80_0_34: p_r0_g34_h121_t80 - x_r0_g34 <= 0
 lin2_80_0_34: p_r0_g34_h121_t80 - x_r0_g121 <= 0
 lin3_80_0_34: p_r0_g34_h121_t80 - x_r0_g34 - x_r0_g121 >= -1
 lin1_80_0_38: p_r0_g38_h125_t80 - x_r0_g38 <= 0
 lin2_80_0_38: p_r0_g38_h125_t80 - x_r0_g125 <= 0
 lin3_80_0_38: p_r0_g38_h125_t80 - x_r0_g38 - x_r0_g125 >= -1
 lin1_80_0_55: p_r0_g55_h142_t80 - x_r0_g55 <= 0
 lin2_80_0_55: p_r0_g55_h142_t80 - x_r0_g142 <= 0
 lin3_80_0_55: p_r0_g55_h142_t80 - x_r0_g55 - x_r0_g142 >= -1
 lin1_80_0_56: p_r0_g56_h143_t80 - x_r0_g56 <= 0
 lin2_80_0_56: p_r0_g56_h143_t80 - x_r0_g143 <= 0
 lin3_80_0_56: p_r0_g56_h143_t80 - x_r0_g56 - x_r0_g143 >= -1
 lin1_80_0_57: p_r0_g57_h144_t80 - x_r0_g57 <= 0
 lin2_80_0_57: p_r0_g57_h144_t80 - x_r0_g144 <= 0
 lin3_80_0_57: p_r0_g57_h144_t80 - x_r0_g57 - x_r0_g144 >= -1
 lin1_80_0_85: p_r0_g85_h5_t80 - x_r0_g85 <= 0
 lin2_80_0_85: p_r0_g85_h5_t80 - x_r0_g5 <= 0
 lin3_80_0_85: p_r0_g85_h5_t80 - x_r0_g85 - x_r0_g5 >= -1
 lin1_80_0_91: p_r0_g91_h11_t80 - x_r0_g91 <= 0
 lin2_80_0_91: p_r0_g91_h11_t80 - x_r0_g11 <= 0
 lin3_80_0_91: p_r0_g91_h11_t80 - x_r0_g91 - x_r0_g11 >= -1
 lin1_80_0_119: p_r0_g119_h39_t80 - x_r0_g119 <= 0
 lin2_80_0_119: p_r0_g119_h39_t80 - x_r0_g39 <= 0
 lin3_80_0_119: p_r0_g119_h39_t80 - x_r0_g119 - x_r0_g39 >= -1
 lin1_80_0_135: p_r0_g135_h55_t80 - x_r0_g135 <= 0
 lin2_80_0_135: p_r0_g135_h55_t80 - x_r0_g55 <= 0
 lin3_80_0_135: p_r0_g135_h55_t80 - x_r0_g135 - x_r0_g55 >= -1
 lin1_80_0_154: p_r0_g154_h74_t80 - x_r0_g154 <= 0
 lin2_80_0_154: p_r0_g154_h74_t80 - x_r0_g74 <= 0
 lin3_80_0_154: p_r0_g154_h74_t80 - x_r0_g154 - x_r0_g74 >= -1
 lin1_80_0_159: p_r0_g159_h79_t80 - x_r0_g159 <= 0
 lin2_80_0_159: p_r0_g159_h79_t80 - x_r0_g79 <= 0
 lin3_80_0_159: p_r0_g159_h79_t80 - x_r0_g159 - x_r0_g79 >= -1
 lin1_80_1_34: p_r1_g34_h121_t80 - x_r1_g34 <= 0
 lin2_80_1_34: p_r1_g34_h121_t80 - x_r1_g121 <= 0
 lin3_80_1_34: p_r1_g34_h121_t80 - x_r1_g34 - x_r1_g121 >= -1
 lin1_80_1_40: p_r1_g40_h127_t80 - x_r1_g40 <= 0
 lin2_80_1_40: p_r1_g40_h127_t80 - x_r1_g127 <= 0
 lin3_80_1_40: p_r1_g40_h127_t80 - x_r1_g40 - x_r1_g127 >= -1
 lin1_80_1_42: p_r1_g42_h129_t80 - x_r1_g42 <= 0
 lin2_80_1_42: p_r1_g42_h129_t80 - x_r1_g129 <= 0
 lin3_80_1_42: p_r1_g42_h129_t80 - x_r1_g42 - x_r1_g129 >= -1
 lin1_80_1_68: p_r1_g68_h155_t80 - x_r1_g68 <= 0
 lin2_80_1_68: p_r1_g68_h155_t80 - x_r1_g155 <= 0
 lin3_80_1_68: p_r1_g68_h155_t80 - x_r1_g68 - x_r1_g155 >= -1
 lin1_80_1_74: p_r1_g74_h161_t80 - x_r1_g74 <= 0
 lin2_80_1_74: p_r1_g74_h161_t80 - x_r1_g161 <= 0
 lin3_80_1_74: p_r1_g74_h161_t80 - x_r1_g74 - x_r1_g161 >= -1
 lin1_80_1_88: p_r1_g88_h8_t80 - x_r1_g88 <= 0
 lin2_80_1_88: p_r1_g88_h8_t80 - x_r1_g8 <= 0
 lin3_80_1_88: p_r1_g88_h8_t80 - x_r1_g88 - x_r1_g8 >= -1
 lin1_80_1_128: p_r1_g128_h48_t80 - x_r1_g128 <= 0
 lin2_80_1_128: p_r1_g128_h48_t80 - x_r1_g48 <= 0
 lin3_80_1_128: p_r1_g128_h48_t80 - x_r1_g128 - x_r1_g48 >= -1
 lin1_80_1_130: p_r1_g130_h50_t80 - x_r1_g130 <= 0
 lin2_80_1_130: p_r1_g130_h50_t80 - x_r1_g50 <= 0
 lin3_80_1_130: p_r1_g130_h50_t80 - x_r1_g130 - x_r1_g50 >= -1
 lin1_80_1_141: p_r1_g141_h61_t80 - x_r1_g141 <= 0
 lin2_80_1_141: p_r1_g141_h61_t80 - x_r1_g61 <= 0
 lin3_80_1_141: p_r1_g141_h61_t80 - x_r1_g141 - x_r1_g61 >= -1
 lin1_80_1_144: p_r1_g144_h64_t80 - x_r1_g144 <= 0
 lin2_80_1_144: p_r1_g144_h64_t80 - x_r1_g64 <= 0
 lin3_80_1_144: p_r1_g144_h64_t80 - x_r1_g144 - x_r1_g64 >= -1
 lin1_80_1_162: p_r1_g162_h82_t80 - x_r1_g162 <= 0
 lin2_80_1_162: p_r1_g162_h82_t80 - x_r1_g82 <= 0
 lin3_80_1_162: p_r1_g162_h82_t80 - x_r1_g162 - x_r1_g82 >= -1
 lin1_80_2_34: p_r2_g34_h121_t80 - x_r2_g34 <= 0
 lin2_80_2_34: p_r2_g34_h121_t80 - x_r2_g121 <= 0
 lin3_80_2_34: p_r2_g34_h121_t80 - x_r2_g34 - x_r2_g121 >= -1
 lin1_80_2_59: p_r2_g59_h146_t80 - x_r2_g59 <= 0
 lin2_80_2_59: p_r2_g59_h146_t80 - x_r2_g146 <= 0
 lin3_80_2_59: p_r2_g59_h146_t80 - x_r2_g59 - x_r2_g146 >= -1
 lin1_80_2_74: p_r2_g74_h161_t80 - x_r2_g74 <= 0
 lin2_80_2_74: p_r2_g74_h161_t80 - x_r2_g161 <= 0
 lin3_80_2_74: p_r2_g74_h161_t80 - x_r2_g74 - x_r2_g161 >= -1
 lin1_80_2_75: p_r2_g75_h162_t80 - x_r2_g75 <= 0
 lin2_80_2_75: p_r2_g75_h162_t80 - x_r2_g162 <= 0
 lin3_80_2_75: p_r2_g75_h162_t80 - x_r2_g75 - x_r2_g162 >= -1
 lin1_80_2_95: p_r2_g95_h15_t80 - x_r2_g95 <= 0
 lin2_80_2_95: p_r2_g95_h15_t80 - x_r2_g15 <= 0
 lin3_80_2_95: p_r2_g95_h15_t80 - x_r2_g95 - x_r2_g15 >= -1
 lin1_80_2_101: p_r2_g101_h21_t80 - x_r2_g101 <= 0
 lin2_80_2_101: p_r2_g101_h21_t80 - x_r2_g21 <= 0
 lin3_80_2_101: p_r2_g101_h21_t80 - x_r2_g101 - x_r2_g21 >= -1
 lin1_80_2_112: p_r2_g112_h32_t80 - x_r2_g112 <= 0
 lin2_80_2_112: p_r2_g112_h32_t80 - x_r2_g32 <= 0
 lin3_80_2_112: p_r2_g112_h32_t80 - x_r2_g112 - x_r2_g32 >= -1
 lin1_80_2_124: p_r2_g124_h44_t80 - x_r2_g124 <= 0
 lin2_80_2_124: p_r2_g124_h44_t80 - x_r2_g44 <= 0
 lin3_80_2_124: p_r2_g124_h44_t80 - x_r2_g124 - x_r2_g44 >= -1
 lin1_80_2_133: p_r2_g133_h53_t80 - x_r2_g133 <= 0
 lin2_80_2_133: p_r2_g133_h53_t80 - x_r2_g53 <= 0
 lin3_80_2_133: p_r2_g133_h53_t80 - x_r2_g133 - x_r2_g53 >= -1
 lin1_80_2_135: p_r2_g135_h55_t80 - x_r2_g135 <= 0
 lin2_80_2_135: p_r2_g135_h55_t80 - x_r2_g55 <= 0
 lin3_80_2_135: p_r2_g135_h55_t80 - x_r2_g135 - x_r2_g55 >= -1
 lin1_80_2_155: p_r2_g155_h75_t80 - x_r2_g155 <= 0
 lin2_80_2_155: p_r2_g155_h75_t80 - x_r2_g75 <= 0
 lin3_80_2_155: p_r2_g155_h75_t80 - x_r2_g155 - x_r2_g75 >= -1
 lin1_80_3_31: p_r3_g31_h118_t80 - x_r3_g31 <= 0
 lin2_80_3_31: p_r3_g31_h118_t80 - x_r3_g118 <= 0
 lin3_80_3_31: p_r3_g31_h118_t80 - x_r3_g31 - x_r3_g118 >= -1
 lin1_80_3_45: p_r3_g45_h132_t80 - x_r3_g45 <= 0
 lin2_80_3_45: p_r3_g45_h132_t80 - x_r3_g132 <= 0
 lin3_80_3_45: p_r3_g45_h132_t80 - x_r3_g45 - x_r3_g132 >= -1
 lin1_80_3_69: p_r3_g69_h156_t80 - x_r3_g69 <= 0
 lin2_80_3_69: p_r3_g69_h156_t80 - x_r3_g156 <= 0
 lin3_80_3_69: p_r3_g69_h156_t80 - x_r3_g69 - x_r3_g156 >= -1
 lin1_80_3_122: p_r3_g122_h42_t80 - x_r3_g122 <= 0
 lin2_80_3_122: p_r3_g122_h42_t80 - x_r3_g42 <= 0
 lin3_80_3_122: p_r3_g122_h42_t80 - x_r3_g122 - x_r3_g42 >= -1
 lin1_80_3_132: p_r3_g132_h52_t80 - x_r3_g132 <= 0
 lin2_80_3_132: p_r3_g132_h52_t80 - x_r3_g52 <= 0
 lin3_80_3_132: p_r3_g132_h52_t80 - x_r3_g132 - x_r3_g52 >= -1
 defect_80: 1 d_80 - 1 x_r0_g11 - 1 x_r0_g15 - 1 x_r0_g24 - 2 x_r0_g31 - 1 x_r0_g35 - 1 x_r0_g38 - 1 x_r0_g39 - 1 x_r0_g47 - 1 x_r0_g56 - 1 x_r0_g57 - 1 x_r0_g85 - 1 x_r0_g90 - 2 x_r0_g93 - 1 x_r0_g124 - 1 x_r0_g125 - 1 x_r0_g135 - 1 x_r0_g142 - 1 x_r0_g143 - 1 x_r0_g148 - 1 x_r0_g154 - 1 x_r1_g8 - 1 x_r1_g21 - 1 x_r1_g22 - 1 x_r1_g23 - 1 x_r1_g26 - 1 x_r1_g29 - 1 x_r1_g34 - 1 x_r1_g35 - 1 x_r1_g39 - 1 x_r1_g45 - 1 x_r1_g69 - 1 x_r1_g74 - 2 x_r1_g77 - 1 x_r1_g80 - 1 x_r1_g88 - 2 x_r1_g124 - 1 x_r1_g129 - 1 x_r1_g144 - 1 x_r1_g161 - 1 x_r2_g15 - 1 x_r2_g32 - 1 x_r2_g34 - 2 x_r2_g35 - 2 x_r2_g52 - 1 x_r2_g53 - 1 x_r2_g59 - 2 x_r2_g73 - 1 x_r2_g83 - 1 x_r2_g85 - 1 x_r2_g101 - 1 x_r2_g106 - 1 x_r2_g112 - 1 x_r2_g117 - 1 x_r2_g121 - 1 x_r2_g130 - 1 x_r2_g133 - 1 x_r2_g135 - 1 x_r2_g141 - 1 x_r2_g147 - 1 x_r2_g155 - 1 x_r2_g162 - 1 x_r3_g1 - 1 x_r3_g2 - 1 x_r3_g7 - 1 x_r3_g9 - 1 x_r3_g21 - 1 x_r3_g25 - 1 x_r3_g26 - 1 x_r3_g31 - 1 x_r3_g39 - 1 x_r3_g42 - 1 x_r3_g44 - 1 x_r3_g49 - 1 x_r3_g51 - 1 x_r3_g52 - 1 x_r3_g53 - 2 x_r3_g59 - 1 x_r3_g60 - 2 x_r3_g62 - 2 x_r3_g64 - 1 x_r3_g66 - 1 x_r3_g68 - 1 x_r3_g69 - 1 x_r3_g71 - 1 x_r3_g73 - 1 x_r3_g83 - 2 x_r3_g117 - 1 x_r3_g118 - 1 x_r3_g141 - 1 x_r3_g156 - 2 x_r3_g161 - 1 x_r3_g166 - 1 p_r0_g34_h121_t80 - 1 p_r0_g38_h125_t80 - 1 p_r0_g55_h142_t80 - 1 p_r0_g56_h143_t80 - 1 p_r0_g57_h144_t80 - 1 p_r0_g85_h5_t80 - 1 p_r0_g91_h11_t80 - 1 p_r0_g119_h39_t80 - 1 p_r0_g135_h55_t80 - 1 p_r0_g154_h74_t80 - 1 p_r0_g159_h79_t80 - 1 p_r1_g34_h121_t80 - 1 p_r1_g40_h127_t80 - 1 p_r1_g42_h129_t80 - 1 p_r1_g68_h155_t80 - 1 p_r1_g74_h161_t80 - 1 p_r1_g88_h8_t80 - 1 p_r1_g128_h48_t80 - 1 p_r1_g130_h50_t80 - 1 p_r1_g141_h61_t80 - 1 p_r1_g144_h64_t80 - 1 p_r1_g162_h82_t80 - 1 p_r2_g34_h121_t80 - 1 p_r2_g59_h146_t80 - 1 p_r2_g74_h161_t80 - 1 p_r2_g75_h162_t80 - 1 p_r2_g95_h15_t80 - 1 p_r2_g101_h21_t80 - 1 p_r2_g112_h32_t80 - 1 p_r2_g124_h44_t80 - 1 p_r2_g133_h53_t80 - 1 p_r2_g135_h55_t80 - 1 p_r2_g155_h75_t80 - 1 p_r3_g31_h118_t80 - 1 p_r3_g45_h132_t80 - 1 p_r3_g69_h156_t80 - 1 p_r3_g122_h42_t80 - 1 p_r3_g132_h52_t80 = -47
 abs_pos_80: d_80 - u_80 <= 0
 abs_neg_80: - d_80 - u_80 <= 0
 max_def_80: u_80 - M <= 0
 cap_80: u_80 <= 1
 tier_M_cap: M <= 3
 weighted_cap: 10 u_5 + 1 u_12 + 10 u_27 + 1 u_29 + 1 u_34 + 1 u_36 + 1 u_40 + 1 u_42 + 1 u_44 + 1 u_67 + 1 u_75 + 1 u_80 <= 50
 flip_def: 1 F - 1 x_r0_g17 - 1 x_r0_g24 - 1 x_r0_g31 - 1 x_r0_g35 - 1 x_r0_g39 - 1 x_r0_g53 - 1 x_r0_g56 - 1 x_r0_g57 - 1 x_r0_g60 - 1 x_r0_g79 - 1 x_r0_g85 - 1 x_r0_g93 - 1 x_r0_g108 - 1 x_r0_g121 - 1 x_r0_g124 - 1 x_r0_g125 - 1 x_r0_g135 - 1 x_r0_g144 - 1 x_r0_g148 - 1 x_r0_g154 - 1 x_r1_g6 - 1 x_r1_g8 - 1 x_r1_g21 - 1 x_r1_g22 - 1 x_r1_g23 - 1 x_r1_g34 - 1 x_r1_g35 - 1 x_r1_g45 - 1 x_r1_g48 - 1 x_r1_g50 - 1 x_r1_g61 - 1 x_r1_g74 - 1 x_r1_g77 - 1 x_r1_g85 - 1 x_r1_g99 - 1 x_r1_g121 - 1 x_r1_g129 - 1 x_r1_g144 - 1 x_r1_g161 - 1 x_r1_g162 - 1 x_r2_g15 - 1 x_r2_g32 - 1 x_r2_g35 - 1 x_r2_g44 - 1 x_r2_g51 - 1 x_r2_g52 - 1 x_r2_g53 - 1 x_r2_g55 - 1 x_r2_g59 - 1 x_r2_g73 - 1 x_r2_g95 - 1 x_r2_g106 - 1 x_r2_g117 - 1 x_r2_g124 - 1 x_r2_g133 - 1 x_r2_g135 - 1 x_r2_g146 - 1 x_r2_g147 - 1 x_r2_g155 - 1 x_r2_g162 - 1 x_r3_g7 - 1 x_r3_g21 - 1 x_r3_g25 - 1 x_r3_g31 - 1 x_r3_g33 - 1 x_r3_g42 - 1 x_r3_g44 - 1 x_r3_g51 - 1 x_r3_g52 - 1 x_r3_g60 - 1 x_r3_g64 - 1 x_r3_g69 - 1 x_r3_g71 - 1 x_r3_g73 - 1 x_r3_g77 - 1 x_r3_g117 - 1 x_r3_g132 - 1 x_r3_g141 - 1 x_r3_g156 - 1 x_r3_g161 + 1 x_r0_g5 + 1 x_r0_g7 + 1 x_r0_g11 + 1 x_r0_g12 + 1 x_r0_g15 + 1 x_r0_g19 + 1 x_r0_g30 + 1 x_r0_g34 + 1 x_r0_g38 + 1 x_r0_g47 + 1 x_r0_g55 + 1 x_r0_g74 + 1 x_r0_g90 + 1 x_r0_g91 + 1 x_r0_g103 + 1 x_r0_g119 + 1 x_r0_g142 + 1 x_r0_g143 + 1 x_r0_g159 + 1 x_r0_g163 + 1 x_r1_g26 + 1 x_r1_g29 + 1 x_r1_g38 + 1 x_r1_g39 + 1 x_r1_g40 + 1 x_r1_g42 + 1 x_r1_g64 + 1 x_r1_g68 + 1 x_r1_g69 + 1 x_r1_g80 + 1 x_r1_g82 + 1 x_r1_g88 + 1 x_r1_g124 + 1 x_r1_g127 + 1 x_r1_g128 + 1 x_r1_g130 + 1 x_r1_g138 + 1 x_r1_g141 + 1 x_r1_g155 + 1 x_r1_g163 + 1 x_r2_g1 + 1 x_r2_g4 + 1 x_r2_g20 + 1 x_r2_g21 + 1 x_r2_g34 + 1 x_r2_g58 + 1 x_r2_g74 + 1 x_r2_g75 + 1 x_r2_g83 + 1 x_r2_g85 + 1 x_r2_g86 + 1 x_r2_g90 + 1 x_r2_g101 + 1 x_r2_g104 + 1 x_r2_g112 + 1 x_r2_g121 + 1 x_r2_g130 + 1 x_r2_g141 + 1 x_r2_g157 + 1 x_r2_g161 + 1 x_r3_g1 + 1 x_r3_g2 + 1 x_r3_g5 + 1 x_r3_g9 + 1 x_r3_g17 + 1 x_r3_g20 + 1 x_r3_g22 + 1 x_r3_g26 + 1 x_r3_g39 + 1 x_r3_g45 + 1 x_r3_g49 + 1 x_r3_g53 + 1 x_r3_g59 + 1 x_r3_g62 + 1 x_r3_g66 + 1 x_r3_g68 + 1 x_r3_g83 + 1 x_r3_g118 + 1 x_r3_g122 + 1 x_r3_g166 = 80
 flip_cap: F <= 6
Bounds
 d_5 free
 0 <= u_5
 d_12 free
 0 <= u_12
 d_27 free
 0 <= u_27
 d_29 free
 0 <= u_29
 d_34 free
 0 <= u_34
 d_36 free
 0 <= u_36
 d_40 free
 0 <= u_40
 d_42 free
 0 <= u_42
 d_44 free
 0 <= u_44
 d_67 free
 0 <= u_67
 d_75 free
 0 <= u_75
 d_80 free
 0 <= u_80
 0 <= M
 0 <= F
Binaries
 x_r0_g5
 x_r0_g7
 x_r0_g11
 x_r0_g12
 x_r0_g15
 x_r0_g17
 x_r0_g19
 x_r0_g24
 x_r0_g30
 x_r0_g31
 x_r0_g34
 x_r0_g35
 x_r0_g38
 x_r0_g39
 x_r0_g47
 x_r0_g53
 x_r0_g55
 x_r0_g56
 x_r0_g57
 x_r0_g60
 x_r0_g74
 x_r0_g79
 x_r0_g85
 x_r0_g90
 x_r0_g91
 x_r0_g93
 x_r0_g103
 x_r0_g108
 x_r0_g119
 x_r0_g121
 x_r0_g124
 x_r0_g125
 x_r0_g135
 x_r0_g142
 x_r0_g143
 x_r0_g144
 x_r0_g148
 x_r0_g154
 x_r0_g159
 x_r0_g163
 x_r1_g6
 x_r1_g8
 x_r1_g21
 x_r1_g22
 x_r1_g23
 x_r1_g26
 x_r1_g29
 x_r1_g34
 x_r1_g35
 x_r1_g38
 x_r1_g39
 x_r1_g40
 x_r1_g42
 x_r1_g45
 x_r1_g48
 x_r1_g50
 x_r1_g61
 x_r1_g64
 x_r1_g68
 x_r1_g69
 x_r1_g74
 x_r1_g77
 x_r1_g80
 x_r1_g82
 x_r1_g85
 x_r1_g88
 x_r1_g99
 x_r1_g121
 x_r1_g124
 x_r1_g127
 x_r1_g128
 x_r1_g129
 x_r1_g130
 x_r1_g138
 x_r1_g141
 x_r1_g144
 x_r1_g155
 x_r1_g161
 x_r1_g162
 x_r1_g163
 x_r2_g1
 x_r2_g4
 x_r2_g15
 x_r2_g20
 x_r2_g21
 x_r2_g32
 x_r2_g34
 x_r2_g35
 x_r2_g44
 x_r2_g51
 x_r2_g52
 x_r2_g53
 x_r2_g55
 x_r2_g58
 x_r2_g59
 x_r2_g73
 x_r2_g74
 x_r2_g75
 x_r2_g83
 x_r2_g85
 x_r2_g86
 x_r2_g90
 x_r2_g95
 x_r2_g101
 x_r2_g104
 x_r2_g106
 x_r2_g112
 x_r2_g117
 x_r2_g121
 x_r2_g124
 x_r2_g130
 x_r2_g133
 x_r2_g135
 x_r2_g141
 x_r2_g146
 x_r2_g147
 x_r2_g155
 x_r2_g157
 x_r2_g161
 x_r2_g162
 x_r3_g1
 x_r3_g2
 x_r3_g5
 x_r3_g7
 x_r3_g9
 x_r3_g17
 x_r3_g20
 x_r3_g21
 x_r3_g22
 x_r3_g25
 x_r3_g26
 x_r3_g31
 x_r3_g33
 x_r3_g39
 x_r3_g42
 x_r3_g44
 x_r3_g45
 x_r3_g49
 x_r3_g51
 x_r3_g52
 x_r3_g53
 x_r3_g59
 x_r3_g60
 x_r3_g62
 x_r3_g64
 x_r3_g66
 x_r3_g68
 x_r3_g69
 x_r3_g71
 x_r3_g73
 x_r3_g77
 x_r3_g83
 x_r3_g117
 x_r3_g118
 x_r3_g122
 x_r3_g132
 x_r3_g141
 x_r3_g156
 x_r3_g161
 x_r3_g166
 p_r0_g12_h7_t5
 p_r0_g17_h12_t5
 p_r0_g24_h19_t5
 p_r0_g35_h30_t5
 p_r0_g39_h34_t5
 p_r0_g60_h55_t5
 p_r0_g79_h74_t5
 p_r0_g90_h85_t5
 p_r0_g108_h103_t5
 p_r0_g124_h119_t5
 p_r0_g148_h143_t5
 p_r0_g159_h154_t5
 p_r1_g26_h21_t5
 p_r1_g34_h29_t5
 p_r1_g39_h34_t5
 p_r1_g40_h35_t5
 p_r1_g45_h40_t5
 p_r1_g50_h45_t5
 p_r1_g69_h64_t5
 p_r1_g74_h69_t5
 p_r1_g82_h77_t5
 p_r1_g85_h80_t5
 p_r1_g129_h124_t5
 p_r2_g20_h15_t5
 p_r2_g58_h53_t5
 p_r2_g90_h85_t5
 p_r2_g95_h90_t5
 p_r2_g106_h101_t5
 p_r2_g117_h112_t5
 p_r2_g135_h130_t5
 p_r2_g146_h141_t5
 p_r2_g162_h157_t5
 p_r3_g7_h2_t5
 p_r3_g22_h17_t5
 p_r3_g25_h20_t5
 p_r3_g26_h21_t5
 p_r3_g31_h26_t5
 p_r3_g44_h39_t5
 p_r3_g49_h44_t5
 p_r3_g64_h59_t5
 p_r3_g69_h64_t5
 p_r3_g71_h66_t5
 p_r3_g73_h68_t5
 p_r3_g122_h117_t5
 p_r3_g161_h156_t5
 p_r3_g166_h161_t5
 p_r0_g17_h5_t12
 p_r0_g19_h7_t12
 p_r0_g24_h12_t12
 p_r0_g31_h19_t12
 p_r0_g47_h35_t12
 p_r0_g91_h79_t12
 p_r0_g103_h91_t12
 p_r0_g154_h142_t12
 p_r1_g6_h161_t12
 p_r1_g8_h163_t12
 p_r1_g34_h22_t12
 p_r1_g35_h23_t12
 p_r1_g38_h26_t12
 p_r1_g50_h38_t12
 p_r1_g80_h68_t12
 p_r1_g141_h129_t12
 p_r2_g32_h20_t12
 p_r2_g44_h32_t12
 p_r2_g85_h73_t12
 p_r2_g86_h74_t12
 p_r2_g95_h83_t12
 p_r2_g124_h112_t12
 p_r2_g133_h121_t12
 p_r2_g147_h135_t12
 p_r3_g1_h156_t12
 p_r3_g17_h5_t12
 p_r3_g21_h9_t12
 p_r3_g33_h21_t12
 p_r3_g45_h33_t12
 p_r3_g51_h39_t12
 p_r3_g64_h52_t12
 p_r3_g71_h59_t12
 p_r3_g83_h71_t12
 p_r0_g19_h159_t27
 p_r0_g34_h7_t27
 p_r0_g38_h11_t27
 p_r0_g39_h12_t27
 p_r0_g57_h30_t27
 p_r0_g74_h47_t27
 p_r0_g135_h108_t27
 p_r0_g148_h121_t27
 p_r1_g21_h161_t27
 p_r1_g22_h162_t27
 p_r1_g23_h163_t27
 p_r1_g35_h8_t27
 p_r1_g48_h21_t27
 p_r1_g50_h23_t27
 p_r1_g61_h34_t27
 p_r1_g69_h42_t27
 p_r1_g77_h50_t27
 p_r1_g88_h61_t27
 p_r1_g155_h128_t27
 p_r2_g1_h141_t27
 p_r2_g15_h155_t27
 p_r2_g21_h161_t27
 p_r2_g59_h32_t27
 p_r2_g85_h58_t27
 p_r2_g86_h59_t27
 p_r2_g101_h74_t27
 p_r2_g112_h85_t27
 p_r2_g117_h90_t27
 p_r2_g133_h106_t27
 p_r2_g157_h130_t27
 p_r2_g162_h135_t27
 p_r3_g1_h141_t27
 p_r3_g21_h161_t27
 p_r3_g26_h166_t27
 p_r3_g44_h17_t27
 p_r3_g49_h22_t27
 p_r3_g52_h25_t27
 p_r3_g53_h26_t27
 p_r3_g60_h33_t27
 p_r3_g66_h39_t27
 p_r3_g69_h42_t27
 p_r3_g71_h44_t27
 p_r0_g5_h143_t29
 p_r0_g34_h5_t29
 p_r0_g53_h24_t29
 p_r0_g60_h31_t29
 p_r0_g85_h56_t29
 p_r0_g103_h74_t29
 p_r0_g108_h79_t29
 p_r0_g119_h90_t29
 p_r0_g148_h119_t29
 p_r0_g154_h125_t29
 p_r1_g6_h144_t29
 p_r1_g23_h161_t29
 p_r1_g35_h6_t29
 p_r1_g50_h21_t29
 p_r1_g64_h35_t29
 p_r1_g68_h39_t29
 p_r1_g69_h40_t29
 p_r1_g74_h45_t29
 p_r1_g77_h48_t29
 p_r1_g128_h99_t29
 p_r2_g44_h15_t29
 p_r2_g73_h44_t29
 p_r2_g104_h75_t29
 p_r2_g112_h83_t29
 p_r2_g124_h95_t29
 p_r2_g130_h101_t29
 p_r2_g133_h104_t29
 p_r2_g135_h106_t29
 p_r2_g141_h112_t29
 p_r2_g146_h117_t29
 p_r2_g162_h133_t29
 p_r3_g31_h2_t29
 p_r3_g49_h20_t29
 p_r3_g51_h22_t29
 p_r3_g60_h31_t29
 p_r3_g62_h33_t29
 p_r3_g68_h39_t29
 p_r3_g71_h42_t29
 p_r3_g73_h44_t29
 p_r3_g161_h132_t29
 p_r0_g11_h144_t34
 p_r0_g15_h148_t34
 p_r0_g30_h163_t34
 p_r0_g39_h5_t34
 p_r0_g53_h19_t34
 p_r0_g90_h56_t34
 p_r0_g91_h57_t34
 p_r0_g108_h74_t34
 p_r0_g119_h85_t34
 p_r0_g124_h90_t34
 p_r0_g125_h91_t34
 p_r0_g142_h108_t34
 p_r0_g159_h125_t34
 p_r1_g8_h141_t34
 p_r1_g22_h155_t34
 p_r1_g29_h162_t34
 p_r1_g40_h6_t34
 p_r1_g42_h8_t34
 p_r1_g68_h34_t34
 p_r1_g69_h35_t34
 p_r1_g74_h40_t34
 p_r1_g82_h48_t34
 p_r1_g155_h121_t34
 p_r1_g161_h127_t34
 p_r1_g162_h128_t34
 p_r1_g163_h129_t34
 p_r2_g35_h1_t34
 p_r2_g55_h21_t34
 p_r2_g85_h51_t34
 p_r2_g86_h52_t34
 p_r2_g117_h83_t34
 p_r2_g124_h90_t34
 p_r2_g135_h101_t34
 p_r2_g146_h112_t34
 p_r2_g155_h121_t34
 p_r3_g33_h166_t34
 p_r3_g39_h5_t34
 p_r3_g51_h17_t34
 p_r3_g59_h25_t34
 p_r3_g60_h26_t34
 p_r3_g73_h39_t34
 p_r3_g83_h49_t34
 p_r3_g117_h83_t34
 p_r3_g156_h122_t34
 p_r3_g166_h132_t34
 p_r0_g11_h142_t36
 p_r0_g12_h143_t36
 p_r0_g17_h148_t36
 p_r0_g47_h11_t36
 p_r0_g53_h17_t36
 p_r0_g55_h19_t36
 p_r0_g60_h24_t36
 p_r0_g74_h38_t36
 p_r0_g91_h55_t36
 p_r0_g93_h57_t36
 p_r0_g121_h85_t36
 p_r0_g144_h108_t36
 p_r1_g42_h6_t36
 p_r1_g74_h38_t36
 p_r1_g121_h85_t36
 p_r1_g124_h88_t36
 p_r1_g163_h127_t36
 p_r2_g4_h135_t36
 p_r2_g15_h146_t36
 p_r2_g51_h15_t36
 p_r2_g95_h59_t36
 p_r2_g121_h85_t36
 p_r2_g157_h121_t36
 p_r3_g1_h132_t36
 p_r3_g25_h156_t36
 p_r3_g45_h9_t36
 p_r3_g53_h17_t36
 p_r3_g62_h26_t36
 p_r3_g69_h33_t36
 p_r0_g15_h142_t40
 p_r0_g17_h144_t40
 p_r0_g47_h7_t40
 p_r0_g55_h15_t40
 p_r0_g57_h17_t40
 p_r0_g74_h34_t40
 p_r0_g79_h39_t40
 p_r0_g93_h53_t40
 p_r0_g119_h79_t40
 p_r0_g125_h85_t40
 p_r0_g143_h103_t40
 p_r0_g148_h108_t40
 p_r0_g159_h119_t40
 p_r1_g34_h161_t40
 p_r1_g35_h162_t40
 p_r1_g48_h8_t40
 p_r1_g61_h21_t40
 p_r1_g69_h29_t40
 p_r1_g74_h34_t40
 p_r1_g80_h40_t40
 p_r1_g82_h42_t40
 p_r1_g85_h45_t40
 p_r1_g88_h48_t40
 p_r1_g128_h88_t40
 p_r1_g161_h121_t40
 p_r2_g20_h147_t40
 p_r2_g34_h161_t40
 p_r2_g35_h162_t40
 p_r2_g44_h4_t40
 p_r2_g55_h15_t40
 p_r2_g74_h34_t40
 p_r2_g75_h35_t40
 p_r2_g95_h55_t40
 p_r2_g130_h90_t40
 p_r2_g135_h95_t40
 p_r2_g141_h101_t40
 p_r2_g146_h106_t40
 p_r2_g157_h117_t40
 p_r2_g161_h121_t40
 p_r3_g5_h132_t40
 p_r3_g39_h166_t40
 p_r3_g42_h2_t40
 p_r3_g45_h5_t40
 p_r3_g49_h9_t40
 p_r3_g60_h20_t40
 p_r3_g62_h22_t40
 p_r3_g66_h26_t40
 p_r3_g71_h31_t40
 p_r3_g73_h33_t40
 p_r3_g117_h77_t40
 p_r0_g17_h142_t42
 p_r0_g19_h144_t42
 p_r0_g34_h159_t42
 p_r0_g38_h163_t42
 p_r0_g47_h5_t42
 p_r0_g53_h11_t42
 p_r0_g57_h15_t42
 p_r0_g121_h79_t42
 p_r0_g135_h93_t42
 p_r0_g163_h121_t42
 p_r1_g38_h163_t42
 p_r1_g48_h6_t42
 p_r1_g50_h8_t42
 p_r1_g64_h22_t42
 p_r1_g68_h26_t42
 p_r1_g77_h35_t42
 p_r1_g80_h38_t42
 p_r1_g82_h40_t42
 p_r1_g124_h82_t42
 p_r1_g127_h85_t42
 p_r1_g130_h88_t42
 p_r1_g141_h99_t42
 p_r1_g163_h121_t42
 p_r2_g21_h146_t42
 p_r2_g32_h157_t42
 p_r2_g74_h32_t42
 p_r2_g86_h44_t42
 p_r2_g95_h53_t42
 p_r2_g101_h59_t42
 p_r2_g117_h75_t42
 p_r2_g146_h104_t42
 p_r3_g7_h132_t42
 p_r3_g31_h156_t42
 p_r3_g44_h2_t42
 p_r3_g49_h7_t42
 p_r3_g51_h9_t42
 p_r3_g59_h17_t42
 p_r3_g62_h20_t42
 p_r3_g64_h22_t42
 p_r3_g68_h26_t42
 p_r3_g73_h31_t42
 p_r0_g12_h135_t44
 p_r0_g19_h142_t44
 p_r0_g31_h154_t44
 p_r0_g55_h11_t44
 p_r0_g56_h12_t44
 p_r0_g74_h30_t44
 p_r0_g79_h35_t44
 p_r0_g91_h47_t44
 p_r0_g135_h91_t44
 p_r0_g163_h119_t44
 p_r1_g6_h129_t44
 p_r1_g21_h144_t44
 p_r1_g38_h161_t44
 p_r1_g39_h162_t44
 p_r1_g40_h163_t44
 p_r1_g50_h6_t44
 p_r1_g82_h38_t44
 p_r1_g121_h77_t44
 p_r1_g124_h80_t44
 p_r1_g129_h85_t44
 p_r2_g1_h124_t44
 p_r2_g32_h155_t44
 p_r2_g34_h157_t44
 p_r2_g59_h15_t44
 p_r2_g95_h51_t44
 p_r2_g117_h73_t44
 p_r2_g130_h86_t44
 p_r2_g161_h117_t44
 p_r3_g9_h132_t44
 p_r3_g33_h156_t44
 p_r3_g45_h1_t44
 p_r3_g49_h5_t44
 p_r3_g51_h7_t44
 p_r3_g53_h9_t44
 p_r3_g64_h20_t44
 p_r3_g66_h22_t44
 p_r3_g69_h25_t44
 p_r3_g77_h33_t44
 p_r3_g83_h39_t44
 p_r3_g117_h73_t44
 p_r3_g161_h117_t44
 p_r3_g166_h122_t44
 p_r0_g19_h119_t67
 p_r0_g24_h124_t67
 p_r0_g35_h135_t67
 p_r0_g74_h7_t67
 p_r0_g79_h12_t67
 p_r0_g91_h24_t67
 p_r0_g124_h57_t67
 p_r1_g21_h121_t67
 p_r1_g29_h129_t67
 p_r1_g38_h138_t67
 p_r1_g61_h161_t67
 p_r1_g88_h21_t67
 p_r1_g128_h61_t67
 p_r1_g141_h74_t67
 p_r1_g144_h77_t67
 p_r1_g155_h88_t67
 p_r2_g1_h101_t67
 p_r2_g4_h104_t67
 p_r2_g21_h121_t67
 p_r2_g35_h135_t67
 p_r2_g55_h155_t67
 p_r2_g101_h34_t67
 p_r2_g141_h74_t67
 p_r2_g157_h90_t67
 p_r2_g162_h95_t67
 p_r3_g17_h117_t67
 p_r3_g22_h122_t67
 p_r3_g66_h166_t67
 p_r3_g68_h1_t67
 p_r3_g69_h2_t67
 p_r3_g118_h51_t67
 p_r0_g11_h103_t75
 p_r0_g56_h148_t75
 p_r0_g90_h15_t75
 p_r0_g135_h60_t75
 p_r0_g154_h79_t75
 p_r1_g29_h121_t75
 p_r1_g35_h127_t75
 p_r1_g38_h130_t75
 p_r1_g69_h161_t75
 p_r1_g144_h69_t75
 p_r1_g155_h80_t75
 p_r1_g163_h88_t75
 p_r2_g20_h112_t75
 p_r2_g32_h124_t75
 p_r2_g55_h147_t75
 p_r2_g90_h15_t75
 p_r2_g95_h20_t75
 p_r2_g130_h55_t75
 p_r2_g133_h58_t75
 p_r2_g161_h86_t75
 p_r3_g25_h117_t75
 p_r3_g26_h118_t75
 p_r3_g49_h141_t75
 p_r3_g64_h156_t75
 p_r3_g69_h161_t75
 p_r3_g77_h2_t75
 p_r3_g117_h42_t75
 p_r3_g141_h66_t75
 p_r0_g34_h121_t80
 p_r0_g38_h125_t80
 p_r0_g55_h142_t80
 p_r0_g56_h143_t80
 p_r0_g57_h144_t80
 p_r0_g85_h5_t80
 p_r0_g91_h11_t80
 p_r0_g119_h39_t80
 p_r0_g135_h55_t80
 p_r0_g154_h74_t80
 p_r0_g159_h79_t80
 p_r1_g34_h121_t80
 p_r1_g40_h127_t80
 p_r1_g42_h129_t80
 p_r1_g68_h155_t80
 p_r1_g74_h161_t80
 p_r1_g88_h8_t80
 p_r1_g128_h48_t80
 p_r1_g130_h50_t80
 p_r1_g141_h61_t80
 p_r1_g144_h64_t80
 p_r1_g162_h82_t80
 p_r2_g34_h121_t80
 p_r2_g59_h146_t80
 p_r2_g74_h161_t80
 p_r2_g75_h162_t80
 p_r2_g95_h15_t80
 p_r2_g101_h21_t80
 p_r2_g112_h32_t80
 p_r2_g124_h44_t80
 p_r2_g133_h53_t80
 p_r2_g135_h55_t80
 p_r2_g155_h75_t80
 p_r3_g31_h118_t80
 p_r3_g45_h132_t80
 p_r3_g69_h156_t80
 p_r3_g122_h42_t80
 p_r3_g132_h52_t80
Generals
 d_5
 d_12
 d_27
 d_29
 d_34
 d_36
 d_40
 d_42
 d_44
 d_67
 d_75
 d_80
 u_5
 u_12
 u_27
 u_29
 u_34
 u_36
 u_40
 u_42
 u_44
 u_67
 u_75
 u_80
 M
 F
End
