Minimize
 obj: M
Subject To
 block_size_0: 1 x_r0_g0 + 1 x_r0_g4 + 1 x_r0_g11 + 1 x_r0_g12 + 1 x_r0_g15 + 1 x_r0_g19 + 1 x_r0_g20 + 1 x_r0_g25 + 1 x_r0_g26 + 1 x_r0_g34 + 1 x_r0_g38 + 1 x_r0_g40 + 1 x_r0_g43 + 1 x_r0_g44 + 1 x_r0_g45 + 1 x_r0_g50 + 1 x_r0_g53 + 1 x_r0_g56 + 1 x_r0_g60 + 1 x_r0_g65 + 1 x_r0_g66 + 1 x_r0_g74 + 1 x_r0_g78 + 1 x_r0_g80 + 1 x_r0_g83 + 1 x_r0_g91 + 1 x_r0_g106 + 1 x_r0_g108 + 1 x_r0_g114 + 1 x_r0_g121 + 1 x_r0_g122 + 1 x_r0_g124 + 1 x_r0_g134 + 1 x_r0_g135 + 1 x_r0_g136 + 1 x_r0_g144 + 1 x_r0_g146 + 1 x_r0_g149 + 1 x_r0_g152 + 1 x_r0_g160 = 20
 block_size_1: 1 x_r1_g4 + 1 x_r1_g7 + 1 x_r1_g8 + 1 x_r1_g9 + 1 x_r1_g15 + 1 x_r1_g26 + 1 x_r1_g29 + 1 x_r1_g34 + 1 x_r1_g37 + 1 x_r1_g38 + 1 x_r1_g42 + 1 x_r1_g48 + 1 x_r1_g50 + 1 x_r1_g53 + 1 x_r1_g62 + 1 x_r1_g65 + 1 x_r1_g66 + 1 x_r1_g69 + 1 x_r1_g72 + 1 x_r1_g74 + 1 x_r1_g76 + 1 x_r1_g77 + 1 x_r1_g87 + 1 x_r1_g102 + 1 x_r1_g109 + 1 x_r1_g114 + 1 x_r1_g120 + 1 x_r1_g126 + 1 x_r1_g127 + 1 x_r1_g130 + 1 x_r1_g141 + 1 x_r1_g144 + 1 x_r1_g145 + 1 x_r1_g148 + 1 x_r1_g149 + 1 x_r1_g152 + 1 x_r1_g155 + 1 x_r1_g157 + 1 x_r1_g159 + 1 x_r1_g162 = 20
 block_size_2: 1 x_r2_g0 + 1 x_r2_g1 + 1 x_r2_g2 + 1 x_r2_g4 + 1 x_r2_g6 + 1 x_r2_g8 + 1 x_r2_g9 + 1 x_r2_g15 + 1 x_r2_g21 + 1 x_r2_g27 + 1 x_r2_g31 + 1 x_r2_g32 + 1 x_r2_g34 + 1 x_r2_g35 + 1 x_r2_g38 + 1 x_r2_g40 + 1 x_r2_g42 + 1 x_r2_g44 + 1 x_r2_g50 + 1 x_r2_g58 + 1 x_r2_g66 + 1 x_r2_g70 + 1 x_r2_g73 + 1 x_r2_g75 + 1 x_r2_g83 + 1 x_r2_g85 + 1 x_r2_g101 + 1 x_r2_g105 + 1 x_r2_g106 + 1 x_r2_g108 + 1 x_r2_g110 + 1 x_r2_g112 + 1 x_r2_g118 + 1 x_r2_g119 + 1 x_r2_g130 + 1 x_r2_g137 + 1 x_r2_g139 + 1 x_r2_g145 + 1 x_r2_g161 + 1 x_r2_g162 = 20
 block_size_3: 1 x_r3_g2 + 1 x_r3_g4 + 1 x_r3_g5 + 1 x_r3_g7 + 1 x_r3_g8 + 1 x_r3_g9 + 1 x_r3_g21 + 1 x_r3_g22 + 1 x_r3_g23 + 1 x_r3_g24 + 1 x_r3_g25 + 1 x_r3_g26 + 1 x_r3_g31 + 1 x_r3_g36 + 1 x_r3_g39 + 1 x_r3_g42 + 1 x_r3_g46 + 1 x_r3_g49 + 1 x_r3_g51 + 1 x_r3_g57 + 1 x_r3_g58 + 1 x_r3_g59 + 1 x_r3_g60 + 1 x_r3_g63 + 1 x_r3_g65 + 1 x_r3_g73 + 1 x_r3_g83 + 1 x_r3_g87 + 1 x_r3_g88 + 1 x_r3_g100 + 1 x_r3_g104 + 1 x_r3_g126 + 1 x_r3_g130 + 1 x_r3_g132 + 1 x_r3_g137 + 1 x_r3_g139 + 1 x_r3_g145 + 1 x_r3_g151 + 1 x_r3_g161 + 1 x_r3_g166 = 20
 lin1_3_0_15: p_r0_g15_h12_t3 - x_r0_g15 <= 0
 lin2_3_0_15: p_r0_g15_h12_t3 - x_r0_g12 <= 0
 lin3_3_0_15: p_r0_g15_h12_t3 - x_r0_g15 - x_r0_g12 >= -1
 lin1_3_0_43: p_r0_g43_h40_t3 - x_r0_g43 <= 0
 lin2_3_0_43: p_r0_g43_h40_t3 - x_r0_g40 <= 0
 lin3_3_0_43: p_r0_g43_h40_t3 - x_r0_g43 - x_r0_g40 >= -1
 lin1_3_0_53: p_r0_g53_h50_t3 - x_r0_g53 <= 0
 lin2_3_0_53: p_r0_g53_h50_t3 - x_r0_g50 <= 0
 lin3_3_0_53: p_r0_g53_h50_t3 - x_r0_g53 - x_r0_g50 >= -1
 lin1_3_0_56: p_r0_g56_h53_t3 - x_r0_g56 <= 0
 lin2_3_0_56: p_r0_g56_h53_t3 - x_r0_g53 <= 0
 lin3_3_0_56: p_r0_g56_h53_t3 - x_r0_g56 - x_r0_g53 >= -1
 lin1_3_0_83: p_r0_g83_h80_t3 - x_r0_g83 <= 0
 lin2_3_0_83: p_r0_g83_h80_t3 - x_r0_g80 <= 0
 lin3_3_0_83: p_r0_g83_h80_t3 - x_r0_g83 - x_r0_g80 >= -1
 lin1_3_0_124: p_r0_g124_h121_t3 - x_r0_g124 <= 0
 lin2_3_0_124: p_r0_g124_h121_t3 - x_r0_g121 <= 0
 lin3_3_0_124: p_r0_g124_h121_t3 - x_r0_g124 - x_r0_g121 >= -1
 lin1_3_0_149: p_r0_g149_h146_t3 - x_r0_g149 <= 0
 lin2_3_0_149: p_r0_g149_h146_t3 - x_r0_g146 <= 0
 lin3_3_0_149: p_r0_g149_h146_t3 - x_r0_g149 - x_r0_g146 >= -1
 lin1_3_0_152: p_r0_g152_h149_t3 - x_r0_g152 <= 0
 lin2_3_0_152: p_r0_g152_h149_t3 - x_r0_g149 <= 0
 lin3_3_0_152: p_r0_g152_h149_t3 - x_r0_g152 - x_r0_g149 >= -1
 lin1_3_1_7: p_r1_g7_h4_t3 - x_r1_g7 <= 0
 lin2_3_1_7: p_r1_g7_h4_t3 - x_r1_g4 <= 0
 lin3_3_1_7: p_r1_g7_h4_t3 - x_r1_g7 - x_r1_g4 >= -1
 lin1_3_1_29: p_r1_g29_h26_t3 - x_r1_g29 <= 0
 lin2_3_1_29: p_r1_g29_h26_t3 - x_r1_g26 <= 0
 lin3_3_1_29: p_r1_g29_h26_t3 - x_r1_g29 - x_r1_g26 >= -1
 lin1_3_1_37: p_r1_g37_h34_t3 - x_r1_g37 <= 0
 lin2_3_1_37: p_r1_g37_h34_t3 - x_r1_g34 <= 0
 lin3_3_1_37: p_r1_g37_h34_t3 - x_r1_g37 - x_r1_g34 >= -1
 lin1_3_1_53: p_r1_g53_h50_t3 - x_r1_g53 <= 0
 lin2_3_1_53: p_r1_g53_h50_t3 - x_r1_g50 <= 0
 lin3_3_1_53: p_r1_g53_h50_t3 - x_r1_g53 - x_r1_g50 >= -1
 lin1_3_1_65: p_r1_g65_h62_t3 - x_r1_g65 <= 0
 lin2_3_1_65: p_r1_g65_h62_t3 - x_r1_g62 <= 0
 lin3_3_1_65: p_r1_g65_h62_t3 - x_r1_g65 - x_r1_g62 >= -1
 lin1_3_1_69: p_r1_g69_h66_t3 - x_r1_g69 <= 0
 lin2_3_1_69: p_r1_g69_h66_t3 - x_r1_g66 <= 0
 lin3_3_1_69: p_r1_g69_h66_t3 - x_r1_g69 - x_r1_g66 >= -1
 lin1_3_1_72: p_r1_g72_h69_t3 - x_r1_g72 <= 0
 lin2_3_1_72: p_r1_g72_h69_t3 - x_r1_g69 <= 0
 lin3_3_1_72: p_r1_g72_h69_t3 - x_r1_g72 - x_r1_g69 >= -1
 lin1_3_1_77: p_r1_g77_h74_t3 - x_r1_g77 <= 0
 lin2_3_1_77: p_r1_g77_h74_t3 - x_r1_g74 <= 0
 lin3_3_1_77: p_r1_g77_h74_t3 - x_r1_g77 - x_r1_g74 >= -1
 lin1_3_1_130: p_r1_g130_h127_t3 - x_r1_g130 <= 0
 lin2_3_1_130: p_r1_g130_h127_t3 - x_r1_g127 <= 0
 lin3_3_1_130: p_r1_g130_h127_t3 - x_r1_g130 - x_r1_g127 >= -1
 lin1_3_1_144: p_r1_g144_h141_t3 - x_r1_g144 <= 0
 lin2_3_1_144: p_r1_g144_h141_t3 - x_r1_g141 <= 0
 lin3_3_1_144: p_r1_g144_h141_t3 - x_r1_g144 - x_r1_g141 >= -1
 lin1_3_1_148: p_r1_g148_h145_t3 - x_r1_g148 <= 0
 lin2_3_1_148: p_r1_g148_h145_t3 - x_r1_g145 <= 0
 lin3_3_1_148: p_r1_g148_h145_t3 - x_r1_g148 - x_r1_g145 >= -1
 lin1_3_1_152: p_r1_g152_h149_t3 - x_r1_g152 <= 0
 lin2_3_1_152: p_r1_g152_h149_t3 - x_r1_g149 <= 0
 lin3_3_1_152: p_r1_g152_h149_t3 - x_r1_g152 - x_r1_g149 >= -1
 lin1_3_1_155: p_r1_g155_h152_t3 - x_r1_g155 <= 0
 lin2_3_1_155: p_r1_g155_h152_t3 - x_r1_g152 <= 0
 lin3_3_1_155: p_r1_g155_h152_t3 - x_r1_g155 - x_r1_g152 >= -1
 lin1_3_1_162: p_r1_g162_h159_t3 - x_r1_g162 <= 0
 lin2_3_1_162: p_r1_g162_h159_t3 - x_r1_g159 <= 0
 lin3_3_1_162: p_r1_g162_h159_t3 - x_r1_g162 - x_r1_g159 >= -1
 lin1_3_2_4: p_r2_g4_h1_t3 - x_r2_g4 <= 0
 lin2_3_2_4: p_r2_g4_h1_t3 - x_r2_g1 <= 0
 lin3_3_2_4: p_r2_g4_h1_t3 - x_r2_g4 - x_r2_g1 >= -1
 lin1_3_2_9: p_r2_g9_h6_t3 - x_r2_g9 <= 0
 lin2_3_2_9: p_r2_g9_h6_t3 - x_r2_g6 <= 0
 lin3_3_2_9: p_r2_g9_h6_t3 - x_r2_g9 - x_r2_g6 >= -1
 lin1_3_2_34: p_r2_g34_h31_t3 - x_r2_g34 <= 0
 lin2_3_2_34: p_r2_g34_h31_t3 - x_r2_g31 <= 0
 lin3_3_2_34: p_r2_g34_h31_t3 - x_r2_g34 - x_r2_g31 >= -1
 lin1_3_2_35: p_r2_g35_h32_t3 - x_r2_g35 <= 0
 lin2_3_2_35: p_r2_g35_h32_t3 - x_r2_g32 <= 0
 lin3_3_2_35: p_r2_g35_h32_t3 - x_r2_g35 - x_r2_g32 >= -1
 lin1_3_2_38: p_r2_g38_h35_t3 - x_r2_g38 <= 0
 lin2_3_2_38: p_r2_g38_h35_t3 - x_r2_g35 <= 0
 lin3_3_2_38: p_r2_g38_h35_t3 - x_r2_g38 - x_r2_g35 >= -1
 lin1_3_2_73: p_r2_g73_h70_t3 - x_r2_g73 <= 0
 lin2_3_2_73: p_r2_g73_h70_t3 - x_r2_g70 <= 0
 lin3_3_2_73: p_r2_g73_h70_t3 - x_r2_g73 - x_r2_g70 >= -1
 lin1_3_2_108: p_r2_g108_h105_t3 - x_r2_g108 <= 0
 lin2_3_2_108: p_r2_g108_h105_t3 - x_r2_g105 <= 0
 lin3_3_2_108: p_r2_g108_h105_t3 - x_r2_g108 - x_r2_g105 >= -1
 lin1_3_3_2: p_r3_g2_h166_t3 - x_r3_g2 <= 0
 lin2_3_3_2: p_r3_g2_h166_t3 - x_r3_g166 <= 0
 lin3_3_3_2: p_r3_g2_h166_t3 - x_r3_g2 - x_r3_g166 >= -1
 lin1_3_3_5: p_r3_g5_h2_t3 - x_r3_g5 <= 0
 lin2_3_3_5: p_r3_g5_h2_t3 - x_r3_g2 <= 0
 lin3_3_3_5: p_r3_g5_h2_t3 - x_r3_g5 - x_r3_g2 >= -1
 lin1_3_3_7: p_r3_g7_h4_t3 - x_r3_g7 <= 0
 lin2_3_3_7: p_r3_g7_h4_t3 - x_r3_g4 <= 0
 lin3_3_3_7: p_r3_g7_h4_t3 - x_r3_g7 - x_r3_g4 >= -1
 lin1_3_3_8: p_r3_g8_h5_t3 - x_r3_g8 <= 0
 lin2_3_3_8: p_r3_g8_h5_t3 - x_r3_g5 <= 0
 lin3_3_3_8: p_r3_g8_h5_t3 - x_r3_g8 - x_r3_g5 >= -1
 lin1_3_3_24: p_r3_g24_h21_t3 - x_r3_g24 <= 0
 lin2_3_3_24: p_r3_g24_h21_t3 - x_r3_g21 <= 0
 lin3_3_3_24: p_r3_g24_h21_t3 - x_r3_g24 - x_r3_g21 >= -1
 lin1_3_3_25: p_r3_g25_h22_t3 - x_r3_g25 <= 0
 lin2_3_3_25: p_r3_g25_h22_t3 - x_r3_g22 <= 0
 lin3_3_3_25: p_r3_g25_h22_t3 - x_r3_g25 - x_r3_g22 >= -1
 lin1_3_3_26: p_r3_g26_h23_t3 - x_r3_g26 <= 0
 lin2_3_3_26: p_r3_g26_h23_t3 - x_r3_g23 <= 0
 lin3_3_3_26: p_r3_g26_h23_t3 - x_r3_g26 - x_r3_g23 >= -1
 lin1_3_3_39: p_r3_g39_h36_t3 - x_r3_g39 <= 0
 lin2_3_3_39: p_r3_g39_h36_t3 - x_r3_g36 <= 0
 lin3_3_3_39: p_r3_g39_h36_t3 - x_r3_g39 - x_r3_g36 >= -1
 lin1_3_3_42: p_r3_g42_h39_t3 - x_r3_g42 <= 0
 lin2_3_3_42: p_r3_g42_h39_t3 - x_r3_g39 <= 0
 lin3_3_3_42: p_r3_g42_h39_t3 - x_r3_g42 - x_r3_g39 >= -1
 lin1_3_3_49: p_r3_g49_h46_t3 - x_r3_g49 <= 0
 lin2_3_3_49: p_r3_g49_h46_t3 - x_r3_g46 <= 0
 lin3_3_3_49: p_r3_g49_h46_t3 - x_r3_g49 - x_r3_g46 >= -1
 lin1_3_3_60: p_r3_g60_h57_t3 - x_r3_g60 <= 0
 lin2_3_3_60: p_r3_g60_h57_t3 - x_r3_g57 <= 0
 lin3_3_3_60: p_r3_g60_h57_t3 - x_r3_g60 - x_r3_g57 >= -1
 lin1_3_3_63: p_r3_g63_h60_t3 - x_r3_g63 <= 0
 lin2_3_3_63: p_r3_g63_h60_t3 - x_r3_g60 <= 0
 lin3_3_3_63: p_r3_g63_h60_t3 - x_r3_g63 - x_r3_g60 >= -1
 defect_3: 1 d_3 - 1 x_r0_g0 - 1 x_r0_g4 - 1 x_r0_g11 - 1 x_r0_g34 - 1 x_r0_g40 - 1 x_r0_g43 - 1 x_r0_g44 - 2 x_r0_g45 - 1 x_r0_g50 - 1 x_r0_g56 - 1 x_r0_g60 - 2 x_r0_g65 - 1 x_r0_g66 - 1 x_r0_g74 - 1 x_r0_g80 - 1 x_r0_g91 - 1 x_r0_g106 - 1 x_r0_g108 - 1 x_r0_g114 - 1 x_r0_g121 - 1 x_r0_g122 - 1 x_r0_g124 - 2 x_r0_g134 - 1 x_r0_g135 - 1 x_r0_g136 - 1 x_r0_g146 - 1 x_r0_g152 - 2 x_r0_g160 - 1 x_r1_g4 - 1 x_r1_g7 - 1 x_r1_g8 - 1 x_r1_g15 - 1 x_r1_g29 - 1 x_r1_g34 - 1 x_r1_g37 - 1 x_r1_g42 - 1 x_r1_g53 - 1 x_r1_g65 - 1 x_r1_g76 - 1 x_r1_g77 - 2 x_r1_g87 - 1 x_r1_g109 - 1 x_r1_g120 - 1 x_r1_g126 - 1 x_r1_g127 - 1 x_r1_g141 - 1 x_r1_g149 - 2 x_r1_g157 - 1 x_r1_g159 - 1 x_r2_g1 - 1 x_r2_g4 - 1 x_r2_g15 - 1 x_r2_g21 - 1 x_r2_g27 - 1 x_r2_g31 - 1 x_r2_g38 - 1 x_r2_g40 - 2 x_r2_g42 - 1 x_r2_g44 - 1 x_r2_g58 - 1 x_r2_g66 - 1 x_r2_g75 - 2 x_r2_g83 - 1 x_r2_g85 - 2 x_r2_g101 - 1 x_r2_g105 - 1 x_r2_g110 - 1 x_r2_g112 - 2 x_r2_g118 - 2 x_r2_g119 - 1 x_r2_g130 - 2 x_r2_g137 - 1 x_r2_g139 - 1 x_r2_g145 - 1 x_r2_g161 - 1 x_r2_g162 - 1 x_r3_g4 - 2 x_r3_g9 - 1 x_r3_g21 - 1 x_r3_g22 - 1 x_r3_g23 - 1 x_r3_g24 - 1 x_r3_g25 - 1 x_r3_g31 - 1 x_r3_g42 - 1 x_r3_g46 - 2 x_r3_g58 - 1 x_r3_g59 - 1 x_r3_g63 - 2 x_r3_g65 - 1 x_r3_g73 - 2 x_r3_g83 - 2 x_r3_g126 - 1 x_r3_g130 - 1 x_r3_g132 - 2 x_r3_g137 - 1 x_r3_g139 - 2 x_r3_g145 - 2 x_r3_g151 - 1 x_r3_g166 - 1 p_r0_g15_h12_t3 - 1 p_r0_g43_h40_t3 - 1 p_r0_g53_h50_t3 - 1 p_r0_g56_h53_t3 - 1 p_r0_g83_h80_t3 - 1 p_r0_g124_h121_t3 - 1 p_r0_g149_h146_t3 - 1 p_r0_g152_h149_t3 - 1 p_r1_g7_h4_t3 - 1 p_r1_g29_h26_t3 - 1 p_r1_g37_h34_t3 - 1 p_r1_g53_h50_t3 - 1 p_r1_g65_h62_t3 - 1 p_r1_g69_h66_t3 - 1 p_r1_g72_h69_t3 - 1 p_r1_g77_h74_t3 - 1 p_r1_g130_h127_t3 - 1 p_r1_g144_h141_t3 - 1 p_r1_g148_h145_t3 - 1 p_r1_g152_h149_t3 - 1 p_r1_g155_h152_t3 - 1 p_r1_g162_h159_t3 - 1 p_r2_g4_h1_t3 - 1 p_r2_g9_h6_t3 - 1 p_r2_g34_h31_t3 - 1 p_r2_g35_h32_t3 - 1 p_r2_g38_h35_t3 - 1 p_r2_g73_h70_t3 - 1 p_r2_g108_h105_t3 - 1 p_r3_g2_h166_t3 - 1 p_r3_g5_h2_t3 - 1 p_r3_g7_h4_t3 - 1 p_r3_g8_h5_t3 - 1 p_r3_g24_h21_t3 - 1 p_r3_g25_h22_t3 - 1 p_r3_g26_h23_t3 - 1 p_r3_g39_h36_t3 - 1 p_r3_g42_h39_t3 - 1 p_r3_g49_h46_t3 - 1 p_r3_g60_h57_t3 - 1 p_r3_g63_h60_t3 = -86
 abs_pos_3: d_3 - u_3 <= 0
 abs_neg_3: - d_3 - u_3 <= 0
 max_def_3: u_3 - M <= 0
 cap_3: u_3 <= 1
 lin1_8_0_12: p_r0_g12_h4_t8 - x_r0_g12 <= 0
 lin2_8_0_12: p_r0_g12_h4_t8 - x_r0_g4 <= 0
 lin3_8_0_12: p_r0_g12_h4_t8 - x_r0_g12 - x_r0_g4 >= -1
 lin1_8_0_19: p_r0_g19_h11_t8 - x_r0_g19 <= 0
 lin2_8_0_19: p_r0_g19_h11_t8 - x_r0_g11 <= 0
 lin3_8_0_19: p_r0_g19_h11_t8 - x_r0_g19 - x_r0_g11 >= -1
 lin1_8_0_20: p_r0_g20_h12_t8 - x_r0_g20 <= 0
 lin2_8_0_20: p_r0_g20_h12_t8 - x_r0_g12 <= 0
 lin3_8_0_20: p_r0_g20_h12_t8 - x_r0_g20 - x_r0_g12 >= -1
 lin1_8_0_34: p_r0_g34_h26_t8 - x_r0_g34 <= 0
 lin2_8_0_34: p_r0_g34_h26_t8 - x_r0_g26 <= 0
 lin3_8_0_34: p_r0_g34_h26_t8 - x_r0_g34 - x_r0_g26 >= -1
 lin1_8_0_53: p_r0_g53_h45_t8 - x_r0_g53 <= 0
 lin2_8_0_53: p_r0_g53_h45_t8 - x_r0_g45 <= 0
 lin3_8_0_53: p_r0_g53_h45_t8 - x_r0_g53 - x_r0_g45 >= -1
 lin1_8_0_74: p_r0_g74_h66_t8 - x_r0_g74 <= 0
 lin2_8_0_74: p_r0_g74_h66_t8 - x_r0_g66 <= 0
 lin3_8_0_74: p_r0_g74_h66_t8 - x_r0_g74 - x_r0_g66 >= -1
 lin1_8_0_91: p_r0_g91_h83_t8 - x_r0_g91 <= 0
 lin2_8_0_91: p_r0_g91_h83_t8 - x_r0_g83 <= 0
 lin3_8_0_91: p_r0_g91_h83_t8 - x_r0_g91 - x_r0_g83 >= -1
 lin1_8_0_114: p_r0_g114_h106_t8 - x_r0_g114 <= 0
 lin2_8_0_114: p_r0_g114_h106_t8 - x_r0_g106 <= 0
 lin3_8_0_114: p_r0_g114_h106_t8 - x_r0_g114 - x_r0_g106 >= -1
 lin1_8_0_122: p_r0_g122_h114_t8 - x_r0_g122 <= 0
 lin2_8_0_122: p_r0_g122_h114_t8 - x_r0_g114 <= 0
 lin3_8_0_122: p_r0_g122_h114_t8 - x_r0_g122 - x_r0_g114 >= -1
 lin1_8_0_144: p_r0_g144_h136_t8 - x_r0_g144 <= 0
 lin2_8_0_144: p_r0_g144_h136_t8 - x_r0_g136 <= 0
 lin3_8_0_144: p_r0_g144_h136_t8 - x_r0_g144 - x_r0_g136 >= -1
 lin1_8_0_152: p_r0_g152_h144_t8 - x_r0_g152 <= 0
 lin2_8_0_152: p_r0_g152_h144_t8 - x_r0_g144 <= 0
 lin3_8_0_152: p_r0_g152_h144_t8 - x_r0_g152 - x_r0_g144 >= -1
 lin1_8_0_160: p_r0_g160_h152_t8 - x_r0_g160 <= 0
 lin2_8_0_160: p_r0_g160_h152_t8 - x_r0_g152 <= 0
 lin3_8_0_160: p_r0_g160_h152_t8 - x_r0_g160 - x_r0_g152 >= -1
 lin1_8_1_15: p_r1_g15_h7_t8 - x_r1_g15 <= 0
 lin2_8_1_15: p_r1_g15_h7_t8 - x_r1_g7 <= 0
 lin3_8_1_15: p_r1_g15_h7_t8 - x_r1_g15 - x_r1_g7 >= -1
 lin1_8_1_34: p_r1_g34_h26_t8 - x_r1_g34 <= 0
 lin2_8_1_34: p_r1_g34_h26_t8 - x_r1_g26 <= 0
 lin3_8_1_34: p_r1_g34_h26_t8 - x_r1_g34 - x_r1_g26 >= -1
 lin1_8_1_37: p_r1_g37_h29_t8 - x_r1_g37 <= 0
 lin2_8_1_37: p_r1_g37_h29_t8 - x_r1_g29 <= 0
 lin3_8_1_37: p_r1_g37_h29_t8 - x_r1_g37 - x_r1_g29 >= -1
 lin1_8_1_42: p_r1_g42_h34_t8 - x_r1_g42 <= 0
 lin2_8_1_42: p_r1_g42_h34_t8 - x_r1_g34 <= 0
 lin3_8_1_42: p_r1_g42_h34_t8 - x_r1_g42 - x_r1_g34 >= -1
 lin1_8_1_50: p_r1_g50_h42_t8 - x_r1_g50 <= 0
 lin2_8_1_50: p_r1_g50_h42_t8 - x_r1_g42 <= 0
 lin3_8_1_50: p_r1_g50_h42_t8 - x_r1_g50 - x_r1_g42 >= -1
 lin1_8_1_74: p_r1_g74_h66_t8 - x_r1_g74 <= 0
 lin2_8_1_74: p_r1_g74_h66_t8 - x_r1_g66 <= 0
 lin3_8_1_74: p_r1_g74_h66_t8 - x_r1_g74 - x_r1_g66 >= -1
 lin1_8_1_77: p_r1_g77_h69_t8 - x_r1_g77 <= 0
 lin2_8_1_77: p_r1_g77_h69_t8 - x_r1_g69 <= 0
 lin3_8_1_77: p_r1_g77_h69_t8 - x_r1_g77 - x_r1_g69 >= -1
 lin1_8_1_149: p_r1_g149_h141_t8 - x_r1_g149 <= 0
 lin2_8_1_149: p_r1_g149_h141_t8 - x_r1_g141 <= 0
 lin3_8_1_149: p_r1_g149_h141_t8 - x_r1_g149 - x_r1_g141 >= -1
 lin1_8_1_152: p_r1_g152_h144_t8 - x_r1_g152 <= 0
 lin2_8_1_152: p_r1_g152_h144_t8 - x_r1_g144 <= 0
 lin3_8_1_152: p_r1_g152_h144_t8 - x_r1_g152 - x_r1_g144 >= -1
 lin1_8_1_157: p_r1_g157_h149_t8 - x_r1_g157 <= 0
 lin2_8_1_157: p_r1_g157_h149_t8 - x_r1_g149 <= 0
 lin3_8_1_157: p_r1_g157_h149_t8 - x_r1_g157 - x_r1_g149 >= -1
 lin1_8_2_2: p_r2_g2_h161_t8 - x_r2_g2 <= 0
 lin2_8_2_2: p_r2_g2_h161_t8 - x_r2_g161 <= 0
 lin3_8_2_2: p_r2_g2_h161_t8 - x_r2_g2 - x_r2_g161 >= -1
 lin1_8_2_8: p_r2_g8_h0_t8 - x_r2_g8 <= 0
 lin2_8_2_8: p_r2_g8_h0_t8 - x_r2_g0 <= 0
 lin3_8_2_8: p_r2_g8_h0_t8 - x_r2_g8 - x_r2_g0 >= -1
 lin1_8_2_9: p_r2_g9_h1_t8 - x_r2_g9 <= 0
 lin2_8_2_9: p_r2_g9_h1_t8 - x_r2_g1 <= 0
 lin3_8_2_9: p_r2_g9_h1_t8 - x_r2_g9 - x_r2_g1 >= -1
 lin1_8_2_35: p_r2_g35_h27_t8 - x_r2_g35 <= 0
 lin2_8_2_35: p_r2_g35_h27_t8 - x_r2_g27 <= 0
 lin3_8_2_35: p_r2_g35_h27_t8 - x_r2_g35 - x_r2_g27 >= -1
 lin1_8_2_40: p_r2_g40_h32_t8 - x_r2_g40 <= 0
 lin2_8_2_40: p_r2_g40_h32_t8 - x_r2_g32 <= 0
 lin3_8_2_40: p_r2_g40_h32_t8 - x_r2_g40 - x_r2_g32 >= -1
 lin1_8_2_42: p_r2_g42_h34_t8 - x_r2_g42 <= 0
 lin2_8_2_42: p_r2_g42_h34_t8 - x_r2_g34 <= 0
 lin3_8_2_42: p_r2_g42_h34_t8 - x_r2_g42 - x_r2_g34 >= -1
 lin1_8_2_50: p_r2_g50_h42_t8 - x_r2_g50 <= 0
 lin2_8_2_50: p_r2_g50_h42_t8 - x_r2_g42 <= 0
 lin3_8_2_50: p_r2_g50_h42_t8 - x_r2_g50 - x_r2_g42 >= -1
 lin1_8_2_58: p_r2_g58_h50_t8 - x_r2_g58 <= 0
 lin2_8_2_58: p_r2_g58_h50_t8 - x_r2_g50 <= 0
 lin3_8_2_58: p_r2_g58_h50_t8 - x_r2_g58 - x_r2_g50 >= -1
 lin1_8_2_66: p_r2_g66_h58_t8 - x_r2_g66 <= 0
 lin2_8_2_66: p_r2_g66_h58_t8 - x_r2_g58 <= 0
 lin3_8_2_66: p_r2_g66_h58_t8 - x_r2_g66 - x_r2_g58 >= -1
 lin1_8_2_83: p_r2_g83_h75_t8 - x_r2_g83 <= 0
 lin2_8_2_83: p_r2_g83_h75_t8 - x_r2_g75 <= 0
 lin3_8_2_83: p_r2_g83_h75_t8 - x_r2_g83 - x_r2_g75 >= -1
 lin1_8_2_118: p_r2_g118_h110_t8 - x_r2_g118 <= 0
 lin2_8_2_118: p_r2_g118_h110_t8 - x_r2_g110 <= 0
 lin3_8_2_118: p_r2_g118_h110_t8 - x_r2_g118 - x_r2_g110 >= -1
 lin1_8_2_145: p_r2_g145_h137_t8 - x_r2_g145 <= 0
 lin2_8_2_145: p_r2_g145_h137_t8 - x_r2_g137 <= 0
 lin3_8_2_145: p_r2_g145_h137_t8 - x_r2_g145 - x_r2_g137 >= -1
 lin1_8_3_2: p_r3_g2_h161_t8 - x_r3_g2 <= 0
 lin2_8_3_2: p_r3_g2_h161_t8 - x_r3_g161 <= 0
 lin3_8_3_2: p_r3_g2_h161_t8 - x_r3_g2 - x_r3_g161 >= -1
 lin1_8_3_7: p_r3_g7_h166_t8 - x_r3_g7 <= 0
 lin2_8_3_7: p_r3_g7_h166_t8 - x_r3_g166 <= 0
 lin3_8_3_7: p_r3_g7_h166_t8 - x_r3_g7 - x_r3_g166 >= -1
 lin1_8_3_31: p_r3_g31_h23_t8 - x_r3_g31 <= 0
 lin2_8_3_31: p_r3_g31_h23_t8 - x_r3_g23 <= 0
 lin3_8_3_31: p_r3_g31_h23_t8 - x_r3_g31 - x_r3_g23 >= -1
 lin1_8_3_39: p_r3_g39_h31_t8 - x_r3_g39 <= 0
 lin2_8_3_39: p_r3_g39_h31_t8 - x_r3_g31 <= 0
 lin3_8_3_39: p_r3_g39_h31_t8 - x_r3_g39 - x_r3_g31 >= -1
 lin1_8_3_57: p_r3_g57_h49_t8 - x_r3_g57 <= 0
 lin2_8_3_57: p_r3_g57_h49_t8 - x_r3_g49 <= 0
 lin3_8_3_57: p_r3_g57_h49_t8 - x_r3_g57 - x_r3_g49 >= -1
 lin1_8_3_59: p_r3_g59_h51_t8 - x_r3_g59 <= 0
 lin2_8_3_59: p_r3_g59_h51_t8 - x_r3_g51 <= 0
 lin3_8_3_59: p_r3_g59_h51_t8 - x_r3_g59 - x_r3_g51 >= -1
 lin1_8_3_65: p_r3_g65_h57_t8 - x_r3_g65 <= 0
 lin2_8_3_65: p_r3_g65_h57_t8 - x_r3_g57 <= 0
 lin3_8_3_65: p_r3_g65_h57_t8 - x_r3_g65 - x_r3_g57 >= -1
 lin1_8_3_73: p_r3_g73_h65_t8 - x_r3_g73 <= 0
 lin2_8_3_73: p_r3_g73_h65_t8 - x_r3_g65 <= 0
 lin3_8_3_73: p_r3_g73_h65_t8 - x_r3_g73 - x_r3_g65 >= -1
 lin1_8_3_145: p_r3_g145_h137_t8 - x_r3_g145 <= 0
 lin2_8_3_145: p_r3_g145_h137_t8 - x_r3_g137 <= 0
 lin3_8_3_145: p_r3_g145_h137_t8 - x_r3_g145 - x_r3_g137 >= -1
 defect_8: 1 d_8 - 1 x_r0_g0 - 1 x_r0_g4 - 1 x_r0_g11 - 1 x_r0_g15 - 1 x_r0_g34 - 2 x_r0_g38 - 1 x_r0_g40 - 1 x_r0_g43 - 2 x_r0_g44 - 1 x_r0_g45 - 2 x_r0_g50 - 1 x_r0_g56 - 2 x_r0_g60 - 1 x_r0_g66 - 1 x_r0_g78 - 1 x_r0_g80 - 1 x_r0_g106 - 2 x_r0_g108 - 1 x_r0_g121 - 2 x_r0_g124 - 2 x_r0_g134 - 2 x_r0_g135 - 1 x_r0_g149 - 1 x_r1_g4 - 1 x_r1_g7 - 1 x_r1_g9 - 1 x_r1_g26 - 1 x_r1_g38 - 2 x_r1_g48 - 1 x_r1_g62 - 1 x_r1_g65 - 2 x_r1_g72 - 1 x_r1_g74 - 2 x_r1_g76 - 2 x_r1_g87 - 2 x_r1_g120 - 1 x_r1_g127 - 1 x_r1_g130 - 2 x_r1_g148 - 1 x_r1_g152 - 1 x_r1_g155 - 2 x_r1_g162 - 1 x_r2_g1 - 1 x_r2_g4 - 2 x_r2_g6 - 1 x_r2_g15 - 1 x_r2_g31 - 1 x_r2_g34 - 1 x_r2_g35 - 2 x_r2_g38 - 1 x_r2_g40 - 1 x_r2_g66 - 1 x_r2_g70 - 1 x_r2_g73 - 1 x_r2_g105 - 2 x_r2_g106 - 1 x_r2_g108 - 1 x_r2_g110 - 2 x_r2_g112 - 1 x_r2_g118 - 1 x_r2_g119 - 1 x_r2_g130 - 1 x_r2_g137 - 1 x_r2_g145 - 1 x_r2_g161 - 2 x_r3_g4 - 1 x_r3_g5 - 2 x_r3_g9 - 1 x_r3_g21 - 1 x_r3_g22 - 1 x_r3_g24 - 1 x_r3_g25 - 1 x_r3_g26 - 1 x_r3_g36 - 1 x_r3_g39 - 1 x_r3_g46 - 1 x_r3_g49 - 1 x_r3_g51 - 1 x_r3_g58 - 1 x_r3_g60 - 1 x_r3_g63 - 1 x_r3_g73 - 1 x_r3_g83 - 1 x_r3_g88 - 1 x_r3_g100 - 1 x_r3_g104 - 2 x_r3_g126 - 2 x_r3_g130 - 2 x_r3_g132 - 1 x_r3_g137 - 1 x_r3_g151 - 1 p_r0_g12_h4_t8 - 1 p_r0_g19_h11_t8 - 1 p_r0_g20_h12_t8 - 1 p_r0_g34_h26_t8 - 1 p_r0_g53_h45_t8 - 1 p_r0_g74_h66_t8 - 1 p_r0_g91_h83_t8 - 1 p_r0_g114_h106_t8 - 1 p_r0_g122_h114_t8 - 1 p_r0_g144_h136_t8 - 1 p_r0_g152_h144_t8 - 1 p_r0_g160_h152_t8 - 1 p_r1_g15_h7_t8 - 1 p_r1_g34_h26_t8 - 1 p_r1_g37_h29_t8 - 1 p_r1_g42_h34_t8 - 1 p_r1_g50_h42_t8 - 1 p_r1_g74_h66_t8 - 1 p_r1_g77_h69_t8 - 1 p_r1_g149_h141_t8 - 1 p_r1_g152_h144_t8 - 1 p_r1_g157_h149_t8 - 1 p_r2_g2_h161_t8 - 1 p_r2_g8_h0_t8 - 1 p_r2_g9_h1_t8 - 1 p_r2_g35_h27_t8 - 1 p_r2_g40_h32_t8 - 1 p_r2_g42_h34_t8 - 1 p_r2_g50_h42_t8 - 1 p_r2_g58_h50_t8 - 1 p_r2_g66_h58_t8 - 1 p_r2_g83_h75_t8 - 1 p_r2_g118_h110_t8 - 1 p_r2_g145_h137_t8 - 1 p_r3_g2_h161_t8 - 1 p_r3_g7_h166_t8 - 1 p_r3_g31_h23_t8 - 1 p_r3_g39_h31_t8 - 1 p_r3_g57_h49_t8 - 1 p_r3_g59_h51_t8 - 1 p_r3_g65_h57_t8 - 1 p_r3_g73_h65_t8 - 1 p_r3_g145_h137_t8 = -51
 abs_pos_8: d_8 - u_8 <= 0
 abs_neg_8: - d_8 - u_8 <= 0
 max_def_8: u_8 - M <= 0
 cap_8: u_8 <= 1
 lin1_9_0_20: p_r0_g20_h11_t9 - x_r0_g20 <= 0
 lin2_9_0_20: p_r0_g20_h11_t9 - x_r0_g11 <= 0
 lin3_9_0_20: p_r0_g20_h11_t9 - x_r0_g20 - x_r0_g11 >= -1
 lin1_9_0_34: p_r0_g34_h25_t9 - x_r0_g34 <= 0
 lin2_9_0_34: p_r0_g34_h25_t9 - x_r0_g25 <= 0
 lin3_9_0_34: p_r0_g34_h25_t9 - x_r0_g34 - x_r0_g25 >= -1
 lin1_9_0_43: p_r0_g43_h34_t9 - x_r0_g43 <= 0
 lin2_9_0_43: p_r0_g43_h34_t9 - x_r0_g34 <= 0
 lin3_9_0_43: p_r0_g43_h34_t9 - x_r0_g43 - x_r0_g34 >= -1
 lin1_9_0_53: p_r0_g53_h44_t9 - x_r0_g53 <= 0
 lin2_9_0_53: p_r0_g53_h44_t9 - x_r0_g44 <= 0
 lin3_9_0_53: p_r0_g53_h44_t9 - x_r0_g53 - x_r0_g44 >= -1
 lin1_9_0_65: p_r0_g65_h56_t9 - x_r0_g65 <= 0
 lin2_9_0_65: p_r0_g65_h56_t9 - x_r0_g56 <= 0
 lin3_9_0_65: p_r0_g65_h56_t9 - x_r0_g65 - x_r0_g56 >= -1
 lin1_9_0_74: p_r0_g74_h65_t9 - x_r0_g74 <= 0
 lin2_9_0_74: p_r0_g74_h65_t9 - x_r0_g65 <= 0
 lin3_9_0_74: p_r0_g74_h65_t9 - x_r0_g74 - x_r0_g65 >= -1
 lin1_9_0_83: p_r0_g83_h74_t9 - x_r0_g83 <= 0
 lin2_9_0_83: p_r0_g83_h74_t9 - x_r0_g74 <= 0
 lin3_9_0_83: p_r0_g83_h74_t9 - x_r0_g83 - x_r0_g74 >= -1
 lin1_9_0_144: p_r0_g144_h135_t9 - x_r0_g144 <= 0
 lin2_9_0_144: p_r0_g144_h135_t9 - x_r0_g135 <= 0
 lin3_9_0_144: p_r0_g144_h135_t9 - x_r0_g144 - x_r0_g135 >= -1
 lin1_9_1_4: p_r1_g4_h162_t9 - x_r1_g4 <= 0
 lin2_9_1_4: p_r1_g4_h162_t9 - x_r1_g162 <= 0
 lin3_9_1_4: p_r1_g4_h162_t9 - x_r1_g4 - x_r1_g162 >= -1
 lin1_9_1_38: p_r1_g38_h29_t9 - x_r1_g38 <= 0
 lin2_9_1_38: p_r1_g38_h29_t9 - x_r1_g29 <= 0
 lin3_9_1_38: p_r1_g38_h29_t9 - x_r1_g38 - x_r1_g29 >= -1
 lin1_9_1_62: p_r1_g62_h53_t9 - x_r1_g62 <= 0
 lin2_9_1_62: p_r1_g62_h53_t9 - x_r1_g53 <= 0
 lin3_9_1_62: p_r1_g62_h53_t9 - x_r1_g62 - x_r1_g53 >= -1
 lin1_9_1_74: p_r1_g74_h65_t9 - x_r1_g74 <= 0
 lin2_9_1_74: p_r1_g74_h65_t9 - x_r1_g65 <= 0
 lin3_9_1_74: p_r1_g74_h65_t9 - x_r1_g74 - x_r1_g65 >= -1
 lin1_9_1_157: p_r1_g157_h148_t9 - x_r1_g157 <= 0
 lin2_9_1_157: p_r1_g157_h148_t9 - x_r1_g148 <= 0
 lin3_9_1_157: p_r1_g157_h148_t9 - x_r1_g157 - x_r1_g148 >= -1
 lin1_9_2_4: p_r2_g4_h162_t9 - x_r2_g4 <= 0
 lin2_9_2_4: p_r2_g4_h162_t9 - x_r2_g162 <= 0
 lin3_9_2_4: p_r2_g4_h162_t9 - x_r2_g4 - x_r2_g162 >= -1
 lin1_9_2_9: p_r2_g9_h0_t9 - x_r2_g9 <= 0
 lin2_9_2_9: p_r2_g9_h0_t9 - x_r2_g0 <= 0
 lin3_9_2_9: p_r2_g9_h0_t9 - x_r2_g9 - x_r2_g0 >= -1
 lin1_9_2_15: p_r2_g15_h6_t9 - x_r2_g15 <= 0
 lin2_9_2_15: p_r2_g15_h6_t9 - x_r2_g6 <= 0
 lin3_9_2_15: p_r2_g15_h6_t9 - x_r2_g15 - x_r2_g6 >= -1
 lin1_9_2_40: p_r2_g40_h31_t9 - x_r2_g40 <= 0
 lin2_9_2_40: p_r2_g40_h31_t9 - x_r2_g31 <= 0
 lin3_9_2_40: p_r2_g40_h31_t9 - x_r2_g40 - x_r2_g31 >= -1
 lin1_9_2_44: p_r2_g44_h35_t9 - x_r2_g44 <= 0
 lin2_9_2_44: p_r2_g44_h35_t9 - x_r2_g35 <= 0
 lin3_9_2_44: p_r2_g44_h35_t9 - x_r2_g44 - x_r2_g35 >= -1
 lin1_9_2_75: p_r2_g75_h66_t9 - x_r2_g75 <= 0
 lin2_9_2_75: p_r2_g75_h66_t9 - x_r2_g66 <= 0
 lin3_9_2_75: p_r2_g75_h66_t9 - x_r2_g75 - x_r2_g66 >= -1
 lin1_9_2_110: p_r2_g110_h101_t9 - x_r2_g110 <= 0
 lin2_9_2_110: p_r2_g110_h101_t9 - x_r2_g101 <= 0
 lin3_9_2_110: p_r2_g110_h101_t9 - x_r2_g110 - x_r2_g101 >= -1
 lin1_9_2_119: p_r2_g119_h110_t9 - x_r2_g119 <= 0
 lin2_9_2_119: p_r2_g119_h110_t9 - x_r2_g110 <= 0
 lin3_9_2_119: p_r2_g119_h110_t9 - x_r2_g119 - x_r2_g110 >= -1
 lin1_9_2_139: p_r2_g139_h130_t9 - x_r2_g139 <= 0
 lin2_9_2_139: p_r2_g139_h130_t9 - x_r2_g130 <= 0
 lin3_9_2_139: p_r2_g139_h130_t9 - x_r2_g139 - x_r2_g130 >= -1
 lin1_9_3_8: p_r3_g8_h166_t9 - x_r3_g8 <= 0
 lin2_9_3_8: p_r3_g8_h166_t9 - x_r3_g166 <= 0
 lin3_9_3_8: p_r3_g8_h166_t9 - x_r3_g8 - x_r3_g166 >= -1
 lin1_9_3_31: p_r3_g31_h22_t9 - x_r3_g31 <= 0
 lin2_9_3_31: p_r3_g31_h22_t9 - x_r3_g22 <= 0
 lin3_9_3_31: p_r3_g31_h22_t9 - x_r3_g31 - x_r3_g22 >= -1
 lin1_9_3_51: p_r3_g51_h42_t9 - x_r3_g51 <= 0
 lin2_9_3_51: p_r3_g51_h42_t9 - x_r3_g42 <= 0
 lin3_9_3_51: p_r3_g51_h42_t9 - x_r3_g51 - x_r3_g42 >= -1
 lin1_9_3_58: p_r3_g58_h49_t9 - x_r3_g58 <= 0
 lin2_9_3_58: p_r3_g58_h49_t9 - x_r3_g49 <= 0
 lin3_9_3_58: p_r3_g58_h49_t9 - x_r3_g58 - x_r3_g49 >= -1
 lin1_9_3_60: p_r3_g60_h51_t9 - x_r3_g60 <= 0
 lin2_9_3_60: p_r3_g60_h51_t9 - x_r3_g51 <= 0
 lin3_9_3_60: p_r3_g60_h51_t9 - x_r3_g60 - x_r3_g51 >= -1
 lin1_9_3_139: p_r3_g139_h130_t9 - x_r3_g139 <= 0
 lin2_9_3_139: p_r3_g139_h130_t9 - x_r3_g130 <= 0
 lin3_9_3_139: p_r3_g139_h130_t9 - x_r3_g139 - x_r3_g130 >= -1
 defect_9: 1 d_9 - 1 x_r0_g0 - 1 x_r0_g4 - 1 x_r0_g12 - 1 x_r0_g15 - 1 x_r0_g38 - 1 x_r0_g40 - 1 x_r0_g43 - 2 x_r0_g45 - 1 x_r0_g50 - 1 x_r0_g53 - 1 x_r0_g56 - 1 x_r0_g60 - 1 x_r0_g91 - 1 x_r0_g114 - 2 x_r0_g122 - 1 x_r0_g134 - 1 x_r0_g135 - 1 x_r0_g136 - 2 x_r0_g146 - 1 x_r0_g149 - 1 x_r0_g152 - 1 x_r0_g160 - 1 x_r1_g8 - 1 x_r1_g9 - 1 x_r1_g29 - 1 x_r1_g34 - 1 x_r1_g37 - 2 x_r1_g48 - 1 x_r1_g53 - 1 x_r1_g65 - 1 x_r1_g66 - 1 x_r1_g69 - 1 x_r1_g72 - 1 x_r1_g77 - 2 x_r1_g87 - 1 x_r1_g109 - 1 x_r1_g114 - 1 x_r1_g141 - 1 x_r1_g145 - 1 x_r1_g149 - 2 x_r1_g155 - 1 x_r1_g157 - 1 x_r1_g159 - 1 x_r2_g0 - 1 x_r2_g2 - 1 x_r2_g9 - 1 x_r2_g21 - 1 x_r2_g27 - 1 x_r2_g32 - 2 x_r2_g34 - 1 x_r2_g35 - 1 x_r2_g40 - 1 x_r2_g42 - 1 x_r2_g50 - 1 x_r2_g58 - 1 x_r2_g70 - 2 x_r2_g73 - 1 x_r2_g83 - 1 x_r2_g85 - 1 x_r2_g105 - 1 x_r2_g106 - 1 x_r2_g112 - 1 x_r2_g118 - 1 x_r2_g119 - 1 x_r2_g130 - 1 x_r2_g137 - 1 x_r2_g139 - 1 x_r2_g145 - 1 x_r2_g161 - 1 x_r2_g162 - 1 x_r3_g2 - 2 x_r3_g4 - 1 x_r3_g5 - 1 x_r3_g8 - 1 x_r3_g9 - 2 x_r3_g21 - 1 x_r3_g22 - 1 x_r3_g23 - 1 x_r3_g26 - 1 x_r3_g31 - 2 x_r3_g36 - 1 x_r3_g39 - 2 x_r3_g46 - 1 x_r3_g49 - 1 x_r3_g57 - 1 x_r3_g59 - 1 x_r3_g65 - 1 x_r3_g83 - 1 x_r3_g87 - 1 x_r3_g132 - 2 x_r3_g137 - 1 x_r3_g139 - 1 x_r3_g145 - 2 x_r3_g151 - 1 p_r0_g20_h11_t9 - 1 p_r0_g34_h25_t9 - 1 p_r0_g43_h34_t9 - 1 p_r0_g53_h44_t9 - 1 p_r0_g65_h56_t9 - 1 p_r0_g74_h65_t9 - 1 p_r0_g83_h74_t9 - 1 p_r0_g144_h135_t9 - 1 p_r1_g4_h162_t9 - 1 p_r1_g38_h29_t9 - 1 p_r1_g62_h53_t9 - 1 p_r1_g74_h65_t9 - 1 p_r1_g157_h148_t9 - 1 p_r2_g4_h162_t9 - 1 p_r2_g9_h0_t9 - 1 p_r2_g15_h6_t9 - 1 p_r2_g40_h31_t9 - 1 p_r2_g44_h35_t9 - 1 p_r2_g75_h66_t9 - 1 p_r2_g110_h101_t9 - 1 p_r2_g119_h110_t9 - 1 p_r2_g139_h130_t9 - 1 p_r3_g8_h166_t9 - 1 p_r3_g31_h22_t9 - 1 p_r3_g51_h42_t9 - 1 p_r3_g58_h49_t9 - 1 p_r3_g60_h51_t9 - 1 p_r3_g139_h130_t9 = -79
 abs_pos_9: d_9 - u_9 <= 0
 abs_neg_9: - d_9 - u_9 <= 0
 max_def_9: u_9 - M <= 0
 cap_9: u_9 <= 1
 lin1_12_0_12: p_r0_g12_h0_t12 - x_r0_g12 <= 0
 lin2_12_0_12: p_r0_g12_h0_t12 - x_r0_g0 <= 0
 lin3_12_0_12: p_r0_g12_h0_t12 - x_r0_g12 - x_r0_g0 >= -1
 lin1_12_0_38: p_r0_g38_h26_t12 - x_r0_g38 <= 0
 lin2_12_0_38: p_r0_g38_h26_t12 - x_r0_g26 <= 0
 lin3_12_0_38: p_r0_g38_h26_t12 - x_r0_g38 - x_r0_g26 >= -1
 lin1_12_0_50: p_r0_g50_h38_t12 - x_r0_g50 <= 0
 lin2_12_0_50: p_r0_g50_h38_t12 - x_r0_g38 <= 0
 lin3_12_0_50: p_r0_g50_h38_t12 - x_r0_g50 - x_r0_g38 >= -1
 lin1_12_0_56: p_r0_g56_h44_t12 - x_r0_g56 <= 0
 lin2_12_0_56: p_r0_g56_h44_t12 - x_r0_g44 <= 0
 lin3_12_0_56: p_r0_g56_h44_t12 - x_r0_g56 - x_r0_g44 >= -1
 lin1_12_0_65: p_r0_g65_h53_t12 - x_r0_g65 <= 0
 lin2_12_0_65: p_r0_g65_h53_t12 - x_r0_g53 <= 0
 lin3_12_0_65: p_r0_g65_h53_t12 - x_r0_g65 - x_r0_g53 >= -1
 lin1_12_0_78: p_r0_g78_h66_t12 - x_r0_g78 <= 0
 lin2_12_0_78: p_r0_g78_h66_t12 - x_r0_g66 <= 0
 lin3_12_0_78: p_r0_g78_h66_t12 - x_r0_g78 - x_r0_g66 >= -1
 lin1_12_0_134: p_r0_g134_h122_t12 - x_r0_g134 <= 0
 lin2_12_0_134: p_r0_g134_h122_t12 - x_r0_g122 <= 0
 lin3_12_0_134: p_r0_g134_h122_t12 - x_r0_g134 - x_r0_g122 >= -1
 lin1_12_0_136: p_r0_g136_h124_t12 - x_r0_g136 <= 0
 lin2_12_0_136: p_r0_g136_h124_t12 - x_r0_g124 <= 0
 lin3_12_0_136: p_r0_g136_h124_t12 - x_r0_g136 - x_r0_g124 >= -1
 lin1_12_0_146: p_r0_g146_h134_t12 - x_r0_g146 <= 0
 lin2_12_0_146: p_r0_g146_h134_t12 - x_r0_g134 <= 0
 lin3_12_0_146: p_r0_g146_h134_t12 - x_r0_g146 - x_r0_g134 >= -1
 lin1_12_1_4: p_r1_g4_h159_t12 - x_r1_g4 <= 0
 lin2_12_1_4: p_r1_g4_h159_t12 - x_r1_g159 <= 0
 lin3_12_1_4: p_r1_g4_h159_t12 - x_r1_g4 - x_r1_g159 >= -1
 lin1_12_1_7: p_r1_g7_h162_t12 - x_r1_g7 <= 0
 lin2_12_1_7: p_r1_g7_h162_t12 - x_r1_g162 <= 0
 lin3_12_1_7: p_r1_g7_h162_t12 - x_r1_g7 - x_r1_g162 >= -1
 lin1_12_1_38: p_r1_g38_h26_t12 - x_r1_g38 <= 0
 lin2_12_1_38: p_r1_g38_h26_t12 - x_r1_g26 <= 0
 lin3_12_1_38: p_r1_g38_h26_t12 - x_r1_g38 - x_r1_g26 >= -1
 lin1_12_1_50: p_r1_g50_h38_t12 - x_r1_g50 <= 0
 lin2_12_1_50: p_r1_g50_h38_t12 - x_r1_g38 <= 0
 lin3_12_1_50: p_r1_g50_h38_t12 - x_r1_g50 - x_r1_g38 >= -1
 lin1_12_1_62: p_r1_g62_h50_t12 - x_r1_g62 <= 0
 lin2_12_1_62: p_r1_g62_h50_t12 - x_r1_g50 <= 0
 lin3_12_1_62: p_r1_g62_h50_t12 - x_r1_g62 - x_r1_g50 >= -1
 lin1_12_1_65: p_r1_g65_h53_t12 - x_r1_g65 <= 0
 lin2_12_1_65: p_r1_g65_h53_t12 - x_r1_g53 <= 0
 lin3_12_1_65: p_r1_g65_h53_t12 - x_r1_g65 - x_r1_g53 >= -1
 lin1_12_1_74: p_r1_g74_h62_t12 - x_r1_g74 <= 0
 lin2_12_1_74: p_r1_g74_h62_t12 - x_r1_g62 <= 0
 lin3_12_1_74: p_r1_g74_h62_t12 - x_r1_g74 - x_r1_g62 >= -1
 lin1_12_1_77: p_r1_g77_h65_t12 - x_r1_g77 <= 0
 lin2_12_1_77: p_r1_g77_h65_t12 - x_r1_g65 <= 0
 lin3_12_1_77: p_r1_g77_h65_t12 - x_r1_g77 - x_r1_g65 >= -1
 lin1_12_1_114: p_r1_g114_h102_t12 - x_r1_g114 <= 0
 lin2_12_1_114: p_r1_g114_h102_t12 - x_r1_g102 <= 0
 lin3_12_1_114: p_r1_g114_h102_t12 - x_r1_g114 - x_r1_g102 >= -1
 lin1_12_1_126: p_r1_g126_h114_t12 - x_r1_g126 <= 0
 lin2_12_1_126: p_r1_g126_h114_t12 - x_r1_g114 <= 0
 lin3_12_1_126: p_r1_g126_h114_t12 - x_r1_g126 - x_r1_g114 >= -1
 lin1_12_1_157: p_r1_g157_h145_t12 - x_r1_g157 <= 0
 lin2_12_1_157: p_r1_g157_h145_t12 - x_r1_g145 <= 0
 lin3_12_1_157: p_r1_g157_h145_t12 - x_r1_g157 - x_r1_g145 >= -1
 lin1_12_2_6: p_r2_g6_h161_t12 - x_r2_g6 <= 0
 lin2_12_2_6: p_r2_g6_h161_t12 - x_r2_g161 <= 0
 lin3_12_2_6: p_r2_g6_h161_t12 - x_r2_g6 - x_r2_g161 >= -1
 lin1_12_2_21: p_r2_g21_h9_t12 - x_r2_g21 <= 0
 lin2_12_2_21: p_r2_g21_h9_t12 - x_r2_g9 <= 0
 lin3_12_2_21: p_r2_g21_h9_t12 - x_r2_g21 - x_r2_g9 >= -1
 lin1_12_2_27: p_r2_g27_h15_t12 - x_r2_g27 <= 0
 lin2_12_2_27: p_r2_g27_h15_t12 - x_r2_g15 <= 0
 lin3_12_2_27: p_r2_g27_h15_t12 - x_r2_g27 - x_r2_g15 >= -1
 lin1_12_2_44: p_r2_g44_h32_t12 - x_r2_g44 <= 0
 lin2_12_2_44: p_r2_g44_h32_t12 - x_r2_g32 <= 0
 lin3_12_2_44: p_r2_g44_h32_t12 - x_r2_g44 - x_r2_g32 >= -1
 lin1_12_2_50: p_r2_g50_h38_t12 - x_r2_g50 <= 0
 lin2_12_2_50: p_r2_g50_h38_t12 - x_r2_g38 <= 0
 lin3_12_2_50: p_r2_g50_h38_t12 - x_r2_g50 - x_r2_g38 >= -1
 lin1_12_2_70: p_r2_g70_h58_t12 - x_r2_g70 <= 0
 lin2_12_2_70: p_r2_g70_h58_t12 - x_r2_g58 <= 0
 lin3_12_2_70: p_r2_g70_h58_t12 - x_r2_g70 - x_r2_g58 >= -1
 lin1_12_2_85: p_r2_g85_h73_t12 - x_r2_g85 <= 0
 lin2_12_2_85: p_r2_g85_h73_t12 - x_r2_g73 <= 0
 lin3_12_2_85: p_r2_g85_h73_t12 - x_r2_g85 - x_r2_g73 >= -1
 lin1_12_2_118: p_r2_g118_h106_t12 - x_r2_g118 <= 0
 lin2_12_2_118: p_r2_g118_h106_t12 - x_r2_g106 <= 0
 lin3_12_2_118: p_r2_g118_h106_t12 - x_r2_g118 - x_r2_g106 >= -1
 lin1_12_2_130: p_r2_g130_h118_t12 - x_r2_g130 <= 0
 lin2_12_2_130: p_r2_g130_h118_t12 - x_r2_g118 <= 0
 lin3_12_2_130: p_r2_g130_h118_t12 - x_r2_g130 - x_r2_g118 >= -1
 lin1_12_3_21: p_r3_g21_h9_t12 - x_r3_g21 <= 0
 lin2_12_3_21: p_r3_g21_h9_t12 - x_r3_g9 <= 0
 lin3_12_3_21: p_r3_g21_h9_t12 - x_r3_g21 - x_r3_g9 >= -1
 lin1_12_3_36: p_r3_g36_h24_t12 - x_r3_g36 <= 0
 lin2_12_3_36: p_r3_g36_h24_t12 - x_r3_g24 <= 0
 lin3_12_3_36: p_r3_g36_h24_t12 - x_r3_g36 - x_r3_g24 >= -1
 lin1_12_3_51: p_r3_g51_h39_t12 - x_r3_g51 <= 0
 lin2_12_3_51: p_r3_g51_h39_t12 - x_r3_g39 <= 0
 lin3_12_3_51: p_r3_g51_h39_t12 - x_r3_g51 - x_r3_g39 >= -1
 lin1_12_3_58: p_r3_g58_h46_t12 - x_r3_g58 <= 0
 lin2_12_3_58: p_r3_g58_h46_t12 - x_r3_g46 <= 0
 lin3_12_3_58: p_r3_g58_h46_t12 - x_r3_g58 - x_r3_g46 >= -1
 lin1_12_3_63: p_r3_g63_h51_t12 - x_r3_g63 <= 0
 lin2_12_3_63: p_r3_g63_h51_t12 - x_r3_g51 <= 0
 lin3_12_3_63: p_r3_g63_h51_t12 - x_r3_g63 - x_r3_g51 >= -1
 lin1_12_3_100: p_r3_g100_h88_t12 - x_r3_g100 <= 0
 lin2_12_3_100: p_r3_g100_h88_t12 - x_r3_g88 <= 0
 lin3_12_3_100: p_r3_g100_h88_t12 - x_r3_g100 - x_r3_g88 >= -1
 lin1_12_3_151: p_r3_g151_h139_t12 - x_r3_g151 <= 0
 lin2_12_3_151: p_r3_g151_h139_t12 - x_r3_g139 <= 0
 lin3_12_3_151: p_r3_g151_h139_t12 - x_r3_g151 - x_r3_g139 >= -1
 defect_12: 1 d_12 - 1 x_r0_g0 - 1 x_r0_g4 - 1 x_r0_g15 - 1 x_r0_g19 - 2 x_r0_g25 - 1 x_r0_g26 - 1 x_r0_g34 - 1 x_r0_g40 - 1 x_r0_g43 - 1 x_r0_g50 - 1 x_r0_g56 - 1 x_r0_g60 - 1 x_r0_g65 - 1 x_r0_g66 - 1 x_r0_g74 - 1 x_r0_g78 - 1 x_r0_g80 - 1 x_r0_g91 - 1 x_r0_g106 - 1 x_r0_g108 - 2 x_r0_g114 - 1 x_r0_g135 - 1 x_r0_g144 - 1 x_r0_g146 - 1 x_r0_g149 - 1 x_r0_g160 - 2 x_r1_g8 - 1 x_r1_g9 - 2 x_r1_g15 - 1 x_r1_g34 - 2 x_r1_g37 - 1 x_r1_g48 - 1 x_r1_g66 - 2 x_r1_g69 - 1 x_r1_g72 - 2 x_r1_g76 - 1 x_r1_g77 - 1 x_r1_g102 - 2 x_r1_g120 - 1 x_r1_g126 - 1 x_r1_g127 - 2 x_r1_g144 - 1 x_r1_g148 - 2 x_r1_g152 - 2 x_r2_g2 - 1 x_r2_g6 - 2 x_r2_g8 - 1 x_r2_g21 - 1 x_r2_g27 - 1 x_r2_g31 - 1 x_r2_g32 - 1 x_r2_g34 - 1 x_r2_g38 - 1 x_r2_g40 - 1 x_r2_g42 - 1 x_r2_g44 - 1 x_r2_g58 - 1 x_r2_g66 - 1 x_r2_g70 - 1 x_r2_g73 - 1 x_r2_g75 - 1 x_r2_g101 - 1 x_r2_g106 - 1 x_r2_g108 - 2 x_r2_g110 - 2 x_r2_g139 - 1 x_r2_g145 - 2 x_r2_g162 - 2 x_r3_g5 - 2 x_r3_g7 - 2 x_r3_g8 - 1 x_r3_g24 - 2 x_r3_g25 - 1 x_r3_g26 - 2 x_r3_g31 - 1 x_r3_g39 - 1 x_r3_g42 - 2 x_r3_g49 - 1 x_r3_g57 - 1 x_r3_g59 - 1 x_r3_g63 - 1 x_r3_g65 - 1 x_r3_g73 - 2 x_r3_g87 - 1 x_r3_g88 - 1 x_r3_g100 - 1 x_r3_g126 - 2 x_r3_g130 - 1 x_r3_g132 - 1 x_r3_g137 - 1 x_r3_g139 - 1 x_r3_g151 - 2 x_r3_g161 - 1 x_r3_g166 - 1 p_r0_g12_h0_t12 - 1 p_r0_g38_h26_t12 - 1 p_r0_g50_h38_t12 - 1 p_r0_g56_h44_t12 - 1 p_r0_g65_h53_t12 - 1 p_r0_g78_h66_t12 - 1 p_r0_g134_h122_t12 - 1 p_r0_g136_h124_t12 - 1 p_r0_g146_h134_t12 - 1 p_r1_g4_h159_t12 - 1 p_r1_g7_h162_t12 - 1 p_r1_g38_h26_t12 - 1 p_r1_g50_h38_t12 - 1 p_r1_g62_h50_t12 - 1 p_r1_g65_h53_t12 - 1 p_r1_g74_h62_t12 - 1 p_r1_g77_h65_t12 - 1 p_r1_g114_h102_t12 - 1 p_r1_g126_h114_t12 - 1 p_r1_g157_h145_t12 - 1 p_r2_g6_h161_t12 - 1 p_r2_g21_h9_t12 - 1 p_r2_g27_h15_t12 - 1 p_r2_g44_h32_t12 - 1 p_r2_g50_h38_t12 - 1 p_r2_g70_h58_t12 - 1 p_r2_g85_h73_t12 - 1 p_r2_g118_h106_t12 - 1 p_r2_g130_h118_t12 - 1 p_r3_g21_h9_t12 - 1 p_r3_g36_h24_t12 - 1 p_r3_g51_h39_t12 - 1 p_r3_g58_h46_t12 - 1 p_r3_g63_h51_t12 - 1 p_r3_g100_h88_t12 - 1 p_r3_g151_h139_t12 = -50
 abs_pos_12: d_12 - u_12 <= 0
 abs_neg_12: - d_12 - u_12 <= 0
 max_def_12: u_12 - M <= 0
 cap_12: u_12 <= 1
 lin1_21_0_0: p_r0_g0_h146_t21 - x_r0_g0 <= 0
 lin2_21_0_0: p_r0_g0_h146_t21 - x_r0_g146 <= 0
 lin3_21_0_0: p_r0_g0_h146_t21 - x_r0_g0 - x_r0_g146 >= -1
 lin1_21_0_25: p_r0_g25_h4_t21 - x_r0_g25 <= 0
 lin2_21_0_25: p_r0_g25_h4_t21 - x_r0_g4 <= 0
 lin3_21_0_25: p_r0_g25_h4_t21 - x_r0_g25 - x_r0_g4 >= -1
 lin1_21_0_40: p_r0_g40_h19_t21 - x_r0_g40 <= 0
 lin2_21_0_40: p_r0_g40_h19_t21 - x_r0_g19 <= 0
 lin3_21_0_40: p_r0_g40_h19_t21 - x_r0_g40 - x_r0_g19 >= -1
 lin1_21_0_65: p_r0_g65_h44_t21 - x_r0_g65 <= 0
 lin2_21_0_65: p_r0_g65_h44_t21 - x_r0_g44 <= 0
 lin3_21_0_65: p_r0_g65_h44_t21 - x_r0_g65 - x_r0_g44 >= -1
 lin1_21_0_66: p_r0_g66_h45_t21 - x_r0_g66 <= 0
 lin2_21_0_66: p_r0_g66_h45_t21 - x_r0_g45 <= 0
 lin3_21_0_66: p_r0_g66_h45_t21 - x_r0_g66 - x_r0_g45 >= -1
 lin1_21_0_74: p_r0_g74_h53_t21 - x_r0_g74 <= 0
 lin2_21_0_74: p_r0_g74_h53_t21 - x_r0_g53 <= 0
 lin3_21_0_74: p_r0_g74_h53_t21 - x_r0_g74 - x_r0_g53 >= -1
 lin1_21_0_135: p_r0_g135_h114_t21 - x_r0_g135 <= 0
 lin2_21_0_135: p_r0_g135_h114_t21 - x_r0_g114 <= 0
 lin3_21_0_135: p_r0_g135_h114_t21 - x_r0_g135 - x_r0_g114 >= -1
 lin1_21_1_9: p_r1_g9_h155_t21 - x_r1_g9 <= 0
 lin2_21_1_9: p_r1_g9_h155_t21 - x_r1_g155 <= 0
 lin3_21_1_9: p_r1_g9_h155_t21 - x_r1_g9 - x_r1_g155 >= -1
 lin1_21_1_29: p_r1_g29_h8_t21 - x_r1_g29 <= 0
 lin2_21_1_29: p_r1_g29_h8_t21 - x_r1_g8 <= 0
 lin3_21_1_29: p_r1_g29_h8_t21 - x_r1_g29 - x_r1_g8 >= -1
 lin1_21_1_50: p_r1_g50_h29_t21 - x_r1_g50 <= 0
 lin2_21_1_50: p_r1_g50_h29_t21 - x_r1_g29 <= 0
 lin3_21_1_50: p_r1_g50_h29_t21 - x_r1_g50 - x_r1_g29 >= -1
 lin1_21_1_69: p_r1_g69_h48_t21 - x_r1_g69 <= 0
 lin2_21_1_69: p_r1_g69_h48_t21 - x_r1_g48 <= 0
 lin3_21_1_69: p_r1_g69_h48_t21 - x_r1_g69 - x_r1_g48 >= -1
 lin1_21_1_74: p_r1_g74_h53_t21 - x_r1_g74 <= 0
 lin2_21_1_74: p_r1_g74_h53_t21 - x_r1_g53 <= 0
 lin3_21_1_74: p_r1_g74_h53_t21 - x_r1_g74 - x_r1_g53 >= -1
 lin1_21_1_87: p_r1_g87_h66_t21 - x_r1_g87 <= 0
 lin2_21_1_87: p_r1_g87_h66_t21 - x_r1_g66 <= 0
 lin3_21_1_87: p_r1_g87_h66_t21 - x_r1_g87 - x_r1_g66 >= -1
 lin1_21_1_130: p_r1_g130_h109_t21 - x_r1_g130 <= 0
 lin2_21_1_130: p_r1_g130_h109_t21 - x_r1_g109 <= 0
 lin3_21_1_130: p_r1_g130_h109_t21 - x_r1_g130 - x_r1_g109 >= -1
 lin1_21_1_141: p_r1_g141_h120_t21 - x_r1_g141 <= 0
 lin2_21_1_141: p_r1_g141_h120_t21 - x_r1_g120 <= 0
 lin3_21_1_141: p_r1_g141_h120_t21 - x_r1_g141 - x_r1_g120 >= -1
 lin1_21_1_148: p_r1_g148_h127_t21 - x_r1_g148 <= 0
 lin2_21_1_148: p_r1_g148_h127_t21 - x_r1_g127 <= 0
 lin3_21_1_148: p_r1_g148_h127_t21 - x_r1_g148 - x_r1_g127 >= -1
 lin1_21_1_162: p_r1_g162_h141_t21 - x_r1_g162 <= 0
 lin2_21_1_162: p_r1_g162_h141_t21 - x_r1_g141 <= 0
 lin3_21_1_162: p_r1_g162_h141_t21 - x_r1_g162 - x_r1_g141 >= -1
 lin1_21_2_15: p_r2_g15_h161_t21 - x_r2_g15 <= 0
 lin2_21_2_15: p_r2_g15_h161_t21 - x_r2_g161 <= 0
 lin3_21_2_15: p_r2_g15_h161_t21 - x_r2_g15 - x_r2_g161 >= -1
 lin1_21_2_21: p_r2_g21_h0_t21 - x_r2_g21 <= 0
 lin2_21_2_21: p_r2_g21_h0_t21 - x_r2_g0 <= 0
 lin3_21_2_21: p_r2_g21_h0_t21 - x_r2_g21 - x_r2_g0 >= -1
 lin1_21_2_27: p_r2_g27_h6_t21 - x_r2_g27 <= 0
 lin2_21_2_27: p_r2_g27_h6_t21 - x_r2_g6 <= 0
 lin3_21_2_27: p_r2_g27_h6_t21 - x_r2_g27 - x_r2_g6 >= -1
 lin1_21_2_42: p_r2_g42_h21_t21 - x_r2_g42 <= 0
 lin2_21_2_42: p_r2_g42_h21_t21 - x_r2_g21 <= 0
 lin3_21_2_42: p_r2_g42_h21_t21 - x_r2_g42 - x_r2_g21 >= -1
 lin1_21_2_106: p_r2_g106_h85_t21 - x_r2_g106 <= 0
 lin2_21_2_106: p_r2_g106_h85_t21 - x_r2_g85 <= 0
 lin3_21_2_106: p_r2_g106_h85_t21 - x_r2_g106 - x_r2_g85 >= -1
 lin1_21_2_139: p_r2_g139_h118_t21 - x_r2_g139 <= 0
 lin2_21_2_139: p_r2_g139_h118_t21 - x_r2_g118 <= 0
 lin3_21_2_139: p_r2_g139_h118_t21 - x_r2_g139 - x_r2_g118 >= -1
 lin1_21_3_5: p_r3_g5_h151_t21 - x_r3_g5 <= 0
 lin2_21_3_5: p_r3_g5_h151_t21 - x_r3_g151 <= 0
 lin3_21_3_5: p_r3_g5_h151_t21 - x_r3_g5 - x_r3_g151 >= -1
 lin1_21_3_23: p_r3_g23_h2_t21 - x_r3_g23 <= 0
 lin2_21_3_23: p_r3_g23_h2_t21 - x_r3_g2 <= 0
 lin3_21_3_23: p_r3_g23_h2_t21 - x_r3_g23 - x_r3_g2 >= -1
 lin1_21_3_25: p_r3_g25_h4_t21 - x_r3_g25 <= 0
 lin2_21_3_25: p_r3_g25_h4_t21 - x_r3_g4 <= 0
 lin3_21_3_25: p_r3_g25_h4_t21 - x_r3_g25 - x_r3_g4 >= -1
 lin1_21_3_26: p_r3_g26_h5_t21 - x_r3_g26 <= 0
 lin2_21_3_26: p_r3_g26_h5_t21 - x_r3_g5 <= 0
 lin3_21_3_26: p_r3_g26_h5_t21 - x_r3_g26 - x_r3_g5 >= -1
 lin1_21_3_42: p_r3_g42_h21_t21 - x_r3_g42 <= 0
 lin2_21_3_42: p_r3_g42_h21_t21 - x_r3_g21 <= 0
 lin3_21_3_42: p_r3_g42_h21_t21 - x_r3_g42 - x_r3_g21 >= -1
 lin1_21_3_46: p_r3_g46_h25_t21 - x_r3_g46 <= 0
 lin2_21_3_46: p_r3_g46_h25_t21 - x_r3_g25 <= 0
 lin3_21_3_46: p_r3_g46_h25_t21 - x_r3_g46 - x_r3_g25 >= -1
 lin1_21_3_57: p_r3_g57_h36_t21 - x_r3_g57 <= 0
 lin2_21_3_57: p_r3_g57_h36_t21 - x_r3_g36 <= 0
 lin3_21_3_57: p_r3_g57_h36_t21 - x_r3_g57 - x_r3_g36 >= -1
 lin1_21_3_60: p_r3_g60_h39_t21 - x_r3_g60 <= 0
 lin2_21_3_60: p_r3_g60_h39_t21 - x_r3_g39 <= 0
 lin3_21_3_60: p_r3_g60_h39_t21 - x_r3_g60 - x_r3_g39 >= -1
 lin1_21_3_63: p_r3_g63_h42_t21 - x_r3_g63 <= 0
 lin2_21_3_63: p_r3_g63_h42_t21 - x_r3_g42 <= 0
 lin3_21_3_63: p_r3_g63_h42_t21 - x_r3_g63 - x_r3_g42 >= -1
 lin1_21_3_104: p_r3_g104_h83_t21 - x_r3_g104 <= 0
 lin2_21_3_104: p_r3_g104_h83_t21 - x_r3_g83 <= 0
 lin3_21_3_104: p_r3_g104_h83_t21 - x_r3_g104 - x_r3_g83 >= -1
 lin1_21_3_151: p_r3_g151_h130_t21 - x_r3_g151 <= 0
 lin2_21_3_151: p_r3_g151_h130_t21 - x_r3_g130 <= 0
 lin3_21_3_151: p_r3_g151_h130_t21 - x_r3_g151 - x_r3_g130 >= -1
 lin1_21_3_166: p_r3_g166_h145_t21 - x_r3_g166 <= 0
 lin2_21_3_166: p_r3_g166_h145_t21 - x_r3_g145 <= 0
 lin3_21_3_166: p_r3_g166_h145_t21 - x_r3_g166 - x_r3_g145 >= -1
 defect_21: 1 d_21 - 1 x_r0_g11 - 1 x_r0_g12 - 1 x_r0_g15 - 1 x_r0_g19 - 1 x_r0_g25 - 2 x_r0_g26 - 2 x_r0_g34 - 1 x_r0_g38 - 1 x_r0_g56 - 2 x_r0_g80 - 1 x_r0_g83 - 1 x_r0_g91 - 1 x_r0_g106 - 2 x_r0_g121 - 2 x_r0_g122 - 1 x_r0_g124 - 2 x_r0_g134 - 1 x_r0_g136 - 2 x_r0_g144 - 1 x_r0_g149 - 2 x_r0_g152 - 2 x_r0_g160 - 1 x_r1_g4 - 1 x_r1_g8 - 1 x_r1_g15 - 1 x_r1_g48 - 1 x_r1_g53 - 1 x_r1_g65 - 1 x_r1_g69 - 1 x_r1_g74 - 2 x_r1_g77 - 1 x_r1_g87 - 2 x_r1_g102 - 1 x_r1_g109 - 1 x_r1_g144 - 2 x_r1_g145 - 2 x_r1_g149 - 1 x_r1_g157 - 1 x_r1_g159 - 1 x_r2_g2 - 2 x_r2_g4 - 1 x_r2_g6 - 1 x_r2_g9 - 1 x_r2_g27 - 2 x_r2_g35 - 1 x_r2_g40 - 1 x_r2_g42 - 1 x_r2_g44 - 1 x_r2_g66 - 1 x_r2_g70 - 1 x_r2_g73 - 1 x_r2_g83 - 1 x_r2_g85 - 2 x_r2_g101 - 1 x_r2_g105 - 1 x_r2_g106 - 1 x_r2_g108 - 2 x_r2_g119 - 1 x_r2_g130 - 2 x_r2_g137 - 1 x_r2_g139 - 1 x_r2_g161 - 1 x_r2_g162 - 1 x_r3_g2 - 1 x_r3_g7 - 1 x_r3_g8 - 1 x_r3_g9 - 2 x_r3_g22 - 1 x_r3_g24 - 1 x_r3_g26 - 1 x_r3_g39 - 1 x_r3_g49 - 1 x_r3_g51 - 1 x_r3_g57 - 1 x_r3_g58 - 2 x_r3_g59 - 1 x_r3_g60 - 1 x_r3_g65 - 1 x_r3_g73 - 1 x_r3_g83 - 2 x_r3_g87 - 1 x_r3_g132 - 2 x_r3_g139 - 1 x_r3_g145 - 1 x_r3_g161 - 1 x_r3_g166 - 1 p_r0_g0_h146_t21 - 1 p_r0_g25_h4_t21 - 1 p_r0_g40_h19_t21 - 1 p_r0_g65_h44_t21 - 1 p_r0_g66_h45_t21 - 1 p_r0_g74_h53_t21 - 1 p_r0_g135_h114_t21 - 1 p_r1_g9_h155_t21 - 1 p_r1_g29_h8_t21 - 1 p_r1_g50_h29_t21 - 1 p_r1_g69_h48_t21 - 1 p_r1_g74_h53_t21 - 1 p_r1_g87_h66_t21 - 1 p_r1_g130_h109_t21 - 1 p_r1_g141_h120_t21 - 1 p_r1_g148_h127_t21 - 1 p_r1_g162_h141_t21 - 1 p_r2_g15_h161_t21 - 1 p_r2_g21_h0_t21 - 1 p_r2_g27_h6_t21 - 1 p_r2_g42_h21_t21 - 1 p_r2_g106_h85_t21 - 1 p_r2_g139_h118_t21 - 1 p_r3_g5_h151_t21 - 1 p_r3_g23_h2_t21 - 1 p_r3_g25_h4_t21 - 1 p_r3_g26_h5_t21 - 1 p_r3_g42_h21_t21 - 1 p_r3_g46_h25_t21 - 1 p_r3_g57_h36_t21 - 1 p_r3_g60_h39_t21 - 1 p_r3_g63_h42_t21 - 1 p_r3_g104_h83_t21 - 1 p_r3_g151_h130_t21 - 1 p_r3_g166_h145_t21 = -64
 abs_pos_21: d_21 - u_21 <= 0
 abs_neg_21: - d_21 - u_21 <= 0
 max_def_21: u_21 - M <= 0
 cap_21: u_21 <= 0
 lin1_27_0_4: p_r0_g4_h144_t27 - x_r0_g4 <= 0
 lin2_27_0_4: p_r0_g4_h144_t27 - x_r0_g144 <= 0
 lin3_27_0_4: p_r0_g4_h144_t27 - x_r0_g4 - x_r0_g144 >= -1
 lin1_27_0_12: p_r0_g12_h152_t27 - x_r0_g12 <= 0
 lin2_27_0_12: p_r0_g12_h152_t27 - x_r0_g152 <= 0
 lin3_27_0_12: p_r0_g12_h152_t27 - x_r0_g12 - x_r0_g152 >= -1
 lin1_27_0_20: p_r0_g20_h160_t27 - x_r0_g20 <= 0
 lin2_27_0_20: p_r0_g20_h160_t27 - x_r0_g160 <= 0
 lin3_27_0_20: p_r0_g20_h160_t27 - x_r0_g20 - x_r0_g160 >= -1
 lin1_27_0_38: p_r0_g38_h11_t27 - x_r0_g38 <= 0
 lin2_27_0_38: p_r0_g38_h11_t27 - x_r0_g11 <= 0
 lin3_27_0_38: p_r0_g38_h11_t27 - x_r0_g38 - x_r0_g11 >= -1
 lin1_27_0_53: p_r0_g53_h26_t27 - x_r0_g53 <= 0
 lin2_27_0_53: p_r0_g53_h26_t27 - x_r0_g26 <= 0
 lin3_27_0_53: p_r0_g53_h26_t27 - x_r0_g53 - x_r0_g26 >= -1
 lin1_27_0_65: p_r0_g65_h38_t27 - x_r0_g65 <= 0
 lin2_27_0_65: p_r0_g65_h38_t27 - x_r0_g38 <= 0
 lin3_27_0_65: p_r0_g65_h38_t27 - x_r0_g65 - x_r0_g38 >= -1
 lin1_27_0_80: p_r0_g80_h53_t27 - x_r0_g80 <= 0
 lin2_27_0_80: p_r0_g80_h53_t27 - x_r0_g53 <= 0
 lin3_27_0_80: p_r0_g80_h53_t27 - x_r0_g80 - x_r0_g53 >= -1
 lin1_27_0_83: p_r0_g83_h56_t27 - x_r0_g83 <= 0
 lin2_27_0_83: p_r0_g83_h56_t27 - x_r0_g56 <= 0
 lin3_27_0_83: p_r0_g83_h56_t27 - x_r0_g83 - x_r0_g56 >= -1
 lin1_27_0_135: p_r0_g135_h108_t27 - x_r0_g135 <= 0
 lin2_27_0_135: p_r0_g135_h108_t27 - x_r0_g108 <= 0
 lin3_27_0_135: p_r0_g135_h108_t27 - x_r0_g135 - x_r0_g108 >= -1
 lin1_27_0_149: p_r0_g149_h122_t27 - x_r0_g149 <= 0
 lin2_27_0_149: p_r0_g149_h122_t27 - x_r0_g122 <= 0
 lin3_27_0_149: p_r0_g149_h122_t27 - x_r0_g149 - x_r0_g122 >= -1
 lin1_27_1_4: p_r1_g4_h144_t27 - x_r1_g4 <= 0
 lin2_27_1_4: p_r1_g4_h144_t27 - x_r1_g144 <= 0
 lin3_27_1_4: p_r1_g4_h144_t27 - x_r1_g4 - x_r1_g144 >= -1
 lin1_27_1_8: p_r1_g8_h148_t27 - x_r1_g8 <= 0
 lin2_27_1_8: p_r1_g8_h148_t27 - x_r1_g148 <= 0
 lin3_27_1_8: p_r1_g8_h148_t27 - x_r1_g8 - x_r1_g148 >= -1
 lin1_27_1_9: p_r1_g9_h149_t27 - x_r1_g9 <= 0
 lin2_27_1_9: p_r1_g9_h149_t27 - x_r1_g149 <= 0
 lin3_27_1_9: p_r1_g9_h149_t27 - x_r1_g9 - x_r1_g149 >= -1
 lin1_27_1_15: p_r1_g15_h155_t27 - x_r1_g15 <= 0
 lin2_27_1_15: p_r1_g15_h155_t27 - x_r1_g155 <= 0
 lin3_27_1_15: p_r1_g15_h155_t27 - x_r1_g15 - x_r1_g155 >= -1
 lin1_27_1_34: p_r1_g34_h7_t27 - x_r1_g34 <= 0
 lin2_27_1_34: p_r1_g34_h7_t27 - x_r1_g7 <= 0
 lin3_27_1_34: p_r1_g34_h7_t27 - x_r1_g34 - x_r1_g7 >= -1
 lin1_27_1_42: p_r1_g42_h15_t27 - x_r1_g42 <= 0
 lin2_27_1_42: p_r1_g42_h15_t27 - x_r1_g15 <= 0
 lin3_27_1_42: p_r1_g42_h15_t27 - x_r1_g42 - x_r1_g15 >= -1
 lin1_27_1_53: p_r1_g53_h26_t27 - x_r1_g53 <= 0
 lin2_27_1_53: p_r1_g53_h26_t27 - x_r1_g26 <= 0
 lin3_27_1_53: p_r1_g53_h26_t27 - x_r1_g53 - x_r1_g26 >= -1
 lin1_27_1_65: p_r1_g65_h38_t27 - x_r1_g65 <= 0
 lin2_27_1_65: p_r1_g65_h38_t27 - x_r1_g38 <= 0
 lin3_27_1_65: p_r1_g65_h38_t27 - x_r1_g65 - x_r1_g38 >= -1
 lin1_27_1_69: p_r1_g69_h42_t27 - x_r1_g69 <= 0
 lin2_27_1_69: p_r1_g69_h42_t27 - x_r1_g42 <= 0
 lin3_27_1_69: p_r1_g69_h42_t27 - x_r1_g69 - x_r1_g42 >= -1
 lin1_27_1_77: p_r1_g77_h50_t27 - x_r1_g77 <= 0
 lin2_27_1_77: p_r1_g77_h50_t27 - x_r1_g50 <= 0
 lin3_27_1_77: p_r1_g77_h50_t27 - x_r1_g77 - x_r1_g50 >= -1
 lin1_27_1_114: p_r1_g114_h87_t27 - x_r1_g114 <= 0
 lin2_27_1_114: p_r1_g114_h87_t27 - x_r1_g87 <= 0
 lin3_27_1_114: p_r1_g114_h87_t27 - x_r1_g114 - x_r1_g87 >= -1
 lin1_27_1_141: p_r1_g141_h114_t27 - x_r1_g141 <= 0
 lin2_27_1_141: p_r1_g141_h114_t27 - x_r1_g114 <= 0
 lin3_27_1_141: p_r1_g141_h114_t27 - x_r1_g141 - x_r1_g114 >= -1
 lin1_27_1_157: p_r1_g157_h130_t27 - x_r1_g157 <= 0
 lin2_27_1_157: p_r1_g157_h130_t27 - x_r1_g130 <= 0
 lin3_27_1_157: p_r1_g157_h130_t27 - x_r1_g157 - x_r1_g130 >= -1
 lin1_27_2_21: p_r2_g21_h161_t27 - x_r2_g21 <= 0
 lin2_27_2_21: p_r2_g21_h161_t27 - x_r2_g161 <= 0
 lin3_27_2_21: p_r2_g21_h161_t27 - x_r2_g21 - x_r2_g161 >= -1
 lin1_27_2_27: p_r2_g27_h0_t27 - x_r2_g27 <= 0
 lin2_27_2_27: p_r2_g27_h0_t27 - x_r2_g0 <= 0
 lin3_27_2_27: p_r2_g27_h0_t27 - x_r2_g27 - x_r2_g0 >= -1
 lin1_27_2_31: p_r2_g31_h4_t27 - x_r2_g31 <= 0
 lin2_27_2_31: p_r2_g31_h4_t27 - x_r2_g4 <= 0
 lin3_27_2_31: p_r2_g31_h4_t27 - x_r2_g31 - x_r2_g4 >= -1
 lin1_27_2_35: p_r2_g35_h8_t27 - x_r2_g35 <= 0
 lin2_27_2_35: p_r2_g35_h8_t27 - x_r2_g8 <= 0
 lin3_27_2_35: p_r2_g35_h8_t27 - x_r2_g35 - x_r2_g8 >= -1
 lin1_27_2_42: p_r2_g42_h15_t27 - x_r2_g42 <= 0
 lin2_27_2_42: p_r2_g42_h15_t27 - x_r2_g15 <= 0
 lin3_27_2_42: p_r2_g42_h15_t27 - x_r2_g42 - x_r2_g15 >= -1
 lin1_27_2_58: p_r2_g58_h31_t27 - x_r2_g58 <= 0
 lin2_27_2_58: p_r2_g58_h31_t27 - x_r2_g31 <= 0
 lin3_27_2_58: p_r2_g58_h31_t27 - x_r2_g58 - x_r2_g31 >= -1
 lin1_27_2_85: p_r2_g85_h58_t27 - x_r2_g85 <= 0
 lin2_27_2_85: p_r2_g85_h58_t27 - x_r2_g58 <= 0
 lin3_27_2_85: p_r2_g85_h58_t27 - x_r2_g85 - x_r2_g58 >= -1
 lin1_27_2_110: p_r2_g110_h83_t27 - x_r2_g110 <= 0
 lin2_27_2_110: p_r2_g110_h83_t27 - x_r2_g83 <= 0
 lin3_27_2_110: p_r2_g110_h83_t27 - x_r2_g110 - x_r2_g83 >= -1
 lin1_27_2_112: p_r2_g112_h85_t27 - x_r2_g112 <= 0
 lin2_27_2_112: p_r2_g112_h85_t27 - x_r2_g85 <= 0
 lin3_27_2_112: p_r2_g112_h85_t27 - x_r2_g112 - x_r2_g85 >= -1
 lin1_27_2_137: p_r2_g137_h110_t27 - x_r2_g137 <= 0
 lin2_27_2_137: p_r2_g137_h110_t27 - x_r2_g110 <= 0
 lin3_27_2_137: p_r2_g137_h110_t27 - x_r2_g137 - x_r2_g110 >= -1
 lin1_27_2_139: p_r2_g139_h112_t27 - x_r2_g139 <= 0
 lin2_27_2_139: p_r2_g139_h112_t27 - x_r2_g112 <= 0
 lin3_27_2_139: p_r2_g139_h112_t27 - x_r2_g139 - x_r2_g112 >= -1
 lin1_27_2_145: p_r2_g145_h118_t27 - x_r2_g145 <= 0
 lin2_27_2_145: p_r2_g145_h118_t27 - x_r2_g118 <= 0
 lin3_27_2_145: p_r2_g145_h118_t27 - x_r2_g145 - x_r2_g118 >= -1
 lin1_27_3_5: p_r3_g5_h145_t27 - x_r3_g5 <= 0
 lin2_27_3_5: p_r3_g5_h145_t27 - x_r3_g145 <= 0
 lin3_27_3_5: p_r3_g5_h145_t27 - x_r3_g5 - x_r3_g145 >= -1
 lin1_27_3_21: p_r3_g21_h161_t27 - x_r3_g21 <= 0
 lin2_27_3_21: p_r3_g21_h161_t27 - x_r3_g161 <= 0
 lin3_27_3_21: p_r3_g21_h161_t27 - x_r3_g21 - x_r3_g161 >= -1
 lin1_27_3_26: p_r3_g26_h166_t27 - x_r3_g26 <= 0
 lin2_27_3_26: p_r3_g26_h166_t27 - x_r3_g166 <= 0
 lin3_27_3_26: p_r3_g26_h166_t27 - x_r3_g26 - x_r3_g166 >= -1
 lin1_27_3_31: p_r3_g31_h4_t27 - x_r3_g31 <= 0
 lin2_27_3_31: p_r3_g31_h4_t27 - x_r3_g4 <= 0
 lin3_27_3_31: p_r3_g31_h4_t27 - x_r3_g31 - x_r3_g4 >= -1
 lin1_27_3_36: p_r3_g36_h9_t27 - x_r3_g36 <= 0
 lin2_27_3_36: p_r3_g36_h9_t27 - x_r3_g9 <= 0
 lin3_27_3_36: p_r3_g36_h9_t27 - x_r3_g36 - x_r3_g9 >= -1
 lin1_27_3_49: p_r3_g49_h22_t27 - x_r3_g49 <= 0
 lin2_27_3_49: p_r3_g49_h22_t27 - x_r3_g22 <= 0
 lin3_27_3_49: p_r3_g49_h22_t27 - x_r3_g49 - x_r3_g22 >= -1
 lin1_27_3_51: p_r3_g51_h24_t27 - x_r3_g51 <= 0
 lin2_27_3_51: p_r3_g51_h24_t27 - x_r3_g24 <= 0
 lin3_27_3_51: p_r3_g51_h24_t27 - x_r3_g51 - x_r3_g24 >= -1
 lin1_27_3_58: p_r3_g58_h31_t27 - x_r3_g58 <= 0
 lin2_27_3_58: p_r3_g58_h31_t27 - x_r3_g31 <= 0
 lin3_27_3_58: p_r3_g58_h31_t27 - x_r3_g58 - x_r3_g31 >= -1
 lin1_27_3_63: p_r3_g63_h36_t27 - x_r3_g63 <= 0
 lin2_27_3_63: p_r3_g63_h36_t27 - x_r3_g36 <= 0
 lin3_27_3_63: p_r3_g63_h36_t27 - x_r3_g63 - x_r3_g36 >= -1
 lin1_27_3_73: p_r3_g73_h46_t27 - x_r3_g73 <= 0
 lin2_27_3_73: p_r3_g73_h46_t27 - x_r3_g46 <= 0
 lin3_27_3_73: p_r3_g73_h46_t27 - x_r3_g73 - x_r3_g46 >= -1
 lin1_27_3_87: p_r3_g87_h60_t27 - x_r3_g87 <= 0
 lin2_27_3_87: p_r3_g87_h60_t27 - x_r3_g60 <= 0
 lin3_27_3_87: p_r3_g87_h60_t27 - x_r3_g87 - x_r3_g60 >= -1
 lin1_27_3_100: p_r3_g100_h73_t27 - x_r3_g100 <= 0
 lin2_27_3_100: p_r3_g100_h73_t27 - x_r3_g73 <= 0
 lin3_27_3_100: p_r3_g100_h73_t27 - x_r3_g100 - x_r3_g73 >= -1
 lin1_27_3_166: p_r3_g166_h139_t27 - x_r3_g166 <= 0
 lin2_27_3_166: p_r3_g166_h139_t27 - x_r3_g139 <= 0
 lin3_27_3_166: p_r3_g166_h139_t27 - x_r3_g166 - x_r3_g139 >= -1
 defect_27: 1 d_27 - 1 x_r0_g11 - 2 x_r0_g15 - 2 x_r0_g19 - 1 x_r0_g20 - 2 x_r0_g25 - 1 x_r0_g34 - 2 x_r0_g40 - 1 x_r0_g43 - 1 x_r0_g50 - 2 x_r0_g74 - 1 x_r0_g78 - 1 x_r0_g91 - 1 x_r0_g124 - 1 x_r0_g136 - 2 x_r0_g146 - 1 x_r1_g4 - 1 x_r1_g9 - 1 x_r1_g26 - 1 x_r1_g29 - 2 x_r1_g37 - 1 x_r1_g38 - 1 x_r1_g53 - 1 x_r1_g62 - 1 x_r1_g66 - 1 x_r1_g69 - 2 x_r1_g76 - 1 x_r1_g109 - 2 x_r1_g127 - 1 x_r1_g130 - 1 x_r1_g141 - 1 x_r1_g155 - 1 x_r1_g159 - 1 x_r2_g0 - 2 x_r2_g1 - 1 x_r2_g6 - 1 x_r2_g8 - 1 x_r2_g21 - 2 x_r2_g34 - 1 x_r2_g38 - 1 x_r2_g66 - 1 x_r2_g70 - 1 x_r2_g73 - 2 x_r2_g75 - 1 x_r2_g83 - 2 x_r2_g101 - 2 x_r2_g105 - 1 x_r2_g130 - 1 x_r2_g161 - 1 x_r3_g2 - 1 x_r3_g4 - 1 x_r3_g5 - 1 x_r3_g8 - 1 x_r3_g9 - 1 x_r3_g22 - 1 x_r3_g23 - 1 x_r3_g26 - 2 x_r3_g39 - 1 x_r3_g46 - 1 x_r3_g49 - 1 x_r3_g51 - 1 x_r3_g57 - 2 x_r3_g59 - 1 x_r3_g65 - 1 x_r3_g83 - 1 x_r3_g88 - 1 x_r3_g100 - 1 x_r3_g126 - 1 x_r3_g137 - 1 x_r3_g139 - 1 x_r3_g145 - 1 x_r3_g151 - 1 x_r3_g161 - 1 p_r0_g4_h144_t27 - 1 p_r0_g12_h152_t27 - 1 p_r0_g20_h160_t27 - 1 p_r0_g38_h11_t27 - 1 p_r0_g53_h26_t27 - 1 p_r0_g65_h38_t27 - 1 p_r0_g80_h53_t27 - 1 p_r0_g83_h56_t27 - 1 p_r0_g135_h108_t27 - 1 p_r0_g149_h122_t27 - 1 p_r1_g4_h144_t27 - 1 p_r1_g8_h148_t27 - 1 p_r1_g9_h149_t27 - 1 p_r1_g15_h155_t27 - 1 p_r1_g34_h7_t27 - 1 p_r1_g42_h15_t27 - 1 p_r1_g53_h26_t27 - 1 p_r1_g65_h38_t27 - 1 p_r1_g69_h42_t27 - 1 p_r1_g77_h50_t27 - 1 p_r1_g114_h87_t27 - 1 p_r1_g141_h114_t27 - 1 p_r1_g157_h130_t27 - 1 p_r2_g21_h161_t27 - 1 p_r2_g27_h0_t27 - 1 p_r2_g31_h4_t27 - 1 p_r2_g35_h8_t27 - 1 p_r2_g42_h15_t27 - 1 p_r2_g58_h31_t27 - 1 p_r2_g85_h58_t27 - 1 p_r2_g110_h83_t27 - 1 p_r2_g112_h85_t27 - 1 p_r2_g137_h110_t27 - 1 p_r2_g139_h112_t27 - 1 p_r2_g145_h118_t27 - 1 p_r3_g5_h145_t27 - 1 p_r3_g21_h161_t27 - 1 p_r3_g26_h166_t27 - 1 p_r3_g31_h4_t27 - 1 p_r3_g36_h9_t27 - 1 p_r3_g49_h22_t27 - 1 p_r3_g51_h24_t27 - 1 p_r3_g58_h31_t27 - 1 p_r3_g63_h36_t27 - 1 p_r3_g73_h46_t27 - 1 p_r3_g87_h60_t27 - 1 p_r3_g100_h73_t27 - 1 p_r3_g166_h139_t27 = -94
 abs_pos_27: d_27 - u_27 <= 0
 abs_neg_27: - d_27 - u_27 <= 0
 max_def_27: u_27 - M <= 0
 cap_27: u_27 <= 2
 lin1_29_0_11: p_r0_g11_h149_t29 - x_r0_g11 <= 0
 lin2_29_0_11: p_r0_g11_h149_t29 - x_r0_g149 <= 0
 lin3_29_0_11: p_r0_g11_h149_t29 - x_r0_g11 - x_r0_g149 >= -1
 lin1_29_0_40: p_r0_g40_h11_t29 - x_r0_g40 <= 0
 lin2_29_0_40: p_r0_g40_h11_t29 - x_r0_g11 <= 0
 lin3_29_0_40: p_r0_g40_h11_t29 - x_r0_g40 - x_r0_g11 >= -1
 lin1_29_0_44: p_r0_g44_h15_t29 - x_r0_g44 <= 0
 lin2_29_0_44: p_r0_g44_h15_t29 - x_r0_g15 <= 0
 lin3_29_0_44: p_r0_g44_h15_t29 - x_r0_g44 - x_r0_g15 >= -1
 lin1_29_0_74: p_r0_g74_h45_t29 - x_r0_g74 <= 0
 lin2_29_0_74: p_r0_g74_h45_t29 - x_r0_g45 <= 0
 lin3_29_0_74: p_r0_g74_h45_t29 - x_r0_g74 - x_r0_g45 >= -1
 lin1_29_0_135: p_r0_g135_h106_t29 - x_r0_g135 <= 0
 lin2_29_0_135: p_r0_g135_h106_t29 - x_r0_g106 <= 0
 lin3_29_0_135: p_r0_g135_h106_t29 - x_r0_g135 - x_r0_g106 >= -1
 lin1_29_1_7: p_r1_g7_h145_t29 - x_r1_g7 <= 0
 lin2_29_1_7: p_r1_g7_h145_t29 - x_r1_g145 <= 0
 lin3_29_1_7: p_r1_g7_h145_t29 - x_r1_g7 - x_r1_g145 >= -1
 lin1_29_1_37: p_r1_g37_h8_t29 - x_r1_g37 <= 0
 lin2_29_1_37: p_r1_g37_h8_t29 - x_r1_g8 <= 0
 lin3_29_1_37: p_r1_g37_h8_t29 - x_r1_g37 - x_r1_g8 >= -1
 lin1_29_1_38: p_r1_g38_h9_t29 - x_r1_g38 <= 0
 lin2_29_1_38: p_r1_g38_h9_t29 - x_r1_g9 <= 0
 lin3_29_1_38: p_r1_g38_h9_t29 - x_r1_g38 - x_r1_g9 >= -1
 lin1_29_1_66: p_r1_g66_h37_t29 - x_r1_g66 <= 0
 lin2_29_1_66: p_r1_g66_h37_t29 - x_r1_g37 <= 0
 lin3_29_1_66: p_r1_g66_h37_t29 - x_r1_g66 - x_r1_g37 >= -1
 lin1_29_1_77: p_r1_g77_h48_t29 - x_r1_g77 <= 0
 lin2_29_1_77: p_r1_g77_h48_t29 - x_r1_g48 <= 0
 lin3_29_1_77: p_r1_g77_h48_t29 - x_r1_g77 - x_r1_g48 >= -1
 lin1_29_1_149: p_r1_g149_h120_t29 - x_r1_g149 <= 0
 lin2_29_1_149: p_r1_g149_h120_t29 - x_r1_g120 <= 0
 lin3_29_1_149: p_r1_g149_h120_t29 - x_r1_g149 - x_r1_g120 >= -1
 lin1_29_1_155: p_r1_g155_h126_t29 - x_r1_g155 <= 0
 lin2_29_1_155: p_r1_g155_h126_t29 - x_r1_g126 <= 0
 lin3_29_1_155: p_r1_g155_h126_t29 - x_r1_g155 - x_r1_g126 >= -1
 lin1_29_1_159: p_r1_g159_h130_t29 - x_r1_g159 <= 0
 lin2_29_1_159: p_r1_g159_h130_t29 - x_r1_g130 <= 0
 lin3_29_1_159: p_r1_g159_h130_t29 - x_r1_g159 - x_r1_g130 >= -1
 lin1_29_2_1: p_r2_g1_h139_t29 - x_r2_g1 <= 0
 lin2_29_2_1: p_r2_g1_h139_t29 - x_r2_g139 <= 0
 lin3_29_2_1: p_r2_g1_h139_t29 - x_r2_g1 - x_r2_g139 >= -1
 lin1_29_2_31: p_r2_g31_h2_t29 - x_r2_g31 <= 0
 lin2_29_2_31: p_r2_g31_h2_t29 - x_r2_g2 <= 0
 lin3_29_2_31: p_r2_g31_h2_t29 - x_r2_g31 - x_r2_g2 >= -1
 lin1_29_2_35: p_r2_g35_h6_t29 - x_r2_g35 <= 0
 lin2_29_2_35: p_r2_g35_h6_t29 - x_r2_g6 <= 0
 lin3_29_2_35: p_r2_g35_h6_t29 - x_r2_g35 - x_r2_g6 >= -1
 lin1_29_2_38: p_r2_g38_h9_t29 - x_r2_g38 <= 0
 lin2_29_2_38: p_r2_g38_h9_t29 - x_r2_g9 <= 0
 lin3_29_2_38: p_r2_g38_h9_t29 - x_r2_g38 - x_r2_g9 >= -1
 lin1_29_2_44: p_r2_g44_h15_t29 - x_r2_g44 <= 0
 lin2_29_2_44: p_r2_g44_h15_t29 - x_r2_g15 <= 0
 lin3_29_2_44: p_r2_g44_h15_t29 - x_r2_g44 - x_r2_g15 >= -1
 lin1_29_2_50: p_r2_g50_h21_t29 - x_r2_g50 <= 0
 lin2_29_2_50: p_r2_g50_h21_t29 - x_r2_g21 <= 0
 lin3_29_2_50: p_r2_g50_h21_t29 - x_r2_g50 - x_r2_g21 >= -1
 lin1_29_2_73: p_r2_g73_h44_t29 - x_r2_g73 <= 0
 lin2_29_2_73: p_r2_g73_h44_t29 - x_r2_g44 <= 0
 lin3_29_2_73: p_r2_g73_h44_t29 - x_r2_g73 - x_r2_g44 >= -1
 lin1_29_2_112: p_r2_g112_h83_t29 - x_r2_g112 <= 0
 lin2_29_2_112: p_r2_g112_h83_t29 - x_r2_g83 <= 0
 lin3_29_2_112: p_r2_g112_h83_t29 - x_r2_g112 - x_r2_g83 >= -1
 lin1_29_2_130: p_r2_g130_h101_t29 - x_r2_g130 <= 0
 lin2_29_2_130: p_r2_g130_h101_t29 - x_r2_g101 <= 0
 lin3_29_2_130: p_r2_g130_h101_t29 - x_r2_g130 - x_r2_g101 >= -1
 lin1_29_2_137: p_r2_g137_h108_t29 - x_r2_g137 <= 0
 lin2_29_2_137: p_r2_g137_h108_t29 - x_r2_g108 <= 0
 lin3_29_2_137: p_r2_g137_h108_t29 - x_r2_g137 - x_r2_g108 >= -1
 lin1_29_2_139: p_r2_g139_h110_t29 - x_r2_g139 <= 0
 lin2_29_2_139: p_r2_g139_h110_t29 - x_r2_g110 <= 0
 lin3_29_2_139: p_r2_g139_h110_t29 - x_r2_g139 - x_r2_g110 >= -1
 lin1_29_3_7: p_r3_g7_h145_t29 - x_r3_g7 <= 0
 lin2_29_3_7: p_r3_g7_h145_t29 - x_r3_g145 <= 0
 lin3_29_3_7: p_r3_g7_h145_t29 - x_r3_g7 - x_r3_g145 >= -1
 lin1_29_3_23: p_r3_g23_h161_t29 - x_r3_g23 <= 0
 lin2_29_3_23: p_r3_g23_h161_t29 - x_r3_g161 <= 0
 lin3_29_3_23: p_r3_g23_h161_t29 - x_r3_g23 - x_r3_g161 >= -1
 lin1_29_3_31: p_r3_g31_h2_t29 - x_r3_g31 <= 0
 lin2_29_3_31: p_r3_g31_h2_t29 - x_r3_g2 <= 0
 lin3_29_3_31: p_r3_g31_h2_t29 - x_r3_g31 - x_r3_g2 >= -1
 lin1_29_3_36: p_r3_g36_h7_t29 - x_r3_g36 <= 0
 lin2_29_3_36: p_r3_g36_h7_t29 - x_r3_g7 <= 0
 lin3_29_3_36: p_r3_g36_h7_t29 - x_r3_g36 - x_r3_g7 >= -1
 lin1_29_3_51: p_r3_g51_h22_t29 - x_r3_g51 <= 0
 lin2_29_3_51: p_r3_g51_h22_t29 - x_r3_g22 <= 0
 lin3_29_3_51: p_r3_g51_h22_t29 - x_r3_g51 - x_r3_g22 >= -1
 lin1_29_3_60: p_r3_g60_h31_t29 - x_r3_g60 <= 0
 lin2_29_3_60: p_r3_g60_h31_t29 - x_r3_g31 <= 0
 lin3_29_3_60: p_r3_g60_h31_t29 - x_r3_g60 - x_r3_g31 >= -1
 lin1_29_3_65: p_r3_g65_h36_t29 - x_r3_g65 <= 0
 lin2_29_3_65: p_r3_g65_h36_t29 - x_r3_g36 <= 0
 lin3_29_3_65: p_r3_g65_h36_t29 - x_r3_g65 - x_r3_g36 >= -1
 lin1_29_3_87: p_r3_g87_h58_t29 - x_r3_g87 <= 0
 lin2_29_3_87: p_r3_g87_h58_t29 - x_r3_g58 <= 0
 lin3_29_3_87: p_r3_g87_h58_t29 - x_r3_g87 - x_r3_g58 >= -1
 lin1_29_3_88: p_r3_g88_h59_t29 - x_r3_g88 <= 0
 lin2_29_3_88: p_r3_g88_h59_t29 - x_r3_g59 <= 0
 lin3_29_3_88: p_r3_g88_h59_t29 - x_r3_g88 - x_r3_g59 >= -1
 lin1_29_3_161: p_r3_g161_h132_t29 - x_r3_g161 <= 0
 lin2_29_3_161: p_r3_g161_h132_t29 - x_r3_g132 <= 0
 lin3_29_3_161: p_r3_g161_h132_t29 - x_r3_g161 - x_r3_g132 >= -1
 lin1_29_3_166: p_r3_g166_h137_t29 - x_r3_g166 <= 0
 lin2_29_3_166: p_r3_g166_h137_t29 - x_r3_g137 <= 0
 lin3_29_3_166: p_r3_g166_h137_t29 - x_r3_g166 - x_r3_g137 >= -1
 defect_29: 1 d_29 - 1 x_r0_g4 - 2 x_r0_g19 - 2 x_r0_g20 - 2 x_r0_g25 - 1 x_r0_g26 - 2 x_r0_g34 - 1 x_r0_g38 - 1 x_r0_g43 - 1 x_r0_g65 - 1 x_r0_g66 - 1 x_r0_g74 - 1 x_r0_g78 - 1 x_r0_g80 - 1 x_r0_g83 - 2 x_r0_g91 - 1 x_r0_g106 - 1 x_r0_g108 - 1 x_r0_g114 - 1 x_r0_g122 - 1 x_r0_g134 - 1 x_r0_g136 - 1 x_r0_g144 - 1 x_r0_g149 - 2 x_r0_g152 - 1 x_r0_g160 - 1 x_r1_g7 - 1 x_r1_g8 - 1 x_r1_g15 - 1 x_r1_g26 - 1 x_r1_g50 - 1 x_r1_g53 - 1 x_r1_g62 - 1 x_r1_g65 - 1 x_r1_g66 - 2 x_r1_g69 - 1 x_r1_g74 - 2 x_r1_g109 - 1 x_r1_g120 - 2 x_r1_g127 - 2 x_r1_g141 - 1 x_r1_g144 - 2 x_r1_g148 - 1 x_r1_g149 - 1 x_r1_g152 - 1 x_r1_g157 - 1 x_r2_g1 - 1 x_r2_g2 - 1 x_r2_g4 - 1 x_r2_g15 - 2 x_r2_g27 - 1 x_r2_g31 - 1 x_r2_g32 - 1 x_r2_g34 - 1 x_r2_g35 - 1 x_r2_g70 - 1 x_r2_g73 - 2 x_r2_g75 - 2 x_r2_g85 - 1 x_r2_g105 - 1 x_r2_g112 - 2 x_r2_g119 - 2 x_r2_g145 - 1 x_r2_g161 - 1 x_r3_g2 - 1 x_r3_g4 - 1 x_r3_g5 - 2 x_r3_g8 - 1 x_r3_g9 - 1 x_r3_g22 - 2 x_r3_g24 - 1 x_r3_g25 - 1 x_r3_g26 - 1 x_r3_g39 - 1 x_r3_g42 - 2 x_r3_g46 - 2 x_r3_g49 - 1 x_r3_g51 - 2 x_r3_g57 - 1 x_r3_g59 - 1 x_r3_g60 - 1 x_r3_g65 - 1 x_r3_g83 - 1 x_r3_g100 - 1 x_r3_g104 - 1 x_r3_g137 - 2 x_r3_g139 - 2 x_r3_g151 - 1 x_r3_g166 - 1 p_r0_g11_h149_t29 - 1 p_r0_g40_h11_t29 - 1 p_r0_g44_h15_t29 - 1 p_r0_g74_h45_t29 - 1 p_r0_g135_h106_t29 - 1 p_r1_g7_h145_t29 - 1 p_r1_g37_h8_t29 - 1 p_r1_g38_h9_t29 - 1 p_r1_g66_h37_t29 - 1 p_r1_g77_h48_t29 - 1 p_r1_g149_h120_t29 - 1 p_r1_g155_h126_t29 - 1 p_r1_g159_h130_t29 - 1 p_r2_g1_h139_t29 - 1 p_r2_g31_h2_t29 - 1 p_r2_g35_h6_t29 - 1 p_r2_g38_h9_t29 - 1 p_r2_g44_h15_t29 - 1 p_r2_g50_h21_t29 - 1 p_r2_g73_h44_t29 - 1 p_r2_g112_h83_t29 - 1 p_r2_g130_h101_t29 - 1 p_r2_g137_h108_t29 - 1 p_r2_g139_h110_t29 - 1 p_r3_g7_h145_t29 - 1 p_r3_g23_h161_t29 - 1 p_r3_g31_h2_t29 - 1 p_r3_g36_h7_t29 - 1 p_r3_g51_h22_t29 - 1 p_r3_g60_h31_t29 - 1 p_r3_g65_h36_t29 - 1 p_r3_g87_h58_t29 - 1 p_r3_g88_h59_t29 - 1 p_r3_g161_h132_t29 - 1 p_r3_g166_h137_t29 = -82
 abs_pos_29: d_29 - u_29 <= 0
 abs_neg_29: - d_29 - u_29 <= 0
 max_def_29: u_29 - M <= 0
 cap_29: u_29 <= 1
 lin1_39_0_43: p_r0_g43_h4_t39 - x_r0_g43 <= 0
 lin2_39_0_43: p_r0_g43_h4_t39 - x_r0_g4 <= 0
 lin3_39_0_43: p_r0_g43_h4_t39 - x_r0_g43 - x_r0_g4 >= -1
 lin1_39_0_50: p_r0_g50_h11_t39 - x_r0_g50 <= 0
 lin2_39_0_50: p_r0_g50_h11_t39 - x_r0_g11 <= 0
 lin3_39_0_50: p_r0_g50_h11_t39 - x_r0_g50 - x_r0_g11 >= -1
 lin1_39_0_65: p_r0_g65_h26_t39 - x_r0_g65 <= 0
 lin2_39_0_65: p_r0_g65_h26_t39 - x_r0_g26 <= 0
 lin3_39_0_65: p_r0_g65_h26_t39 - x_r0_g65 - x_r0_g26 >= -1
 lin1_39_0_83: p_r0_g83_h44_t39 - x_r0_g83 <= 0
 lin2_39_0_83: p_r0_g83_h44_t39 - x_r0_g44 <= 0
 lin3_39_0_83: p_r0_g83_h44_t39 - x_r0_g83 - x_r0_g44 >= -1
 lin1_39_0_122: p_r0_g122_h83_t39 - x_r0_g122 <= 0
 lin2_39_0_122: p_r0_g122_h83_t39 - x_r0_g83 <= 0
 lin3_39_0_122: p_r0_g122_h83_t39 - x_r0_g122 - x_r0_g83 >= -1
 lin1_39_0_160: p_r0_g160_h121_t39 - x_r0_g160 <= 0
 lin2_39_0_160: p_r0_g160_h121_t39 - x_r0_g121 <= 0
 lin3_39_0_160: p_r0_g160_h121_t39 - x_r0_g160 - x_r0_g121 >= -1
 lin1_39_1_29: p_r1_g29_h157_t39 - x_r1_g29 <= 0
 lin2_39_1_29: p_r1_g29_h157_t39 - x_r1_g157 <= 0
 lin3_39_1_29: p_r1_g29_h157_t39 - x_r1_g29 - x_r1_g157 >= -1
 lin1_39_1_34: p_r1_g34_h162_t39 - x_r1_g34 <= 0
 lin2_39_1_34: p_r1_g34_h162_t39 - x_r1_g162 <= 0
 lin3_39_1_34: p_r1_g34_h162_t39 - x_r1_g34 - x_r1_g162 >= -1
 lin1_39_1_48: p_r1_g48_h9_t39 - x_r1_g48 <= 0
 lin2_39_1_48: p_r1_g48_h9_t39 - x_r1_g9 <= 0
 lin3_39_1_48: p_r1_g48_h9_t39 - x_r1_g48 - x_r1_g9 >= -1
 lin1_39_1_65: p_r1_g65_h26_t39 - x_r1_g65 <= 0
 lin2_39_1_65: p_r1_g65_h26_t39 - x_r1_g26 <= 0
 lin3_39_1_65: p_r1_g65_h26_t39 - x_r1_g65 - x_r1_g26 >= -1
 lin1_39_1_76: p_r1_g76_h37_t39 - x_r1_g76 <= 0
 lin2_39_1_76: p_r1_g76_h37_t39 - x_r1_g37 <= 0
 lin3_39_1_76: p_r1_g76_h37_t39 - x_r1_g76 - x_r1_g37 >= -1
 lin1_39_1_77: p_r1_g77_h38_t39 - x_r1_g77 <= 0
 lin2_39_1_77: p_r1_g77_h38_t39 - x_r1_g38 <= 0
 lin3_39_1_77: p_r1_g77_h38_t39 - x_r1_g77 - x_r1_g38 >= -1
 lin1_39_1_87: p_r1_g87_h48_t39 - x_r1_g87 <= 0
 lin2_39_1_87: p_r1_g87_h48_t39 - x_r1_g48 <= 0
 lin3_39_1_87: p_r1_g87_h48_t39 - x_r1_g87 - x_r1_g48 >= -1
 lin1_39_1_126: p_r1_g126_h87_t39 - x_r1_g126 <= 0
 lin2_39_1_126: p_r1_g126_h87_t39 - x_r1_g87 <= 0
 lin3_39_1_126: p_r1_g126_h87_t39 - x_r1_g126 - x_r1_g87 >= -1
 lin1_39_1_141: p_r1_g141_h102_t39 - x_r1_g141 <= 0
 lin2_39_1_141: p_r1_g141_h102_t39 - x_r1_g102 <= 0
 lin3_39_1_141: p_r1_g141_h102_t39 - x_r1_g141 - x_r1_g102 >= -1
 lin1_39_1_148: p_r1_g148_h109_t39 - x_r1_g148 <= 0
 lin2_39_1_148: p_r1_g148_h109_t39 - x_r1_g109 <= 0
 lin3_39_1_148: p_r1_g148_h109_t39 - x_r1_g148 - x_r1_g109 >= -1
 lin1_39_1_159: p_r1_g159_h120_t39 - x_r1_g159 <= 0
 lin2_39_1_159: p_r1_g159_h120_t39 - x_r1_g120 <= 0
 lin3_39_1_159: p_r1_g159_h120_t39 - x_r1_g159 - x_r1_g120 >= -1
 lin1_39_2_2: p_r2_g2_h130_t39 - x_r2_g2 <= 0
 lin2_39_2_2: p_r2_g2_h130_t39 - x_r2_g130 <= 0
 lin3_39_2_2: p_r2_g2_h130_t39 - x_r2_g2 - x_r2_g130 >= -1
 lin1_39_2_9: p_r2_g9_h137_t39 - x_r2_g9 <= 0
 lin2_39_2_9: p_r2_g9_h137_t39 - x_r2_g137 <= 0
 lin3_39_2_9: p_r2_g9_h137_t39 - x_r2_g9 - x_r2_g137 >= -1
 lin1_39_2_34: p_r2_g34_h162_t39 - x_r2_g34 <= 0
 lin2_39_2_34: p_r2_g34_h162_t39 - x_r2_g162 <= 0
 lin3_39_2_34: p_r2_g34_h162_t39 - x_r2_g34 - x_r2_g162 >= -1
 lin1_39_2_40: p_r2_g40_h1_t39 - x_r2_g40 <= 0
 lin2_39_2_40: p_r2_g40_h1_t39 - x_r2_g1 <= 0
 lin3_39_2_40: p_r2_g40_h1_t39 - x_r2_g40 - x_r2_g1 >= -1
 lin1_39_2_66: p_r2_g66_h27_t39 - x_r2_g66 <= 0
 lin2_39_2_66: p_r2_g66_h27_t39 - x_r2_g27 <= 0
 lin3_39_2_66: p_r2_g66_h27_t39 - x_r2_g66 - x_r2_g27 >= -1
 lin1_39_2_70: p_r2_g70_h31_t39 - x_r2_g70 <= 0
 lin2_39_2_70: p_r2_g70_h31_t39 - x_r2_g31 <= 0
 lin3_39_2_70: p_r2_g70_h31_t39 - x_r2_g70 - x_r2_g31 >= -1
 lin1_39_2_73: p_r2_g73_h34_t39 - x_r2_g73 <= 0
 lin2_39_2_73: p_r2_g73_h34_t39 - x_r2_g34 <= 0
 lin3_39_2_73: p_r2_g73_h34_t39 - x_r2_g73 - x_r2_g34 >= -1
 lin1_39_2_83: p_r2_g83_h44_t39 - x_r2_g83 <= 0
 lin2_39_2_83: p_r2_g83_h44_t39 - x_r2_g44 <= 0
 lin3_39_2_83: p_r2_g83_h44_t39 - x_r2_g83 - x_r2_g44 >= -1
 lin1_39_2_105: p_r2_g105_h66_t39 - x_r2_g105 <= 0
 lin2_39_2_105: p_r2_g105_h66_t39 - x_r2_g66 <= 0
 lin3_39_2_105: p_r2_g105_h66_t39 - x_r2_g105 - x_r2_g66 >= -1
 lin1_39_2_112: p_r2_g112_h73_t39 - x_r2_g112 <= 0
 lin2_39_2_112: p_r2_g112_h73_t39 - x_r2_g73 <= 0
 lin3_39_2_112: p_r2_g112_h73_t39 - x_r2_g112 - x_r2_g73 >= -1
 lin1_39_2_145: p_r2_g145_h106_t39 - x_r2_g145 <= 0
 lin2_39_2_145: p_r2_g145_h106_t39 - x_r2_g106 <= 0
 lin3_39_2_145: p_r2_g145_h106_t39 - x_r2_g145 - x_r2_g106 >= -1
 lin1_39_3_2: p_r3_g2_h130_t39 - x_r3_g2 <= 0
 lin2_39_3_2: p_r3_g2_h130_t39 - x_r3_g130 <= 0
 lin3_39_3_2: p_r3_g2_h130_t39 - x_r3_g2 - x_r3_g130 >= -1
 lin1_39_3_4: p_r3_g4_h132_t39 - x_r3_g4 <= 0
 lin2_39_3_4: p_r3_g4_h132_t39 - x_r3_g132 <= 0
 lin3_39_3_4: p_r3_g4_h132_t39 - x_r3_g4 - x_r3_g132 >= -1
 lin1_39_3_9: p_r3_g9_h137_t39 - x_r3_g9 <= 0
 lin2_39_3_9: p_r3_g9_h137_t39 - x_r3_g137 <= 0
 lin3_39_3_9: p_r3_g9_h137_t39 - x_r3_g9 - x_r3_g137 >= -1
 lin1_39_3_23: p_r3_g23_h151_t39 - x_r3_g23 <= 0
 lin2_39_3_23: p_r3_g23_h151_t39 - x_r3_g151 <= 0
 lin3_39_3_23: p_r3_g23_h151_t39 - x_r3_g23 - x_r3_g151 >= -1
 lin1_39_3_46: p_r3_g46_h7_t39 - x_r3_g46 <= 0
 lin2_39_3_46: p_r3_g46_h7_t39 - x_r3_g7 <= 0
 lin3_39_3_46: p_r3_g46_h7_t39 - x_r3_g46 - x_r3_g7 >= -1
 lin1_39_3_60: p_r3_g60_h21_t39 - x_r3_g60 <= 0
 lin2_39_3_60: p_r3_g60_h21_t39 - x_r3_g21 <= 0
 lin3_39_3_60: p_r3_g60_h21_t39 - x_r3_g60 - x_r3_g21 >= -1
 lin1_39_3_63: p_r3_g63_h24_t39 - x_r3_g63 <= 0
 lin2_39_3_63: p_r3_g63_h24_t39 - x_r3_g24 <= 0
 lin3_39_3_63: p_r3_g63_h24_t39 - x_r3_g63 - x_r3_g24 >= -1
 lin1_39_3_65: p_r3_g65_h26_t39 - x_r3_g65 <= 0
 lin2_39_3_65: p_r3_g65_h26_t39 - x_r3_g26 <= 0
 lin3_39_3_65: p_r3_g65_h26_t39 - x_r3_g65 - x_r3_g26 >= -1
 lin1_39_3_88: p_r3_g88_h49_t39 - x_r3_g88 <= 0
 lin2_39_3_88: p_r3_g88_h49_t39 - x_r3_g49 <= 0
 lin3_39_3_88: p_r3_g88_h49_t39 - x_r3_g88 - x_r3_g49 >= -1
 lin1_39_3_104: p_r3_g104_h65_t39 - x_r3_g104 <= 0
 lin2_39_3_104: p_r3_g104_h65_t39 - x_r3_g65 <= 0
 lin3_39_3_104: p_r3_g104_h65_t39 - x_r3_g104 - x_r3_g65 >= -1
 lin1_39_3_126: p_r3_g126_h87_t39 - x_r3_g126 <= 0
 lin2_39_3_126: p_r3_g126_h87_t39 - x_r3_g87 <= 0
 lin3_39_3_126: p_r3_g126_h87_t39 - x_r3_g126 - x_r3_g87 >= -1
 lin1_39_3_139: p_r3_g139_h100_t39 - x_r3_g139 <= 0
 lin2_39_3_139: p_r3_g139_h100_t39 - x_r3_g100 <= 0
 lin3_39_3_139: p_r3_g139_h100_t39 - x_r3_g139 - x_r3_g100 >= -1
 defect_39: 1 d_39 - 1 x_r0_g4 - 1 x_r0_g11 - 1 x_r0_g12 - 2 x_r0_g15 - 1 x_r0_g19 - 1 x_r0_g20 - 1 x_r0_g38 - 1 x_r0_g44 - 1 x_r0_g45 - 1 x_r0_g53 - 1 x_r0_g74 - 1 x_r0_g80 - 1 x_r0_g91 - 1 x_r0_g106 - 1 x_r0_g124 - 1 x_r0_g134 - 1 x_r0_g135 - 1 x_r0_g152 - 1 x_r1_g4 - 1 x_r1_g7 - 1 x_r1_g26 - 1 x_r1_g29 - 1 x_r1_g38 - 2 x_r1_g42 - 2 x_r1_g50 - 1 x_r1_g66 - 1 x_r1_g69 - 1 x_r1_g74 - 1 x_r1_g76 - 1 x_r1_g109 - 1 x_r1_g120 - 2 x_r1_g127 - 1 x_r1_g130 - 1 x_r1_g148 - 1 x_r1_g152 - 1 x_r1_g155 - 1 x_r1_g159 - 1 x_r1_g162 - 2 x_r2_g0 - 1 x_r2_g1 - 1 x_r2_g2 - 2 x_r2_g4 - 2 x_r2_g6 - 1 x_r2_g8 - 1 x_r2_g9 - 1 x_r2_g21 - 1 x_r2_g32 - 2 x_r2_g35 - 1 x_r2_g75 - 1 x_r2_g83 - 1 x_r2_g85 - 1 x_r2_g101 - 1 x_r2_g112 - 1 x_r2_g118 - 2 x_r2_g119 - 1 x_r2_g137 - 2 x_r2_g161 - 1 x_r3_g2 - 1 x_r3_g4 - 1 x_r3_g8 - 1 x_r3_g21 - 1 x_r3_g22 - 1 x_r3_g23 - 1 x_r3_g26 - 1 x_r3_g36 - 1 x_r3_g39 - 1 x_r3_g42 - 1 x_r3_g51 - 1 x_r3_g57 - 1 x_r3_g58 - 2 x_r3_g59 - 1 x_r3_g60 - 1 x_r3_g73 - 1 x_r3_g83 - 1 x_r3_g88 - 1 x_r3_g100 - 1 x_r3_g104 - 1 x_r3_g137 - 2 x_r3_g145 - 1 x_r3_g151 - 1 x_r3_g161 - 2 x_r3_g166 - 1 p_r0_g43_h4_t39 - 1 p_r0_g50_h11_t39 - 1 p_r0_g65_h26_t39 - 1 p_r0_g83_h44_t39 - 1 p_r0_g122_h83_t39 - 1 p_r0_g160_h121_t39 - 1 p_r1_g29_h157_t39 - 1 p_r1_g34_h162_t39 - 1 p_r1_g48_h9_t39 - 1 p_r1_g65_h26_t39 - 1 p_r1_g76_h37_t39 - 1 p_r1_g77_h38_t39 - 1 p_r1_g87_h48_t39 - 1 p_r1_g126_h87_t39 - 1 p_r1_g141_h102_t39 - 1 p_r1_g148_h109_t39 - 1 p_r1_g159_h120_t39 - 1 p_r2_g2_h130_t39 - 1 p_r2_g9_h137_t39 - 1 p_r2_g34_h162_t39 - 1 p_r2_g40_h1_t39 - 1 p_r2_g66_h27_t39 - 1 p_r2_g70_h31_t39 - 1 p_r2_g73_h34_t39 - 1 p_r2_g83_h44_t39 - 1 p_r2_g105_h66_t39 - 1 p_r2_g112_h73_t39 - 1 p_r2_g145_h106_t39 - 1 p_r3_g2_h130_t39 - 1 p_r3_g4_h132_t39 - 1 p_r3_g9_h137_t39 - 1 p_r3_g23_h151_t39 - 1 p_r3_g46_h7_t39 - 1 p_r3_g60_h21_t39 - 1 p_r3_g63_h24_t39 - 1 p_r3_g65_h26_t39 - 1 p_r3_g88_h49_t39 - 1 p_r3_g104_h65_t39 - 1 p_r3_g126_h87_t39 - 1 p_r3_g139_h100_t39 = -62
 abs_pos_39: d_39 - u_39 <= 0
 abs_neg_39: - d_39 - u_39 <= 0
 max_def_39: u_39 - M <= 0
 cap_39: u_39 <= 0
 lin1_42_0_11: p_r0_g11_h136_t42 - x_r0_g11 <= 0
 lin2_42_0_11: p_r0_g11_h136_t42 - x_r0_g136 <= 0
 lin3_42_0_11: p_r0_g11_h136_t42 - x_r0_g11 - x_r0_g136 >= -1
 lin1_42_0_19: p_r0_g19_h144_t42 - x_r0_g19 <= 0
 lin2_42_0_19: p_r0_g19_h144_t42 - x_r0_g144 <= 0
 lin3_42_0_19: p_r0_g19_h144_t42 - x_r0_g19 - x_r0_g144 >= -1
 lin1_42_0_53: p_r0_g53_h11_t42 - x_r0_g53 <= 0
 lin2_42_0_53: p_r0_g53_h11_t42 - x_r0_g11 <= 0
 lin3_42_0_53: p_r0_g53_h11_t42 - x_r0_g53 - x_r0_g11 >= -1
 lin1_42_0_80: p_r0_g80_h38_t42 - x_r0_g80 <= 0
 lin2_42_0_80: p_r0_g80_h38_t42 - x_r0_g38 <= 0
 lin3_42_0_80: p_r0_g80_h38_t42 - x_r0_g80 - x_r0_g38 >= -1
 lin1_42_0_108: p_r0_g108_h66_t42 - x_r0_g108 <= 0
 lin2_42_0_108: p_r0_g108_h66_t42 - x_r0_g66 <= 0
 lin3_42_0_108: p_r0_g108_h66_t42 - x_r0_g108 - x_r0_g66 >= -1
 lin1_42_0_122: p_r0_g122_h80_t42 - x_r0_g122 <= 0
 lin2_42_0_122: p_r0_g122_h80_t42 - x_r0_g80 <= 0
 lin3_42_0_122: p_r0_g122_h80_t42 - x_r0_g122 - x_r0_g80 >= -1
 lin1_42_1_34: p_r1_g34_h159_t42 - x_r1_g34 <= 0
 lin2_42_1_34: p_r1_g34_h159_t42 - x_r1_g159 <= 0
 lin3_42_1_34: p_r1_g34_h159_t42 - x_r1_g34 - x_r1_g159 >= -1
 lin1_42_1_37: p_r1_g37_h162_t42 - x_r1_g37 <= 0
 lin2_42_1_37: p_r1_g37_h162_t42 - x_r1_g162 <= 0
 lin3_42_1_37: p_r1_g37_h162_t42 - x_r1_g37 - x_r1_g162 >= -1
 lin1_42_1_50: p_r1_g50_h8_t42 - x_r1_g50 <= 0
 lin2_42_1_50: p_r1_g50_h8_t42 - x_r1_g8 <= 0
 lin3_42_1_50: p_r1_g50_h8_t42 - x_r1_g50 - x_r1_g8 >= -1
 lin1_42_1_76: p_r1_g76_h34_t42 - x_r1_g76 <= 0
 lin2_42_1_76: p_r1_g76_h34_t42 - x_r1_g34 <= 0
 lin3_42_1_76: p_r1_g76_h34_t42 - x_r1_g76 - x_r1_g34 >= -1
 lin1_42_1_114: p_r1_g114_h72_t42 - x_r1_g114 <= 0
 lin2_42_1_114: p_r1_g114_h72_t42 - x_r1_g72 <= 0
 lin3_42_1_114: p_r1_g114_h72_t42 - x_r1_g114 - x_r1_g72 >= -1
 lin1_42_1_144: p_r1_g144_h102_t42 - x_r1_g144 <= 0
 lin2_42_1_144: p_r1_g144_h102_t42 - x_r1_g102 <= 0
 lin3_42_1_144: p_r1_g144_h102_t42 - x_r1_g144 - x_r1_g102 >= -1
 lin1_42_1_162: p_r1_g162_h120_t42 - x_r1_g162 <= 0
 lin2_42_1_162: p_r1_g162_h120_t42 - x_r1_g120 <= 0
 lin3_42_1_162: p_r1_g162_h120_t42 - x_r1_g162 - x_r1_g120 >= -1
 lin1_42_2_42: p_r2_g42_h0_t42 - x_r2_g42 <= 0
 lin2_42_2_42: p_r2_g42_h0_t42 - x_r2_g0 <= 0
 lin3_42_2_42: p_r2_g42_h0_t42 - x_r2_g42 - x_r2_g0 >= -1
 lin1_42_2_44: p_r2_g44_h2_t42 - x_r2_g44 <= 0
 lin2_42_2_44: p_r2_g44_h2_t42 - x_r2_g2 <= 0
 lin3_42_2_44: p_r2_g44_h2_t42 - x_r2_g44 - x_r2_g2 >= -1
 lin1_42_2_50: p_r2_g50_h8_t42 - x_r2_g50 <= 0
 lin2_42_2_50: p_r2_g50_h8_t42 - x_r2_g8 <= 0
 lin3_42_2_50: p_r2_g50_h8_t42 - x_r2_g50 - x_r2_g8 >= -1
 lin1_42_2_73: p_r2_g73_h31_t42 - x_r2_g73 <= 0
 lin2_42_2_73: p_r2_g73_h31_t42 - x_r2_g31 <= 0
 lin3_42_2_73: p_r2_g73_h31_t42 - x_r2_g73 - x_r2_g31 >= -1
 lin1_42_2_108: p_r2_g108_h66_t42 - x_r2_g108 <= 0
 lin2_42_2_108: p_r2_g108_h66_t42 - x_r2_g66 <= 0
 lin3_42_2_108: p_r2_g108_h66_t42 - x_r2_g108 - x_r2_g66 >= -1
 lin1_42_2_112: p_r2_g112_h70_t42 - x_r2_g112 <= 0
 lin2_42_2_112: p_r2_g112_h70_t42 - x_r2_g70 <= 0
 lin3_42_2_112: p_r2_g112_h70_t42 - x_r2_g112 - x_r2_g70 >= -1
 lin1_42_2_161: p_r2_g161_h119_t42 - x_r2_g161 <= 0
 lin2_42_2_161: p_r2_g161_h119_t42 - x_r2_g119 <= 0
 lin3_42_2_161: p_r2_g161_h119_t42 - x_r2_g161 - x_r2_g119 >= -1
 lin1_42_3_5: p_r3_g5_h130_t42 - x_r3_g5 <= 0
 lin2_42_3_5: p_r3_g5_h130_t42 - x_r3_g130 <= 0
 lin3_42_3_5: p_r3_g5_h130_t42 - x_r3_g5 - x_r3_g130 >= -1
 lin1_42_3_7: p_r3_g7_h132_t42 - x_r3_g7 <= 0
 lin2_42_3_7: p_r3_g7_h132_t42 - x_r3_g132 <= 0
 lin3_42_3_7: p_r3_g7_h132_t42 - x_r3_g7 - x_r3_g132 >= -1
 lin1_42_3_26: p_r3_g26_h151_t42 - x_r3_g26 <= 0
 lin2_42_3_26: p_r3_g26_h151_t42 - x_r3_g151 <= 0
 lin3_42_3_26: p_r3_g26_h151_t42 - x_r3_g26 - x_r3_g151 >= -1
 lin1_42_3_36: p_r3_g36_h161_t42 - x_r3_g36 <= 0
 lin2_42_3_36: p_r3_g36_h161_t42 - x_r3_g161 <= 0
 lin3_42_3_36: p_r3_g36_h161_t42 - x_r3_g36 - x_r3_g161 >= -1
 lin1_42_3_46: p_r3_g46_h4_t42 - x_r3_g46 <= 0
 lin2_42_3_46: p_r3_g46_h4_t42 - x_r3_g4 <= 0
 lin3_42_3_46: p_r3_g46_h4_t42 - x_r3_g46 - x_r3_g4 >= -1
 lin1_42_3_49: p_r3_g49_h7_t42 - x_r3_g49 <= 0
 lin2_42_3_49: p_r3_g49_h7_t42 - x_r3_g7 <= 0
 lin3_42_3_49: p_r3_g49_h7_t42 - x_r3_g49 - x_r3_g7 >= -1
 lin1_42_3_51: p_r3_g51_h9_t42 - x_r3_g51 <= 0
 lin2_42_3_51: p_r3_g51_h9_t42 - x_r3_g9 <= 0
 lin3_42_3_51: p_r3_g51_h9_t42 - x_r3_g51 - x_r3_g9 >= -1
 lin1_42_3_63: p_r3_g63_h21_t42 - x_r3_g63 <= 0
 lin2_42_3_63: p_r3_g63_h21_t42 - x_r3_g21 <= 0
 lin3_42_3_63: p_r3_g63_h21_t42 - x_r3_g63 - x_r3_g21 >= -1
 lin1_42_3_65: p_r3_g65_h23_t42 - x_r3_g65 <= 0
 lin2_42_3_65: p_r3_g65_h23_t42 - x_r3_g23 <= 0
 lin3_42_3_65: p_r3_g65_h23_t42 - x_r3_g65 - x_r3_g23 >= -1
 lin1_42_3_73: p_r3_g73_h31_t42 - x_r3_g73 <= 0
 lin2_42_3_73: p_r3_g73_h31_t42 - x_r3_g31 <= 0
 lin3_42_3_73: p_r3_g73_h31_t42 - x_r3_g73 - x_r3_g31 >= -1
 lin1_42_3_88: p_r3_g88_h46_t42 - x_r3_g88 <= 0
 lin2_42_3_88: p_r3_g88_h46_t42 - x_r3_g46 <= 0
 lin3_42_3_88: p_r3_g88_h46_t42 - x_r3_g88 - x_r3_g46 >= -1
 lin1_42_3_100: p_r3_g100_h58_t42 - x_r3_g100 <= 0
 lin2_42_3_100: p_r3_g100_h58_t42 - x_r3_g58 <= 0
 lin3_42_3_100: p_r3_g100_h58_t42 - x_r3_g100 - x_r3_g58 >= -1
 lin1_42_3_130: p_r3_g130_h88_t42 - x_r3_g130 <= 0
 lin2_42_3_130: p_r3_g130_h88_t42 - x_r3_g88 <= 0
 lin3_42_3_130: p_r3_g130_h88_t42 - x_r3_g130 - x_r3_g88 >= -1
 defect_42: 1 d_42 - 1 x_r0_g0 - 1 x_r0_g4 - 2 x_r0_g12 - 1 x_r0_g20 - 1 x_r0_g25 - 2 x_r0_g26 - 1 x_r0_g34 - 1 x_r0_g38 - 1 x_r0_g40 - 1 x_r0_g45 - 2 x_r0_g56 - 1 x_r0_g60 - 1 x_r0_g74 - 2 x_r0_g78 - 1 x_r0_g91 - 1 x_r0_g121 - 1 x_r0_g144 - 1 x_r0_g160 - 1 x_r1_g4 - 2 x_r1_g7 - 2 x_r1_g15 - 1 x_r1_g26 - 1 x_r1_g29 - 1 x_r1_g37 - 2 x_r1_g38 - 1 x_r1_g42 - 1 x_r1_g48 - 2 x_r1_g53 - 1 x_r1_g62 - 1 x_r1_g65 - 1 x_r1_g66 - 1 x_r1_g69 - 1 x_r1_g74 - 1 x_r1_g77 - 1 x_r1_g114 - 1 x_r1_g120 - 2 x_r1_g126 - 1 x_r1_g130 - 2 x_r1_g145 - 1 x_r1_g149 - 1 x_r1_g152 - 1 x_r1_g155 - 2 x_r1_g157 - 2 x_r2_g1 - 1 x_r2_g2 - 2 x_r2_g4 - 1 x_r2_g6 - 1 x_r2_g9 - 1 x_r2_g15 - 1 x_r2_g21 - 1 x_r2_g27 - 2 x_r2_g32 - 1 x_r2_g35 - 2 x_r2_g38 - 2 x_r2_g40 - 1 x_r2_g44 - 1 x_r2_g70 - 1 x_r2_g73 - 1 x_r2_g75 - 1 x_r2_g83 - 2 x_r2_g85 - 1 x_r2_g105 - 2 x_r2_g106 - 1 x_r2_g108 - 2 x_r2_g110 - 1 x_r2_g118 - 1 x_r2_g139 - 1 x_r2_g145 - 1 x_r2_g162 - 1 x_r3_g2 - 1 x_r3_g4 - 1 x_r3_g5 - 1 x_r3_g9 - 1 x_r3_g21 - 1 x_r3_g23 - 2 x_r3_g24 - 1 x_r3_g26 - 1 x_r3_g36 - 1 x_r3_g39 - 1 x_r3_g57 - 1 x_r3_g59 - 1 x_r3_g60 - 1 x_r3_g83 - 2 x_r3_g87 - 1 x_r3_g100 - 2 x_r3_g104 - 1 x_r3_g126 - 1 x_r3_g137 - 1 x_r3_g145 - 1 x_r3_g161 - 2 x_r3_g166 - 1 p_r0_g11_h136_t42 - 1 p_r0_g19_h144_t42 - 1 p_r0_g53_h11_t42 - 1 p_r0_g80_h38_t42 - 1 p_r0_g108_h66_t42 - 1 p_r0_g122_h80_t42 - 1 p_r1_g34_h159_t42 - 1 p_r1_g37_h162_t42 - 1 p_r1_g50_h8_t42 - 1 p_r1_g76_h34_t42 - 1 p_r1_g114_h72_t42 - 1 p_r1_g144_h102_t42 - 1 p_r1_g162_h120_t42 - 1 p_r2_g42_h0_t42 - 1 p_r2_g44_h2_t42 - 1 p_r2_g50_h8_t42 - 1 p_r2_g73_h31_t42 - 1 p_r2_g108_h66_t42 - 1 p_r2_g112_h70_t42 - 1 p_r2_g161_h119_t42 - 1 p_r3_g5_h130_t42 - 1 p_r3_g7_h132_t42 - 1 p_r3_g26_h151_t42 - 1 p_r3_g36_h161_t42 - 1 p_r3_g46_h4_t42 - 1 p_r3_g49_h7_t42 - 1 p_r3_g51_h9_t42 - 1 p_r3_g63_h21_t42 - 1 p_r3_g65_h23_t42 - 1 p_r3_g73_h31_t42 - 1 p_r3_g88_h46_t42 - 1 p_r3_g100_h58_t42 - 1 p_r3_g130_h88_t42 = -63
 abs_pos_42: d_42 - u_42 <= 0
 abs_neg_42: - d_42 - u_42 <= 0
 max_def_42: u_42 - M <= 0
 cap_42: u_42 <= 0
 lin1_67_0_34: p_r0_g34_h134_t67 - x_r0_g34 <= 0
 lin2_67_0_34: p_r0_g34_h134_t67 - x_r0_g134 <= 0
 lin3_67_0_34: p_r0_g34_h134_t67 - x_r0_g34 - x_r0_g134 >= -1
 lin1_67_0_44: p_r0_g44_h144_t67 - x_r0_g44 <= 0
 lin2_67_0_44: p_r0_g44_h144_t67 - x_r0_g144 <= 0
 lin3_67_0_44: p_r0_g44_h144_t67 - x_r0_g44 - x_r0_g144 >= -1
 lin1_67_0_60: p_r0_g60_h160_t67 - x_r0_g60 <= 0
 lin2_67_0_60: p_r0_g60_h160_t67 - x_r0_g160 <= 0
 lin3_67_0_60: p_r0_g60_h160_t67 - x_r0_g60 - x_r0_g160 >= -1
 lin1_67_0_78: p_r0_g78_h11_t67 - x_r0_g78 <= 0
 lin2_67_0_78: p_r0_g78_h11_t67 - x_r0_g11 <= 0
 lin3_67_0_78: p_r0_g78_h11_t67 - x_r0_g78 - x_r0_g11 >= -1
 lin1_67_1_9: p_r1_g9_h109_t67 - x_r1_g9 <= 0
 lin2_67_1_9: p_r1_g9_h109_t67 - x_r1_g109 <= 0
 lin3_67_1_9: p_r1_g9_h109_t67 - x_r1_g9 - x_r1_g109 >= -1
 lin1_67_1_26: p_r1_g26_h126_t67 - x_r1_g26 <= 0
 lin2_67_1_26: p_r1_g26_h126_t67 - x_r1_g126 <= 0
 lin3_67_1_26: p_r1_g26_h126_t67 - x_r1_g26 - x_r1_g126 >= -1
 lin1_67_1_48: p_r1_g48_h148_t67 - x_r1_g48 <= 0
 lin2_67_1_48: p_r1_g48_h148_t67 - x_r1_g148 <= 0
 lin3_67_1_48: p_r1_g48_h148_t67 - x_r1_g48 - x_r1_g148 >= -1
 lin1_67_1_62: p_r1_g62_h162_t67 - x_r1_g62 <= 0
 lin2_67_1_62: p_r1_g62_h162_t67 - x_r1_g162 <= 0
 lin3_67_1_62: p_r1_g62_h162_t67 - x_r1_g62 - x_r1_g162 >= -1
 lin1_67_1_74: p_r1_g74_h7_t67 - x_r1_g74 <= 0
 lin2_67_1_74: p_r1_g74_h7_t67 - x_r1_g7 <= 0
 lin3_67_1_74: p_r1_g74_h7_t67 - x_r1_g74 - x_r1_g7 >= -1
 lin1_67_1_76: p_r1_g76_h9_t67 - x_r1_g76 <= 0
 lin2_67_1_76: p_r1_g76_h9_t67 - x_r1_g9 <= 0
 lin3_67_1_76: p_r1_g76_h9_t67 - x_r1_g76 - x_r1_g9 >= -1
 lin1_67_1_109: p_r1_g109_h42_t67 - x_r1_g109 <= 0
 lin2_67_1_109: p_r1_g109_h42_t67 - x_r1_g42 <= 0
 lin3_67_1_109: p_r1_g109_h42_t67 - x_r1_g109 - x_r1_g42 >= -1
 lin1_67_1_120: p_r1_g120_h53_t67 - x_r1_g120 <= 0
 lin2_67_1_120: p_r1_g120_h53_t67 - x_r1_g53 <= 0
 lin3_67_1_120: p_r1_g120_h53_t67 - x_r1_g120 - x_r1_g53 >= -1
 lin1_67_1_141: p_r1_g141_h74_t67 - x_r1_g141 <= 0
 lin2_67_1_141: p_r1_g141_h74_t67 - x_r1_g74 <= 0
 lin3_67_1_141: p_r1_g141_h74_t67 - x_r1_g141 - x_r1_g74 >= -1
 lin1_67_1_144: p_r1_g144_h77_t67 - x_r1_g144 <= 0
 lin2_67_1_144: p_r1_g144_h77_t67 - x_r1_g77 <= 0
 lin3_67_1_144: p_r1_g144_h77_t67 - x_r1_g144 - x_r1_g77 >= -1
 lin1_67_2_1: p_r2_g1_h101_t67 - x_r2_g1 <= 0
 lin2_67_2_1: p_r2_g1_h101_t67 - x_r2_g101 <= 0
 lin3_67_2_1: p_r2_g1_h101_t67 - x_r2_g1 - x_r2_g101 >= -1
 lin1_67_2_6: p_r2_g6_h106_t67 - x_r2_g6 <= 0
 lin2_67_2_6: p_r2_g6_h106_t67 - x_r2_g106 <= 0
 lin3_67_2_6: p_r2_g6_h106_t67 - x_r2_g6 - x_r2_g106 >= -1
 lin1_67_2_8: p_r2_g8_h108_t67 - x_r2_g8 <= 0
 lin2_67_2_8: p_r2_g8_h108_t67 - x_r2_g108 <= 0
 lin3_67_2_8: p_r2_g8_h108_t67 - x_r2_g8 - x_r2_g108 >= -1
 lin1_67_2_73: p_r2_g73_h6_t67 - x_r2_g73 <= 0
 lin2_67_2_73: p_r2_g73_h6_t67 - x_r2_g6 <= 0
 lin3_67_2_73: p_r2_g73_h6_t67 - x_r2_g73 - x_r2_g6 >= -1
 lin1_67_2_75: p_r2_g75_h8_t67 - x_r2_g75 <= 0
 lin2_67_2_75: p_r2_g75_h8_t67 - x_r2_g8 <= 0
 lin3_67_2_75: p_r2_g75_h8_t67 - x_r2_g75 - x_r2_g8 >= -1
 lin1_67_2_101: p_r2_g101_h34_t67 - x_r2_g101 <= 0
 lin2_67_2_101: p_r2_g101_h34_t67 - x_r2_g34 <= 0
 lin3_67_2_101: p_r2_g101_h34_t67 - x_r2_g101 - x_r2_g34 >= -1
 lin1_67_2_105: p_r2_g105_h38_t67 - x_r2_g105 <= 0
 lin2_67_2_105: p_r2_g105_h38_t67 - x_r2_g38 <= 0
 lin3_67_2_105: p_r2_g105_h38_t67 - x_r2_g105 - x_r2_g38 >= -1
 lin1_67_2_137: p_r2_g137_h70_t67 - x_r2_g137 <= 0
 lin2_67_2_137: p_r2_g137_h70_t67 - x_r2_g70 <= 0
 lin3_67_2_137: p_r2_g137_h70_t67 - x_r2_g137 - x_r2_g70 >= -1
 lin1_67_3_4: p_r3_g4_h104_t67 - x_r3_g4 <= 0
 lin2_67_3_4: p_r3_g4_h104_t67 - x_r3_g104 <= 0
 lin3_67_3_4: p_r3_g4_h104_t67 - x_r3_g4 - x_r3_g104 >= -1
 lin1_67_3_26: p_r3_g26_h126_t67 - x_r3_g26 <= 0
 lin2_67_3_26: p_r3_g26_h126_t67 - x_r3_g126 <= 0
 lin3_67_3_26: p_r3_g26_h126_t67 - x_r3_g26 - x_r3_g126 >= -1
 lin1_67_3_39: p_r3_g39_h139_t67 - x_r3_g39 <= 0
 lin2_67_3_39: p_r3_g39_h139_t67 - x_r3_g139 <= 0
 lin3_67_3_39: p_r3_g39_h139_t67 - x_r3_g39 - x_r3_g139 >= -1
 lin1_67_3_51: p_r3_g51_h151_t67 - x_r3_g51 <= 0
 lin2_67_3_51: p_r3_g51_h151_t67 - x_r3_g151 <= 0
 lin3_67_3_51: p_r3_g51_h151_t67 - x_r3_g51 - x_r3_g151 >= -1
 lin1_67_3_88: p_r3_g88_h21_t67 - x_r3_g88 <= 0
 lin2_67_3_88: p_r3_g88_h21_t67 - x_r3_g21 <= 0
 lin3_67_3_88: p_r3_g88_h21_t67 - x_r3_g88 - x_r3_g21 >= -1
 lin1_67_3_126: p_r3_g126_h59_t67 - x_r3_g126 <= 0
 lin2_67_3_126: p_r3_g126_h59_t67 - x_r3_g59 <= 0
 lin3_67_3_126: p_r3_g126_h59_t67 - x_r3_g126 - x_r3_g59 >= -1
 lin1_67_3_130: p_r3_g130_h63_t67 - x_r3_g130 <= 0
 lin2_67_3_130: p_r3_g130_h63_t67 - x_r3_g63 <= 0
 lin3_67_3_130: p_r3_g130_h63_t67 - x_r3_g130 - x_r3_g63 >= -1
 lin1_67_3_132: p_r3_g132_h65_t67 - x_r3_g132 <= 0
 lin2_67_3_132: p_r3_g132_h65_t67 - x_r3_g65 <= 0
 lin3_67_3_132: p_r3_g132_h65_t67 - x_r3_g132 - x_r3_g65 >= -1
 defect_67: 1 d_67 - 2 x_r0_g0 - 1 x_r0_g11 - 1 x_r0_g19 - 1 x_r0_g20 - 1 x_r0_g26 - 1 x_r0_g34 - 1 x_r0_g43 - 1 x_r0_g44 - 1 x_r0_g53 - 1 x_r0_g56 - 1 x_r0_g60 - 2 x_r0_g65 - 1 x_r0_g74 - 1 x_r0_g80 - 1 x_r0_g91 - 1 x_r0_g106 - 2 x_r0_g114 - 1 x_r0_g121 - 1 x_r0_g122 - 1 x_r0_g134 - 1 x_r0_g135 - 1 x_r0_g136 - 1 x_r0_g144 - 1 x_r0_g146 - 1 x_r0_g149 - 1 x_r0_g152 - 1 x_r1_g7 - 1 x_r1_g8 - 2 x_r1_g15 - 1 x_r1_g29 - 1 x_r1_g38 - 1 x_r1_g48 - 1 x_r1_g65 - 1 x_r1_g66 - 1 x_r1_g77 - 2 x_r1_g87 - 1 x_r1_g120 - 1 x_r1_g127 - 1 x_r1_g144 - 1 x_r1_g145 - 1 x_r1_g148 - 2 x_r1_g149 - 1 x_r1_g155 - 2 x_r1_g157 - 1 x_r1_g162 - 1 x_r2_g1 - 1 x_r2_g2 - 1 x_r2_g4 - 2 x_r2_g15 - 1 x_r2_g21 - 2 x_r2_g27 - 1 x_r2_g31 - 1 x_r2_g32 - 1 x_r2_g34 - 1 x_r2_g35 - 1 x_r2_g40 - 1 x_r2_g50 - 1 x_r2_g58 - 1 x_r2_g73 - 1 x_r2_g83 - 2 x_r2_g85 - 1 x_r2_g106 - 1 x_r2_g108 - 1 x_r2_g110 - 1 x_r2_g112 - 1 x_r2_g118 - 2 x_r2_g130 - 1 x_r2_g139 - 2 x_r2_g145 - 2 x_r2_g161 - 1 x_r3_g7 - 2 x_r3_g8 - 1 x_r3_g9 - 2 x_r3_g22 - 1 x_r3_g23 - 1 x_r3_g24 - 1 x_r3_g31 - 1 x_r3_g39 - 1 x_r3_g42 - 1 x_r3_g46 - 1 x_r3_g49 - 1 x_r3_g51 - 1 x_r3_g57 - 2 x_r3_g60 - 1 x_r3_g63 - 2 x_r3_g73 - 2 x_r3_g87 - 1 x_r3_g104 - 1 x_r3_g130 - 1 x_r3_g132 - 1 x_r3_g137 - 2 x_r3_g145 - 2 x_r3_g161 - 2 x_r3_g166 - 1 p_r0_g34_h134_t67 - 1 p_r0_g44_h144_t67 - 1 p_r0_g60_h160_t67 - 1 p_r0_g78_h11_t67 - 1 p_r1_g9_h109_t67 - 1 p_r1_g26_h126_t67 - 1 p_r1_g48_h148_t67 - 1 p_r1_g62_h162_t67 - 1 p_r1_g74_h7_t67 - 1 p_r1_g76_h9_t67 - 1 p_r1_g109_h42_t67 - 1 p_r1_g120_h53_t67 - 1 p_r1_g141_h74_t67 - 1 p_r1_g144_h77_t67 - 1 p_r2_g1_h101_t67 - 1 p_r2_g6_h106_t67 - 1 p_r2_g8_h108_t67 - 1 p_r2_g73_h6_t67 - 1 p_r2_g75_h8_t67 - 1 p_r2_g101_h34_t67 - 1 p_r2_g105_h38_t67 - 1 p_r2_g137_h70_t67 - 1 p_r3_g4_h104_t67 - 1 p_r3_g26_h126_t67 - 1 p_r3_g39_h139_t67 - 1 p_r3_g51_h151_t67 - 1 p_r3_g88_h21_t67 - 1 p_r3_g126_h59_t67 - 1 p_r3_g130_h63_t67 - 1 p_r3_g132_h65_t67 = -62
 abs_pos_67: d_67 - u_67 <= 0
 abs_neg_67: - d_67 - u_67 <= 0
 max_def_67: u_67 - M <= 0
 cap_67: u_67 <= 0
 lin1_75_0_43: p_r0_g43_h135_t75 - x_r0_g43 <= 0
 lin2_75_0_43: p_r0_g43_h135_t75 - x_r0_g135 <= 0
 lin3_75_0_43: p_r0_g43_h135_t75 - x_r0_g43 - x_r0_g135 >= -1
 lin1_75_0_44: p_r0_g44_h136_t75 - x_r0_g44 <= 0
 lin2_75_0_44: p_r0_g44_h136_t75 - x_r0_g136 <= 0
 lin3_75_0_44: p_r0_g44_h136_t75 - x_r0_g44 - x_r0_g136 >= -1
 lin1_75_0_60: p_r0_g60_h152_t75 - x_r0_g60 <= 0
 lin2_75_0_60: p_r0_g60_h152_t75 - x_r0_g152 <= 0
 lin3_75_0_60: p_r0_g60_h152_t75 - x_r0_g60 - x_r0_g152 >= -1
 lin1_75_0_135: p_r0_g135_h60_t75 - x_r0_g135 <= 0
 lin2_75_0_135: p_r0_g135_h60_t75 - x_r0_g60 <= 0
 lin3_75_0_135: p_r0_g135_h60_t75 - x_r0_g135 - x_r0_g60 >= -1
 lin1_75_0_149: p_r0_g149_h74_t75 - x_r0_g149 <= 0
 lin2_75_0_149: p_r0_g149_h74_t75 - x_r0_g74 <= 0
 lin3_75_0_149: p_r0_g149_h74_t75 - x_r0_g149 - x_r0_g74 >= -1
 lin1_75_1_34: p_r1_g34_h126_t75 - x_r1_g34 <= 0
 lin2_75_1_34: p_r1_g34_h126_t75 - x_r1_g126 <= 0
 lin3_75_1_34: p_r1_g34_h126_t75 - x_r1_g34 - x_r1_g126 >= -1
 lin1_75_1_38: p_r1_g38_h130_t75 - x_r1_g38 <= 0
 lin2_75_1_38: p_r1_g38_h130_t75 - x_r1_g130 <= 0
 lin3_75_1_38: p_r1_g38_h130_t75 - x_r1_g38 - x_r1_g130 >= -1
 lin1_75_1_53: p_r1_g53_h145_t75 - x_r1_g53 <= 0
 lin2_75_1_53: p_r1_g53_h145_t75 - x_r1_g145 <= 0
 lin3_75_1_53: p_r1_g53_h145_t75 - x_r1_g53 - x_r1_g145 >= -1
 lin1_75_1_65: p_r1_g65_h157_t75 - x_r1_g65 <= 0
 lin2_75_1_65: p_r1_g65_h157_t75 - x_r1_g157 <= 0
 lin3_75_1_65: p_r1_g65_h157_t75 - x_r1_g65 - x_r1_g157 >= -1
 lin1_75_1_109: p_r1_g109_h34_t75 - x_r1_g109 <= 0
 lin2_75_1_109: p_r1_g109_h34_t75 - x_r1_g34 <= 0
 lin3_75_1_109: p_r1_g109_h34_t75 - x_r1_g109 - x_r1_g34 >= -1
 lin1_75_1_141: p_r1_g141_h66_t75 - x_r1_g141 <= 0
 lin2_75_1_141: p_r1_g141_h66_t75 - x_r1_g66 <= 0
 lin3_75_1_141: p_r1_g141_h66_t75 - x_r1_g141 - x_r1_g66 >= -1
 lin1_75_1_144: p_r1_g144_h69_t75 - x_r1_g144 <= 0
 lin2_75_1_144: p_r1_g144_h69_t75 - x_r1_g69 <= 0
 lin3_75_1_144: p_r1_g144_h69_t75 - x_r1_g144 - x_r1_g69 >= -1
 lin1_75_1_149: p_r1_g149_h74_t75 - x_r1_g149 <= 0
 lin2_75_1_149: p_r1_g149_h74_t75 - x_r1_g74 <= 0
 lin3_75_1_149: p_r1_g149_h74_t75 - x_r1_g149 - x_r1_g74 >= -1
 lin1_75_1_152: p_r1_g152_h77_t75 - x_r1_g152 <= 0
 lin2_75_1_152: p_r1_g152_h77_t75 - x_r1_g77 <= 0
 lin3_75_1_152: p_r1_g152_h77_t75 - x_r1_g152 - x_r1_g77 >= -1
 lin1_75_1_162: p_r1_g162_h87_t75 - x_r1_g162 <= 0
 lin2_75_1_162: p_r1_g162_h87_t75 - x_r1_g87 <= 0
 lin3_75_1_162: p_r1_g162_h87_t75 - x_r1_g162 - x_r1_g87 >= -1
 lin1_75_2_9: p_r2_g9_h101_t75 - x_r2_g9 <= 0
 lin2_75_2_9: p_r2_g9_h101_t75 - x_r2_g101 <= 0
 lin3_75_2_9: p_r2_g9_h101_t75 - x_r2_g9 - x_r2_g101 >= -1
 lin1_75_2_27: p_r2_g27_h119_t75 - x_r2_g27 <= 0
 lin2_75_2_27: p_r2_g27_h119_t75 - x_r2_g119 <= 0
 lin3_75_2_27: p_r2_g27_h119_t75 - x_r2_g27 - x_r2_g119 >= -1
 lin1_75_2_38: p_r2_g38_h130_t75 - x_r2_g38 <= 0
 lin2_75_2_38: p_r2_g38_h130_t75 - x_r2_g130 <= 0
 lin3_75_2_38: p_r2_g38_h130_t75 - x_r2_g38 - x_r2_g130 >= -1
 lin1_75_2_70: p_r2_g70_h162_t75 - x_r2_g70 <= 0
 lin2_75_2_70: p_r2_g70_h162_t75 - x_r2_g162 <= 0
 lin3_75_2_70: p_r2_g70_h162_t75 - x_r2_g70 - x_r2_g162 >= -1
 lin1_75_2_75: p_r2_g75_h0_t75 - x_r2_g75 <= 0
 lin2_75_2_75: p_r2_g75_h0_t75 - x_r2_g0 <= 0
 lin3_75_2_75: p_r2_g75_h0_t75 - x_r2_g75 - x_r2_g0 >= -1
 lin1_75_2_83: p_r2_g83_h8_t75 - x_r2_g83 <= 0
 lin2_75_2_83: p_r2_g83_h8_t75 - x_r2_g8 <= 0
 lin3_75_2_83: p_r2_g83_h8_t75 - x_r2_g83 - x_r2_g8 >= -1
 lin1_75_2_106: p_r2_g106_h31_t75 - x_r2_g106 <= 0
 lin2_75_2_106: p_r2_g106_h31_t75 - x_r2_g31 <= 0
 lin3_75_2_106: p_r2_g106_h31_t75 - x_r2_g106 - x_r2_g31 >= -1
 lin1_75_2_110: p_r2_g110_h35_t75 - x_r2_g110 <= 0
 lin2_75_2_110: p_r2_g110_h35_t75 - x_r2_g35 <= 0
 lin3_75_2_110: p_r2_g110_h35_t75 - x_r2_g110 - x_r2_g35 >= -1
 lin1_75_2_119: p_r2_g119_h44_t75 - x_r2_g119 <= 0
 lin2_75_2_119: p_r2_g119_h44_t75 - x_r2_g44 <= 0
 lin3_75_2_119: p_r2_g119_h44_t75 - x_r2_g119 - x_r2_g44 >= -1
 lin1_75_2_145: p_r2_g145_h70_t75 - x_r2_g145 <= 0
 lin2_75_2_145: p_r2_g145_h70_t75 - x_r2_g70 <= 0
 lin3_75_2_145: p_r2_g145_h70_t75 - x_r2_g145 - x_r2_g70 >= -1
 lin1_75_3_8: p_r3_g8_h100_t75 - x_r3_g8 <= 0
 lin2_75_3_8: p_r3_g8_h100_t75 - x_r3_g100 <= 0
 lin3_75_3_8: p_r3_g8_h100_t75 - x_r3_g8 - x_r3_g100 >= -1
 lin1_75_3_59: p_r3_g59_h151_t75 - x_r3_g59 <= 0
 lin2_75_3_59: p_r3_g59_h151_t75 - x_r3_g151 <= 0
 lin3_75_3_59: p_r3_g59_h151_t75 - x_r3_g59 - x_r3_g151 >= -1
 lin1_75_3_83: p_r3_g83_h8_t75 - x_r3_g83 <= 0
 lin2_75_3_83: p_r3_g83_h8_t75 - x_r3_g8 <= 0
 lin3_75_3_83: p_r3_g83_h8_t75 - x_r3_g83 - x_r3_g8 >= -1
 lin1_75_3_100: p_r3_g100_h25_t75 - x_r3_g100 <= 0
 lin2_75_3_100: p_r3_g100_h25_t75 - x_r3_g25 <= 0
 lin3_75_3_100: p_r3_g100_h25_t75 - x_r3_g100 - x_r3_g25 >= -1
 lin1_75_3_126: p_r3_g126_h51_t75 - x_r3_g126 <= 0
 lin2_75_3_126: p_r3_g126_h51_t75 - x_r3_g51 <= 0
 lin3_75_3_126: p_r3_g126_h51_t75 - x_r3_g126 - x_r3_g51 >= -1
 lin1_75_3_132: p_r3_g132_h57_t75 - x_r3_g132 <= 0
 lin2_75_3_132: p_r3_g132_h57_t75 - x_r3_g57 <= 0
 lin3_75_3_132: p_r3_g132_h57_t75 - x_r3_g132 - x_r3_g57 >= -1
 defect_75: 1 d_75 - 1 x_r0_g11 - 1 x_r0_g15 - 1 x_r0_g19 - 1 x_r0_g25 - 2 x_r0_g26 - 1 x_r0_g34 - 1 x_r0_g38 - 1 x_r0_g40 - 1 x_r0_g43 - 1 x_r0_g44 - 2 x_r0_g45 - 1 x_r0_g50 - 1 x_r0_g56 - 1 x_r0_g65 - 1 x_r0_g66 - 1 x_r0_g78 - 2 x_r0_g80 - 1 x_r0_g83 - 1 x_r0_g106 - 1 x_r0_g121 - 2 x_r0_g122 - 1 x_r0_g124 - 2 x_r0_g134 - 1 x_r0_g144 - 1 x_r0_g146 - 1 x_r0_g152 - 1 x_r0_g160 - 2 x_r1_g4 - 1 x_r1_g7 - 1 x_r1_g8 - 1 x_r1_g9 - 2 x_r1_g15 - 1 x_r1_g37 - 1 x_r1_g38 - 2 x_r1_g48 - 1 x_r1_g53 - 1 x_r1_g62 - 1 x_r1_g65 - 1 x_r1_g72 - 1 x_r1_g74 - 1 x_r1_g76 - 2 x_r1_g102 - 1 x_r1_g114 - 1 x_r1_g141 - 1 x_r1_g145 - 1 x_r1_g148 - 1 x_r1_g149 - 1 x_r1_g155 - 1 x_r1_g157 - 1 x_r1_g159 - 1 x_r1_g162 - 1 x_r2_g2 - 1 x_r2_g6 - 1 x_r2_g15 - 1 x_r2_g21 - 1 x_r2_g27 - 1 x_r2_g34 - 1 x_r2_g35 - 1 x_r2_g38 - 2 x_r2_g40 - 1 x_r2_g42 - 1 x_r2_g44 - 1 x_r2_g58 - 2 x_r2_g66 - 2 x_r2_g73 - 1 x_r2_g75 - 1 x_r2_g83 - 1 x_r2_g85 - 1 x_r2_g101 - 1 x_r2_g105 - 1 x_r2_g106 - 1 x_r2_g108 - 1 x_r2_g110 - 1 x_r2_g112 - 2 x_r2_g118 - 1 x_r2_g137 - 1 x_r2_g139 - 1 x_r2_g161 - 1 x_r3_g2 - 1 x_r3_g5 - 1 x_r3_g7 - 1 x_r3_g23 - 1 x_r3_g24 - 1 x_r3_g26 - 2 x_r3_g31 - 2 x_r3_g36 - 1 x_r3_g42 - 1 x_r3_g46 - 1 x_r3_g49 - 1 x_r3_g51 - 1 x_r3_g57 - 1 x_r3_g59 - 1 x_r3_g63 - 1 x_r3_g65 - 1 x_r3_g73 - 2 x_r3_g87 - 2 x_r3_g88 - 1 x_r3_g104 - 2 x_r3_g130 - 1 x_r3_g132 - 2 x_r3_g137 - 1 x_r3_g139 - 1 x_r3_g145 - 1 x_r3_g151 - 1 x_r3_g161 - 1 x_r3_g166 - 1 p_r0_g43_h135_t75 - 1 p_r0_g44_h136_t75 - 1 p_r0_g60_h152_t75 - 1 p_r0_g135_h60_t75 - 1 p_r0_g149_h74_t75 - 1 p_r1_g34_h126_t75 - 1 p_r1_g38_h130_t75 - 1 p_r1_g53_h145_t75 - 1 p_r1_g65_h157_t75 - 1 p_r1_g109_h34_t75 - 1 p_r1_g141_h66_t75 - 1 p_r1_g144_h69_t75 - 1 p_r1_g149_h74_t75 - 1 p_r1_g152_h77_t75 - 1 p_r1_g162_h87_t75 - 1 p_r2_g9_h101_t75 - 1 p_r2_g27_h119_t75 - 1 p_r2_g38_h130_t75 - 1 p_r2_g70_h162_t75 - 1 p_r2_g75_h0_t75 - 1 p_r2_g83_h8_t75 - 1 p_r2_g106_h31_t75 - 1 p_r2_g110_h35_t75 - 1 p_r2_g119_h44_t75 - 1 p_r2_g145_h70_t75 - 1 p_r3_g8_h100_t75 - 1 p_r3_g59_h151_t75 - 1 p_r3_g83_h8_t75 - 1 p_r3_g100_h25_t75 - 1 p_r3_g126_h51_t75 - 1 p_r3_g132_h57_t75 = -66
 abs_pos_75: d_75 - u_75 <= 0
 abs_neg_75: - d_75 - u_75 <= 0
 max_def_75: u_75 - M <= 0
 cap_75: u_75 <= 0
 lin1_80_0_4: p_r0_g4_h91_t80 - x_r0_g4 <= 0
 lin2_80_0_4: p_r0_g4_h91_t80 - x_r0_g91 <= 0
 lin3_80_0_4: p_r0_g4_h91_t80 - x_r0_g4 - x_r0_g91 >= -1
 lin1_80_0_19: p_r0_g19_h106_t80 - x_r0_g19 <= 0
 lin2_80_0_19: p_r0_g19_h106_t80 - x_r0_g106 <= 0
 lin3_80_0_19: p_r0_g19_h106_t80 - x_r0_g19 - x_r0_g106 >= -1
 lin1_80_0_34: p_r0_g34_h121_t80 - x_r0_g34 <= 0
 lin2_80_0_34: p_r0_g34_h121_t80 - x_r0_g121 <= 0
 lin3_80_0_34: p_r0_g34_h121_t80 - x_r0_g34 - x_r0_g121 >= -1
 lin1_80_0_65: p_r0_g65_h152_t80 - x_r0_g65 <= 0
 lin2_80_0_65: p_r0_g65_h152_t80 - x_r0_g152 <= 0
 lin3_80_0_65: p_r0_g65_h152_t80 - x_r0_g65 - x_r0_g152 >= -1
 lin1_80_0_80: p_r0_g80_h0_t80 - x_r0_g80 <= 0
 lin2_80_0_80: p_r0_g80_h0_t80 - x_r0_g0 <= 0
 lin3_80_0_80: p_r0_g80_h0_t80 - x_r0_g80 - x_r0_g0 >= -1
 lin1_80_0_91: p_r0_g91_h11_t80 - x_r0_g91 <= 0
 lin2_80_0_91: p_r0_g91_h11_t80 - x_r0_g11 <= 0
 lin3_80_0_91: p_r0_g91_h11_t80 - x_r0_g91 - x_r0_g11 >= -1
 lin1_80_0_106: p_r0_g106_h26_t80 - x_r0_g106 <= 0
 lin2_80_0_106: p_r0_g106_h26_t80 - x_r0_g26 <= 0
 lin3_80_0_106: p_r0_g106_h26_t80 - x_r0_g106 - x_r0_g26 >= -1
 lin1_80_0_114: p_r0_g114_h34_t80 - x_r0_g114 <= 0
 lin2_80_0_114: p_r0_g114_h34_t80 - x_r0_g34 <= 0
 lin3_80_0_114: p_r0_g114_h34_t80 - x_r0_g114 - x_r0_g34 >= -1
 lin1_80_0_124: p_r0_g124_h44_t80 - x_r0_g124 <= 0
 lin2_80_0_124: p_r0_g124_h44_t80 - x_r0_g44 <= 0
 lin3_80_0_124: p_r0_g124_h44_t80 - x_r0_g124 - x_r0_g44 >= -1
 lin1_80_0_136: p_r0_g136_h56_t80 - x_r0_g136 <= 0
 lin2_80_0_136: p_r0_g136_h56_t80 - x_r0_g56 <= 0
 lin3_80_0_136: p_r0_g136_h56_t80 - x_r0_g136 - x_r0_g56 >= -1
 lin1_80_0_146: p_r0_g146_h66_t80 - x_r0_g146 <= 0
 lin2_80_0_146: p_r0_g146_h66_t80 - x_r0_g66 <= 0
 lin3_80_0_146: p_r0_g146_h66_t80 - x_r0_g146 - x_r0_g66 >= -1
 lin1_80_0_160: p_r0_g160_h80_t80 - x_r0_g160 <= 0
 lin2_80_0_160: p_r0_g160_h80_t80 - x_r0_g80 <= 0
 lin3_80_0_160: p_r0_g160_h80_t80 - x_r0_g160 - x_r0_g80 >= -1
 lin1_80_1_15: p_r1_g15_h102_t80 - x_r1_g15 <= 0
 lin2_80_1_15: p_r1_g15_h102_t80 - x_r1_g102 <= 0
 lin3_80_1_15: p_r1_g15_h102_t80 - x_r1_g15 - x_r1_g102 >= -1
 lin1_80_1_62: p_r1_g62_h149_t80 - x_r1_g62 <= 0
 lin2_80_1_62: p_r1_g62_h149_t80 - x_r1_g149 <= 0
 lin3_80_1_62: p_r1_g62_h149_t80 - x_r1_g62 - x_r1_g149 >= -1
 lin1_80_1_65: p_r1_g65_h152_t80 - x_r1_g65 <= 0
 lin2_80_1_65: p_r1_g65_h152_t80 - x_r1_g152 <= 0
 lin3_80_1_65: p_r1_g65_h152_t80 - x_r1_g65 - x_r1_g152 >= -1
 lin1_80_1_72: p_r1_g72_h159_t80 - x_r1_g72 <= 0
 lin2_80_1_72: p_r1_g72_h159_t80 - x_r1_g159 <= 0
 lin3_80_1_72: p_r1_g72_h159_t80 - x_r1_g72 - x_r1_g159 >= -1
 lin1_80_1_87: p_r1_g87_h7_t80 - x_r1_g87 <= 0
 lin2_80_1_87: p_r1_g87_h7_t80 - x_r1_g7 <= 0
 lin3_80_1_87: p_r1_g87_h7_t80 - x_r1_g87 - x_r1_g7 >= -1
 lin1_80_1_109: p_r1_g109_h29_t80 - x_r1_g109 <= 0
 lin2_80_1_109: p_r1_g109_h29_t80 - x_r1_g29 <= 0
 lin3_80_1_109: p_r1_g109_h29_t80 - x_r1_g109 - x_r1_g29 >= -1
 lin1_80_1_114: p_r1_g114_h34_t80 - x_r1_g114 <= 0
 lin2_80_1_114: p_r1_g114_h34_t80 - x_r1_g34 <= 0
 lin3_80_1_114: p_r1_g114_h34_t80 - x_r1_g114 - x_r1_g34 >= -1
 lin1_80_1_130: p_r1_g130_h50_t80 - x_r1_g130 <= 0
 lin2_80_1_130: p_r1_g130_h50_t80 - x_r1_g50 <= 0
 lin3_80_1_130: p_r1_g130_h50_t80 - x_r1_g130 - x_r1_g50 >= -1
 lin1_80_1_145: p_r1_g145_h65_t80 - x_r1_g145 <= 0
 lin2_80_1_145: p_r1_g145_h65_t80 - x_r1_g65 <= 0
 lin3_80_1_145: p_r1_g145_h65_t80 - x_r1_g145 - x_r1_g65 >= -1
 lin1_80_1_149: p_r1_g149_h69_t80 - x_r1_g149 <= 0
 lin2_80_1_149: p_r1_g149_h69_t80 - x_r1_g69 <= 0
 lin3_80_1_149: p_r1_g149_h69_t80 - x_r1_g149 - x_r1_g69 >= -1
 lin1_80_1_152: p_r1_g152_h72_t80 - x_r1_g152 <= 0
 lin2_80_1_152: p_r1_g152_h72_t80 - x_r1_g72 <= 0
 lin3_80_1_152: p_r1_g152_h72_t80 - x_r1_g152 - x_r1_g72 >= -1
 lin1_80_1_157: p_r1_g157_h77_t80 - x_r1_g157 <= 0
 lin2_80_1_157: p_r1_g157_h77_t80 - x_r1_g77 <= 0
 lin3_80_1_157: p_r1_g157_h77_t80 - x_r1_g157 - x_r1_g77 >= -1
 lin1_80_2_21: p_r2_g21_h108_t80 - x_r2_g21 <= 0
 lin2_80_2_21: p_r2_g21_h108_t80 - x_r2_g108 <= 0
 lin3_80_2_21: p_r2_g21_h108_t80 - x_r2_g21 - x_r2_g108 >= -1
 lin1_80_2_31: p_r2_g31_h118_t80 - x_r2_g31 <= 0
 lin2_80_2_31: p_r2_g31_h118_t80 - x_r2_g118 <= 0
 lin3_80_2_31: p_r2_g31_h118_t80 - x_r2_g31 - x_r2_g118 >= -1
 lin1_80_2_32: p_r2_g32_h119_t80 - x_r2_g32 <= 0
 lin2_80_2_32: p_r2_g32_h119_t80 - x_r2_g119 <= 0
 lin3_80_2_32: p_r2_g32_h119_t80 - x_r2_g32 - x_r2_g119 >= -1
 lin1_80_2_50: p_r2_g50_h137_t80 - x_r2_g50 <= 0
 lin2_80_2_50: p_r2_g50_h137_t80 - x_r2_g137 <= 0
 lin3_80_2_50: p_r2_g50_h137_t80 - x_r2_g50 - x_r2_g137 >= -1
 lin1_80_2_58: p_r2_g58_h145_t80 - x_r2_g58 <= 0
 lin2_80_2_58: p_r2_g58_h145_t80 - x_r2_g145 <= 0
 lin3_80_2_58: p_r2_g58_h145_t80 - x_r2_g58 - x_r2_g145 >= -1
 lin1_80_2_75: p_r2_g75_h162_t80 - x_r2_g75 <= 0
 lin2_80_2_75: p_r2_g75_h162_t80 - x_r2_g162 <= 0
 lin3_80_2_75: p_r2_g75_h162_t80 - x_r2_g75 - x_r2_g162 >= -1
 lin1_80_2_101: p_r2_g101_h21_t80 - x_r2_g101 <= 0
 lin2_80_2_101: p_r2_g101_h21_t80 - x_r2_g21 <= 0
 lin3_80_2_101: p_r2_g101_h21_t80 - x_r2_g101 - x_r2_g21 >= -1
 lin1_80_2_112: p_r2_g112_h32_t80 - x_r2_g112 <= 0
 lin2_80_2_112: p_r2_g112_h32_t80 - x_r2_g32 <= 0
 lin3_80_2_112: p_r2_g112_h32_t80 - x_r2_g112 - x_r2_g32 >= -1
 lin1_80_2_118: p_r2_g118_h38_t80 - x_r2_g118 <= 0
 lin2_80_2_118: p_r2_g118_h38_t80 - x_r2_g38 <= 0
 lin3_80_2_118: p_r2_g118_h38_t80 - x_r2_g118 - x_r2_g38 >= -1
 lin1_80_2_130: p_r2_g130_h50_t80 - x_r2_g130 <= 0
 lin2_80_2_130: p_r2_g130_h50_t80 - x_r2_g50 <= 0
 lin3_80_2_130: p_r2_g130_h50_t80 - x_r2_g130 - x_r2_g50 >= -1
 lin1_80_3_39: p_r3_g39_h126_t80 - x_r3_g39 <= 0
 lin2_80_3_39: p_r3_g39_h126_t80 - x_r3_g126 <= 0
 lin3_80_3_39: p_r3_g39_h126_t80 - x_r3_g39 - x_r3_g126 >= -1
 lin1_80_3_58: p_r3_g58_h145_t80 - x_r3_g58 <= 0
 lin2_80_3_58: p_r3_g58_h145_t80 - x_r3_g145 <= 0
 lin3_80_3_58: p_r3_g58_h145_t80 - x_r3_g58 - x_r3_g145 >= -1
 lin1_80_3_87: p_r3_g87_h7_t80 - x_r3_g87 <= 0
 lin2_80_3_87: p_r3_g87_h7_t80 - x_r3_g7 <= 0
 lin3_80_3_87: p_r3_g87_h7_t80 - x_r3_g87 - x_r3_g7 >= -1
 lin1_80_3_88: p_r3_g88_h8_t80 - x_r3_g88 <= 0
 lin2_80_3_88: p_r3_g88_h8_t80 - x_r3_g8 <= 0
 lin3_80_3_88: p_r3_g88_h8_t80 - x_r3_g88 - x_r3_g8 >= -1
 lin1_80_3_104: p_r3_g104_h24_t80 - x_r3_g104 <= 0
 lin2_80_3_104: p_r3_g104_h24_t80 - x_r3_g24 <= 0
 lin3_80_3_104: p_r3_g104_h24_t80 - x_r3_g104 - x_r3_g24 >= -1
 lin1_80_3_126: p_r3_g126_h46_t80 - x_r3_g126 <= 0
 lin2_80_3_126: p_r3_g126_h46_t80 - x_r3_g46 <= 0
 lin3_80_3_126: p_r3_g126_h46_t80 - x_r3_g126 - x_r3_g46 >= -1
 lin1_80_3_137: p_r3_g137_h57_t80 - x_r3_g137 <= 0
 lin2_80_3_137: p_r3_g137_h57_t80 - x_r3_g57 <= 0
 lin3_80_3_137: p_r3_g137_h57_t80 - x_r3_g137 - x_r3_g57 >= -1
 lin1_80_3_139: p_r3_g139_h59_t80 - x_r3_g139 <= 0
 lin2_80_3_139: p_r3_g139_h59_t80 - x_r3_g59 <= 0
 lin3_80_3_139: p_r3_g139_h59_t80 - x_r3_g139 - x_r3_g59 >= -1
 lin1_80_3_145: p_r3_g145_h65_t80 - x_r3_g145 <= 0
 lin2_80_3_145: p_r3_g145_h65_t80 - x_r3_g65 <= 0
 lin3_80_3_145: p_r3_g145_h65_t80 - x_r3_g145 - x_r3_g65 >= -1
 defect_80: 1 d_80 - 1 x_r0_g11 - 1 x_r0_g15 - 1 x_r0_g20 - 1 x_r0_g26 - 1 x_r0_g38 - 2 x_r0_g40 - 1 x_r0_g43 - 1 x_r0_g44 - 1 x_r0_g45 - 1 x_r0_g50 - 1 x_r0_g56 - 2 x_r0_g78 - 2 x_r0_g83 - 1 x_r0_g122 - 1 x_r0_g124 - 2 x_r0_g134 - 2 x_r0_g135 - 1 x_r0_g136 - 1 x_r0_g146 - 1 x_r0_g149 - 2 x_r1_g4 - 2 x_r1_g8 - 2 x_r1_g9 - 1 x_r1_g15 - 1 x_r1_g26 - 1 x_r1_g37 - 1 x_r1_g48 - 1 x_r1_g53 - 1 x_r1_g66 - 1 x_r1_g69 - 1 x_r1_g74 - 2 x_r1_g76 - 1 x_r1_g77 - 1 x_r1_g114 - 1 x_r1_g120 - 2 x_r1_g126 - 1 x_r1_g127 - 2 x_r1_g144 - 1 x_r1_g148 - 1 x_r1_g155 - 1 x_r1_g157 - 1 x_r1_g159 - 1 x_r1_g162 - 1 x_r2_g0 - 1 x_r2_g2 - 1 x_r2_g6 - 1 x_r2_g15 - 1 x_r2_g27 - 2 x_r2_g34 - 2 x_r2_g35 - 2 x_r2_g40 - 2 x_r2_g42 - 1 x_r2_g66 - 2 x_r2_g70 - 2 x_r2_g73 - 1 x_r2_g83 - 1 x_r2_g85 - 1 x_r2_g101 - 2 x_r2_g105 - 1 x_r2_g106 - 1 x_r2_g108 - 1 x_r2_g110 - 1 x_r2_g112 - 1 x_r2_g119 - 1 x_r2_g130 - 1 x_r2_g145 - 1 x_r2_g161 - 1 x_r2_g162 - 1 x_r3_g2 - 1 x_r3_g7 - 1 x_r3_g9 - 1 x_r3_g21 - 1 x_r3_g23 - 1 x_r3_g24 - 1 x_r3_g25 - 1 x_r3_g26 - 2 x_r3_g31 - 1 x_r3_g36 - 1 x_r3_g39 - 2 x_r3_g42 - 1 x_r3_g49 - 1 x_r3_g51 - 1 x_r3_g57 - 1 x_r3_g58 - 1 x_r3_g59 - 1 x_r3_g60 - 1 x_r3_g63 - 1 x_r3_g73 - 1 x_r3_g83 - 1 x_r3_g88 - 2 x_r3_g100 - 1 x_r3_g104 - 1 x_r3_g130 - 1 x_r3_g132 - 2 x_r3_g161 - 1 x_r3_g166 - 1 p_r0_g4_h91_t80 - 1 p_r0_g19_h106_t80 - 1 p_r0_g34_h121_t80 - 1 p_r0_g65_h152_t80 - 1 p_r0_g80_h0_t80 - 1 p_r0_g91_h11_t80 - 1 p_r0_g106_h26_t80 - 1 p_r0_g114_h34_t80 - 1 p_r0_g124_h44_t80 - 1 p_r0_g136_h56_t80 - 1 p_r0_g146_h66_t80 - 1 p_r0_g160_h80_t80 - 1 p_r1_g15_h102_t80 - 1 p_r1_g62_h149_t80 - 1 p_r1_g65_h152_t80 - 1 p_r1_g72_h159_t80 - 1 p_r1_g87_h7_t80 - 1 p_r1_g109_h29_t80 - 1 p_r1_g114_h34_t80 - 1 p_r1_g130_h50_t80 - 1 p_r1_g145_h65_t80 - 1 p_r1_g149_h69_t80 - 1 p_r1_g152_h72_t80 - 1 p_r1_g157_h77_t80 - 1 p_r2_g21_h108_t80 - 1 p_r2_g31_h118_t80 - 1 p_r2_g32_h119_t80 - 1 p_r2_g50_h137_t80 - 1 p_r2_g58_h145_t80 - 1 p_r2_g75_h162_t80 - 1 p_r2_g101_h21_t80 - 1 p_r2_g112_h32_t80 - 1 p_r2_g118_h38_t80 - 1 p_r2_g130_h50_t80 - 1 p_r3_g39_h126_t80 - 1 p_r3_g58_h145_t80 - 1 p_r3_g87_h7_t80 - 1 p_r3_g88_h8_t80 - 1 p_r3_g104_h24_t80 - 1 p_r3_g126_h46_t80 - 1 p_r3_g137_h57_t80 - 1 p_r3_g139_h59_t80 - 1 p_r3_g145_h65_t80 = -54
 abs_pos_80: d_80 - u_80 <= 0
 abs_neg_80: - d_80 - u_80 <= 0
 max_def_80: u_80 - M <= 0
 cap_80: u_80 <= 1
 tier_M_cap: M <= 2
 flip_def: 1 F - 1 x_r0_g0 - 1 x_r0_g4 - 1 x_r0_g26 - 1 x_r0_g44 - 1 x_r0_g50 - 1 x_r0_g53 - 1 x_r0_g56 - 1 x_r0_g60 - 1 x_r0_g66 - 1 x_r0_g78 - 1 x_r0_g80 - 1 x_r0_g83 - 1 x_r0_g106 - 1 x_r0_g108 - 1 x_r0_g114 - 1 x_r0_g121 - 1 x_r0_g124 - 1 x_r0_g134 - 1 x_r0_g135 - 1 x_r0_g144 - 1 x_r1_g4 - 1 x_r1_g7 - 1 x_r1_g8 - 1 x_r1_g9 - 1 x_r1_g34 - 1 x_r1_g48 - 1 x_r1_g50 - 1 x_r1_g72 - 1 x_r1_g74 - 1 x_r1_g76 - 1 x_r1_g77 - 1 x_r1_g102 - 1 x_r1_g120 - 1 x_r1_g126 - 1 x_r1_g144 - 1 x_r1_g145 - 1 x_r1_g148 - 1 x_r1_g149 - 1 x_r1_g152 - 1 x_r1_g162 - 1 x_r2_g2 - 1 x_r2_g6 - 1 x_r2_g8 - 1 x_r2_g9 - 1 x_r2_g15 - 1 x_r2_g32 - 1 x_r2_g35 - 1 x_r2_g38 - 1 x_r2_g40 - 1 x_r2_g42 - 1 x_r2_g44 - 1 x_r2_g50 - 1 x_r2_g66 - 1 x_r2_g70 - 1 x_r2_g73 - 1 x_r2_g106 - 1 x_r2_g108 - 1 x_r2_g118 - 1 x_r2_g145 - 1 x_r2_g162 - 1 x_r3_g7 - 1 x_r3_g21 - 1 x_r3_g24 - 1 x_r3_g25 - 1 x_r3_g31 - 1 x_r3_g42 - 1 x_r3_g51 - 1 x_r3_g57 - 1 x_r3_g58 - 1 x_r3_g60 - 1 x_r3_g63 - 1 x_r3_g73 - 1 x_r3_g87 - 1 x_r3_g88 - 1 x_r3_g100 - 1 x_r3_g104 - 1 x_r3_g126 - 1 x_r3_g130 - 1 x_r3_g132 - 1 x_r3_g161 + 1 x_r0_g11 + 1 x_r0_g12 + 1 x_r0_g15 + 1 x_r0_g19 + 1 x_r0_g20 + 1 x_r0_g25 + 1 x_r0_g34 + 1 x_r0_g38 + 1 x_r0_g40 + 1 x_r0_g43 + 1 x_r0_g45 + 1 x_r0_g65 + 1 x_r0_g74 + 1 x_r0_g91 + 1 x_r0_g122 + 1 x_r0_g136 + 1 x_r0_g146 + 1 x_r0_g149 + 1 x_r0_g152 + 1 x_r0_g160 + 1 x_r1_g15 + 1 x_r1_g26 + 1 x_r1_g29 + 1 x_r1_g37 + 1 x_r1_g38 + 1 x_r1_g42 + 1 x_r1_g53 + 1 x_r1_g62 + 1 x_r1_g65 + 1 x_r1_g66 + 1 x_r1_g69 + 1 x_r1_g87 + 1 x_r1_g109 + 1 x_r1_g114 + 1 x_r1_g127 + 1 x_r1_g130 + 1 x_r1_g141 + 1 x_r1_g155 + 1 x_r1_g157 + 1 x_r1_g159 + 1 x_r2_g0 + 1 x_r2_g1 + 1 x_r2_g4 + 1 x_r2_g21 + 1 x_r2_g27 + 1 x_r2_g31 + 1 x_r2_g34 + 1 x_r2_g58 + 1 x_r2_g75 + 1 x_r2_g83 + 1 x_r2_g85 + 1 x_r2_g101 + 1 x_r2_g105 + 1 x_r2_g110 + 1 x_r2_g112 + 1 x_r2_g119 + 1 x_r2_g130 + 1 x_r2_g137 + 1 x_r2_g139 + 1 x_r2_g161 + 1 x_r3_g2 + 1 x_r3_g4 + 1 x_r3_g5 + 1 x_r3_g8 + 1 x_r3_g9 + 1 x_r3_g22 + 1 x_r3_g23 + 1 x_r3_g26 + 1 x_r3_g36 + 1 x_r3_g39 + 1 x_r3_g46 + 1 x_r3_g49 + 1 x_r3_g59 + 1 x_r3_g65 + 1 x_r3_g83 + 1 x_r3_g137 + 1 x_r3_g139 + 1 x_r3_g145 + 1 x_r3_g151 + 1 x_r3_g166 = 80
 flip_cap: F <= 4
Bounds
 d_3 free
 0 <= u_3
 d_8 free
 0 <= u_8
 d_9 free
 0 <= u_9
 d_12 free
 0 <= u_12
 d_21 free
 0 <= u_21
 d_27 free
 0 <= u_27
 d_29 free
 0 <= u_29
 d_39 free
 0 <= u_39
 d_42 free
 0 <= u_42
 d_67 free
 0 <= u_67
 d_75 free
 0 <= u_75
 d_80 free
 0 <= u_80
 0 <= M
 0 <= F
Binaries
 x_r0_g0
 x_r0_g4
 x_r0_g11
 x_r0_g12
 x_r0_g15
 x_r0_g19
 x_r0_g20
 x_r0_g25
 x_r0_g26
 x_r0_g34
 x_r0_g38
 x_r0_g40
 x_r0_g43
 x_r0_g44
 x_r0_g45
 x_r0_g50
 x_r0_g53
 x_r0_g56
 x_r0_g60
 x_r0_g65
 x_r0_g66
 x_r0_g74
 x_r0_g78
 x_r0_g80
 x_r0_g83
 x_r0_g91
 x_r0_g106
 x_r0_g108
 x_r0_g114
 x_r0_g121
 x_r0_g122
 x_r0_g124
 x_r0_g134
 x_r0_g135
 x_r0_g136
 x_r0_g144
 x_r0_g146
 x_r0_g149
 x_r0_g152
 x_r0_g160
 x_r1_g4
 x_r1_g7
 x_r1_g8
 x_r1_g9
 x_r1_g15
 x_r1_g26
 x_r1_g29
 x_r1_g34
 x_r1_g37
 x_r1_g38
 x_r1_g42
 x_r1_g48
 x_r1_g50
 x_r1_g53
 x_r1_g62
 x_r1_g65
 x_r1_g66
 x_r1_g69
 x_r1_g72
 x_r1_g74
 x_r1_g76
 x_r1_g77
 x_r1_g87
 x_r1_g102
 x_r1_g109
 x_r1_g114
 x_r1_g120
 x_r1_g126
 x_r1_g127
 x_r1_g130
 x_r1_g141
 x_r1_g144
 x_r1_g145
 x_r1_g148
 x_r1_g149
 x_r1_g152
 x_r1_g155
 x_r1_g157
 x_r1_g159
 x_r1_g162
 x_r2_g0
 x_r2_g1
 x_r2_g2
 x_r2_g4
 x_r2_g6
 x_r2_g8
 x_r2_g9
 x_r2_g15
 x_r2_g21
 x_r2_g27
 x_r2_g31
 x_r2_g32
 x_r2_g34
 x_r2_g35
 x_r2_g38
 x_r2_g40
 x_r2_g42
 x_r2_g44
 x_r2_g50
 x_r2_g58
 x_r2_g66
 x_r2_g70
 x_r2_g73
 x_r2_g75
 x_r2_g83
 x_r2_g85
 x_r2_g101
 x_r2_g105
 x_r2_g106
 x_r2_g108
 x_r2_g110
 x_r2_g112
 x_r2_g118
 x_r2_g119
 x_r2_g130
 x_r2_g137
 x_r2_g139
 x_r2_g145
 x_r2_g161
 x_r2_g162
 x_r3_g2
 x_r3_g4
 x_r3_g5
 x_r3_g7
 x_r3_g8
 x_r3_g9
 x_r3_g21
 x_r3_g22
 x_r3_g23
 x_r3_g24
 x_r3_g25
 x_r3_g26
 x_r3_g31
 x_r3_g36
 x_r3_g39
 x_r3_g42
 x_r3_g46
 x_r3_g49
 x_r3_g51
 x_r3_g57
 x_r3_g58
 x_r3_g59
 x_r3_g60
 x_r3_g63
 x_r3_g65
 x_r3_g73
 x_r3_g83
 x_r3_g87
 x_r3_g88
 x_r3_g100
 x_r3_g104
 x_r3_g126
 x_r3_g130
 x_r3_g132
 x_r3_g137
 x_r3_g139
 x_r3_g145
 x_r3_g151
 x_r3_g161
 x_r3_g166
 p_r0_g15_h12_t3
 p_r0_g43_h40_t3
 p_r0_g53_h50_t3
 p_r0_g56_h53_t3
 p_r0_g83_h80_t3
 p_r0_g124_h121_t3
 p_r0_g149_h146_t3
 p_r0_g152_h149_t3
 p_r1_g7_h4_t3
 p_r1_g29_h26_t3
 p_r1_g37_h34_t3
 p_r1_g53_h50_t3
 p_r1_g65_h62_t3
 p_r1_g69_h66_t3
 p_r1_g72_h69_t3
 p_r1_g77_h74_t3
 p_r1_g130_h127_t3
 p_r1_g144_h141_t3
 p_r1_g148_h145_t3
 p_r1_g152_h149_t3
 p_r1_g155_h152_t3
 p_r1_g162_h159_t3
 p_r2_g4_h1_t3
 p_r2_g9_h6_t3
 p_r2_g34_h31_t3
 p_r2_g35_h32_t3
 p_r2_g38_h35_t3
 p_r2_g73_h70_t3
 p_r2_g108_h105_t3
 p_r3_g2_h166_t3
 p_r3_g5_h2_t3
 p_r3_g7_h4_t3
 p_r3_g8_h5_t3
 p_r3_g24_h21_t3
 p_r3_g25_h22_t3
 p_r3_g26_h23_t3
 p_r3_g39_h36_t3
 p_r3_g42_h39_t3
 p_r3_g49_h46_t3
 p_r3_g60_h57_t3
 p_r3_g63_h60_t3
 p_r0_g12_h4_t8
 p_r0_g19_h11_t8
 p_r0_g20_h12_t8
 p_r0_g34_h26_t8
 p_r0_g53_h45_t8
 p_r0_g74_h66_t8
 p_r0_g91_h83_t8
 p_r0_g114_h106_t8
 p_r0_g122_h114_t8
 p_r0_g144_h136_t8
 p_r0_g152_h144_t8
 p_r0_g160_h152_t8
 p_r1_g15_h7_t8
 p_r1_g34_h26_t8
 p_r1_g37_h29_t8
 p_r1_g42_h34_t8
 p_r1_g50_h42_t8
 p_r1_g74_h66_t8
 p_r1_g77_h69_t8
 p_r1_g149_h141_t8
 p_r1_g152_h144_t8
 p_r1_g157_h149_t8
 p_r2_g2_h161_t8
 p_r2_g8_h0_t8
 p_r2_g9_h1_t8
 p_r2_g35_h27_t8
 p_r2_g40_h32_t8
 p_r2_g42_h34_t8
 p_r2_g50_h42_t8
 p_r2_g58_h50_t8
 p_r2_g66_h58_t8
 p_r2_g83_h75_t8
 p_r2_g118_h110_t8
 p_r2_g145_h137_t8
 p_r3_g2_h161_t8
 p_r3_g7_h166_t8
 p_r3_g31_h23_t8
 p_r3_g39_h31_t8
 p_r3_g57_h49_t8
 p_r3_g59_h51_t8
 p_r3_g65_h57_t8
 p_r3_g73_h65_t8
 p_r3_g145_h137_t8
 p_r0_g20_h11_t9
 p_r0_g34_h25_t9
 p_r0_g43_h34_t9
 p_r0_g53_h44_t9
 p_r0_g65_h56_t9
 p_r0_g74_h65_t9
 p_r0_g83_h74_t9
 p_r0_g144_h135_t9
 p_r1_g4_h162_t9
 p_r1_g38_h29_t9
 p_r1_g62_h53_t9
 p_r1_g74_h65_t9
 p_r1_g157_h148_t9
 p_r2_g4_h162_t9
 p_r2_g9_h0_t9
 p_r2_g15_h6_t9
 p_r2_g40_h31_t9
 p_r2_g44_h35_t9
 p_r2_g75_h66_t9
 p_r2_g110_h101_t9
 p_r2_g119_h110_t9
 p_r2_g139_h130_t9
 p_r3_g8_h166_t9
 p_r3_g31_h22_t9
 p_r3_g51_h42_t9
 p_r3_g58_h49_t9
 p_r3_g60_h51_t9
 p_r3_g139_h130_t9
 p_r0_g12_h0_t12
 p_r0_g38_h26_t12
 p_r0_g50_h38_t12
 p_r0_g56_h44_t12
 p_r0_g65_h53_t12
 p_r0_g78_h66_t12
 p_r0_g134_h122_t12
 p_r0_g136_h124_t12
 p_r0_g146_h134_t12
 p_r1_g4_h159_t12
 p_r1_g7_h162_t12
 p_r1_g38_h26_t12
 p_r1_g50_h38_t12
 p_r1_g62_h50_t12
 p_r1_g65_h53_t12
 p_r1_g74_h62_t12
 p_r1_g77_h65_t12
 p_r1_g114_h102_t12
 p_r1_g126_h114_t12
 p_r1_g157_h145_t12
 p_r2_g6_h161_t12
 p_r2_g21_h9_t12
 p_r2_g27_h15_t12
 p_r2_g44_h32_t12
 p_r2_g50_h38_t12
 p_r2_g70_h58_t12
 p_r2_g85_h73_t12
 p_r2_g118_h106_t12
 p_r2_g130_h118_t12
 p_r3_g21_h9_t12
 p_r3_g36_h24_t12
 p_r3_g51_h39_t12
 p_r3_g58_h46_t12
 p_r3_g63_h51_t12
 p_r3_g100_h88_t12
 p_r3_g151_h139_t12
 p_r0_g0_h146_t21
 p_r0_g25_h4_t21
 p_r0_g40_h19_t21
 p_r0_g65_h44_t21
 p_r0_g66_h45_t21
 p_r0_g74_h53_t21
 p_r0_g135_h114_t21
 p_r1_g9_h155_t21
 p_r1_g29_h8_t21
 p_r1_g50_h29_t21
 p_r1_g69_h48_t21
 p_r1_g74_h53_t21
 p_r1_g87_h66_t21
 p_r1_g130_h109_t21
 p_r1_g141_h120_t21
 p_r1_g148_h127_t21
 p_r1_g162_h141_t21
 p_r2_g15_h161_t21
 p_r2_g21_h0_t21
 p_r2_g27_h6_t21
 p_r2_g42_h21_t21
 p_r2_g106_h85_t21
 p_r2_g139_h118_t21
 p_r3_g5_h151_t21
 p_r3_g23_h2_t21
 p_r3_g25_h4_t21
 p_r3_g26_h5_t21
 p_r3_g42_h21_t21
 p_r3_g46_h25_t21
 p_r3_g57_h36_t21
 p_r3_g60_h39_t21
 p_r3_g63_h42_t21
 p_r3_g104_h83_t21
 p_r3_g151_h130_t21
 p_r3_g166_h145_t21
 p_r0_g4_h144_t27
 p_r0_g12_h152_t27
 p_r0_g20_h160_t27
 p_r0_g38_h11_t27
 p_r0_g53_h26_t27
 p_r0_g65_h38_t27
 p_r0_g80_h53_t27
 p_r0_g83_h56_t27
 p_r0_g135_h108_t27
 p_r0_g149_h122_t27
 p_r1_g4_h144_t27
 p_r1_g8_h148_t27
 p_r1_g9_h149_t27
 p_r1_g15_h155_t27
 p_r1_g34_h7_t27
 p_r1_g42_h15_t27
 p_r1_g53_h26_t27
 p_r1_g65_h38_t27
 p_r1_g69_h42_t27
 p_r1_g77_h50_t27
 p_r1_g114_h87_t27
 p_r1_g141_h114_t27
 p_r1_g157_h130_t27
 p_r2_g21_h161_t27
 p_r2_g27_h0_t27
 p_r2_g31_h4_t27
 p_r2_g35_h8_t27
 p_r2_g42_h15_t27
 p_r2_g58_h31_t27
 p_r2_g85_h58_t27
 p_r2_g110_h83_t27
 p_r2_g112_h85_t27
 p_r2_g137_h110_t27
 p_r2_g139_h112_t27
 p_r2_g145_h118_t27
 p_r3_g5_h145_t27
 p_r3_g21_h161_t27
 p_r3_g26_h166_t27
 p_r3_g31_h4_t27
 p_r3_g36_h9_t27
 p_r3_g49_h22_t27
 p_r3_g51_h24_t27
 p_r3_g58_h31_t27
 p_r3_g63_h36_t27
 p_r3_g73_h46_t27
 p_r3_g87_h60_t27
 p_r3_g100_h73_t27
 p_r3_g166_h139_t27
 p_r0_g11_h149_t29
 p_r0_g40_h11_t29
 p_r0_g44_h15_t29
 p_r0_g74_h45_t29
 p_r0_g135_h106_t29
 p_r1_g7_h145_t29
 p_r1_g37_h8_t29
 p_r1_g38_h9_t29
 p_r1_g66_h37_t29
 p_r1_g77_h48_t29
 p_r1_g149_h120_t29
 p_r1_g155_h126_t29
 p_r1_g159_h130_t29
 p_r2_g1_h139_t29
 p_r2_g31_h2_t29
 p_r2_g35_h6_t29
 p_r2_g38_h9_t29
 p_r2_g44_h15_t29
 p_r2_g50_h21_t29
 p_r2_g73_h44_t29
 p_r2_g112_h83_t29
 p_r2_g130_h101_t29
 p_r2_g137_h108_t29
 p_r2_g139_h110_t29
 p_r3_g7_h145_t29
 p_r3_g23_h161_t29
 p_r3_g31_h2_t29
 p_r3_g36_h7_t29
 p_r3_g51_h22_t29
 p_r3_g60_h31_t29
 p_r3_g65_h36_t29
 p_r3_g87_h58_t29
 p_r3_g88_h59_t29
 p_r3_g161_h132_t29
 p_r3_g166_h137_t29
 p_r0_g43_h4_t39
 p_r0_g50_h11_t39
 p_r0_g65_h26_t39
 p_r0_g83_h44_t39
 p_r0_g122_h83_t39
 p_r0_g160_h121_t39
 p_r1_g29_h157_t39
 p_r1_g34_h162_t39
 p_r1_g48_h9_t39
 p_r1_g65_h26_t39
 p_r1_g76_h37_t39
 p_r1_g77_h38_t39
 p_r1_g87_h48_t39
 p_r1_g126_h87_t39
 p_r1_g141_h102_t39
 p_r1_g148_h109_t39
 p_r1_g159_h120_t39
 p_r2_g2_h130_t39
 p_r2_g9_h137_t39
 p_r2_g34_h162_t39
 p_r2_g40_h1_t39
 p_r2_g66_h27_t39
 p_r2_g70_h31_t39
 p_r2_g73_h34_t39
 p_r2_g83_h44_t39
 p_r2_g105_h66_t39
 p_r2_g112_h73_t39
 p_r2_g145_h106_t39
 p_r3_g2_h130_t39
 p_r3_g4_h132_t39
 p_r3_g9_h137_t39
 p_r3_g23_h151_t39
 p_r3_g46_h7_t39
 p_r3_g60_h21_t39
 p_r3_g63_h24_t39
 p_r3_g65_h26_t39
 p_r3_g88_h49_t39
 p_r3_g104_h65_t39
 p_r3_g126_h87_t39
 p_r3_g139_h100_t39
 p_r0_g11_h136_t42
 p_r0_g19_h144_t42
 p_r0_g53_h11_t42
 p_r0_g80_h38_t42
 p_r0_g108_h66_t42
 p_r0_g122_h80_t42
 p_r1_g34_h159_t42
 p_r1_g37_h162_t42
 p_r1_g50_h8_t42
 p_r1_g76_h34_t42
 p_r1_g114_h72_t42
 p_r1_g144_h102_t42
 p_r1_g162_h120_t42
 p_r2_g42_h0_t42
 p_r2_g44_h2_t42
 p_r2_g50_h8_t42
 p_r2_g73_h31_t42
 p_r2_g108_h66_t42
 p_r2_g112_h70_t42
 p_r2_g161_h119_t42
 p_r3_g5_h130_t42
 p_r3_g7_h132_t42
 p_r3_g26_h151_t42
 p_r3_g36_h161_t42
 p_r3_g46_h4_t42
 p_r3_g49_h7_t42
 p_r3_g51_h9_t42
 p_r3_g63_h21_t42
 p_r3_g65_h23_t42
 p_r3_g73_h31_t42
 p_r3_g88_h46_t42
 p_r3_g100_h58_t42
 p_r3_g130_h88_t42
 p_r0_g34_h134_t67
 p_r0_g44_h144_t67
 p_r0_g60_h160_t67
 p_r0_g78_h11_t67
 p_r1_g9_h109_t67
 p_r1_g26_h126_t67
 p_r1_g48_h148_t67
 p_r1_g62_h162_t67
 p_r1_g74_h7_t67
 p_r1_g76_h9_t67
 p_r1_g109_h42_t67
 p_r1_g120_h53_t67
 p_r1_g141_h74_t67
 p_r1_g144_h77_t67
 p_r2_g1_h101_t67
 p_r2_g6_h106_t67
 p_r2_g8_h108_t67
 p_r2_g73_h6_t67
 p_r2_g75_h8_t67
 p_r2_g101_h34_t67
 p_r2_g105_h38_t67
 p_r2_g137_h70_t67
 p_r3_g4_h104_t67
 p_r3_g26_h126_t67
 p_r3_g39_h139_t67
 p_r3_g51_h151_t67
 p_r3_g88_h21_t67
 p_r3_g126_h59_t67
 p_r3_g130_h63_t67
 p_r3_g132_h65_t67
 p_r0_g43_h135_t75
 p_r0_g44_h136_t75
 p_r0_g60_h152_t75
 p_r0_g135_h60_t75
 p_r0_g149_h74_t75
 p_r1_g34_h126_t75
 p_r1_g38_h130_t75
 p_r1_g53_h145_t75
 p_r1_g65_h157_t75
 p_r1_g109_h34_t75
 p_r1_g141_h66_t75
 p_r1_g144_h69_t75
 p_r1_g149_h74_t75
 p_r1_g152_h77_t75
 p_r1_g162_h87_t75
 p_r2_g9_h101_t75
 p_r2_g27_h119_t75
 p_r2_g38_h130_t75
 p_r2_g70_h162_t75
 p_r2_g75_h0_t75
 p_r2_g83_h8_t75
 p_r2_g106_h31_t75
 p_r2_g110_h35_t75
 p_r2_g119_h44_t75
 p_r2_g145_h70_t75
 p_r3_g8_h100_t75
 p_r3_g59_h151_t75
 p_r3_g83_h8_t75
 p_r3_g100_h25_t75
 p_r3_g126_h51_t75
 p_r3_g132_h57_t75
 p_r0_g4_h91_t80
 p_r0_g19_h106_t80
 p_r0_g34_h121_t80
 p_r0_g65_h152_t80
 p_r0_g80_h0_t80
 p_r0_g91_h11_t80
 p_r0_g106_h26_t80
 p_r0_g114_h34_t80
 p_r0_g124_h44_t80
 p_r0_g136_h56_t80
 p_r0_g146_h66_t80
 p_r0_g160_h80_t80
 p_r1_g15_h102_t80
 p_r1_g62_h149_t80
 p_r1_g65_h152_t80
 p_r1_g72_h159_t80
 p_r1_g87_h7_t80
 p_r1_g109_h29_t80
 p_r1_g114_h34_t80
 p_r1_g130_h50_t80
 p_r1_g145_h65_t80
 p_r1_g149_h69_t80
 p_r1_g152_h72_t80
 p_r1_g157_h77_t80
 p_r2_g21_h108_t80
 p_r2_g31_h118_t80
 p_r2_g32_h119_t80
 p_r2_g50_h137_t80
 p_r2_g58_h145_t80
 p_r2_g75_h162_t80
 p_r2_g101_h21_t80
 p_r2_g112_h32_t80
 p_r2_g118_h38_t80
 p_r2_g130_h50_t80
 p_r3_g39_h126_t80
 p_r3_g58_h145_t80
 p_r3_g87_h7_t80
 p_r3_g88_h8_t80
 p_r3_g104_h24_t80
 p_r3_g126_h46_t80
 p_r3_g137_h57_t80
 p_r3_g139_h59_t80
 p_r3_g145_h65_t80
Generals
 d_3
 d_8
 d_9
 d_12
 d_21
 d_27
 d_29
 d_39
 d_42
 d_67
 d_75
 d_80
 u_3
 u_8
 u_9
 u_12
 u_21
 u_27
 u_29
 u_39
 u_42
 u_67
 u_75
 u_80
 M
 F
End
