* #variable= 1438 #constraint= 3804
* int d_1 d_2 d_3 d_4 d_6 d_8 d_11 d_13 d_14 d_15 d_17 d_19 d_22 d_34 d_40 d_41 d_42 d_43 d_45 d_46 d_47 d_49 d_60 d_64 d_66 d_67 d_68 d_69 d_70 d_71 d_73 d_80 u_1 u_2 u_3 u_4 u_6 u_8 u_11 u_13 u_14 u_15 u_17 u_19 u_22 u_34 u_40 u_41 u_42 u_43 u_45 u_46 u_47 u_49 u_60 u_64 u_66 u_67 u_68 u_69 u_70 u_71 u_73 u_80 M F ;
min: 1 M ;
1 x_r0_g6 1 x_r0_g13 1 x_r0_g16 1 x_r0_g22 1 x_r0_g23 1 x_r0_g25 1 x_r0_g35 1 x_r0_g40 1 x_r0_g44 1 x_r0_g46 1 x_r0_g47 1 x_r0_g49 1 x_r0_g50 1 x_r0_g54 1 x_r0_g66 1 x_r0_g73 1 x_r0_g74 1 x_r0_g77 1 x_r0_g88 1 x_r0_g90 1 x_r0_g95 1 x_r0_g99 1 x_r0_g101 1 x_r0_g110 1 x_r0_g111 1 x_r0_g112 1 x_r0_g113 1 x_r0_g116 1 x_r0_g117 1 x_r0_g118 1 x_r0_g128 1 x_r0_g132 1 x_r0_g135 1 x_r0_g136 1 x_r0_g139 1 x_r0_g140 1 x_r0_g144 1 x_r0_g152 1 x_r0_g156 1 x_r0_g162 = 20 ;
1 x_r1_g0 1 x_r1_g15 1 x_r1_g16 1 x_r1_g19 1 x_r1_g20 1 x_r1_g28 1 x_r1_g29 1 x_r1_g31 1 x_r1_g33 1 x_r1_g35 1 x_r1_g36 1 x_r1_g38 1 x_r1_g41 1 x_r1_g42 1 x_r1_g43 1 x_r1_g44 1 x_r1_g46 1 x_r1_g48 1 x_r1_g58 1 x_r1_g71 1 x_r1_g73 1 x_r1_g76 1 x_r1_g77 1 x_r1_g78 1 x_r1_g82 1 x_r1_g85 1 x_r1_g89 1 x_r1_g91 1 x_r1_g92 1 x_r1_g99 1 x_r1_g101 1 x_r1_g114 1 x_r1_g116 1 x_r1_g126 1 x_r1_g128 1 x_r1_g130 1 x_r1_g131 1 x_r1_g132 1 x_r1_g157 1 x_r1_g164 = 20 ;
1 x_r2_g5 1 x_r2_g6 1 x_r2_g7 1 x_r2_g8 1 x_r2_g10 1 x_r2_g13 1 x_r2_g14 1 x_r2_g17 1 x_r2_g27 1 x_r2_g29 1 x_r2_g33 1 x_r2_g34 1 x_r2_g35 1 x_r2_g41 1 x_r2_g42 1 x_r2_g47 1 x_r2_g48 1 x_r2_g56 1 x_r2_g80 1 x_r2_g85 1 x_r2_g93 1 x_r2_g106 1 x_r2_g111 1 x_r2_g112 1 x_r2_g114 1 x_r2_g116 1 x_r2_g118 1 x_r2_g119 1 x_r2_g125 1 x_r2_g127 1 x_r2_g131 1 x_r2_g132 1 x_r2_g133 1 x_r2_g138 1 x_r2_g139 1 x_r2_g141 1 x_r2_g145 1 x_r2_g146 1 x_r2_g151 1 x_r2_g161 = 20 ;
1 x_r3_g0 1 x_r3_g4 1 x_r3_g6 1 x_r3_g12 1 x_r3_g21 1 x_r3_g23 1 x_r3_g24 1 x_r3_g29 1 x_r3_g31 1 x_r3_g52 1 x_r3_g53 1 x_r3_g54 1 x_r3_g55 1 x_r3_g58 1 x_r3_g60 1 x_r3_g61 1 x_r3_g63 1 x_r3_g68 1 x_r3_g74 1 x_r3_g77 1 x_r3_g78 1 x_r3_g82 1 x_r3_g84 1 x_r3_g97 1 x_r3_g99 1 x_r3_g110 1 x_r3_g111 1 x_r3_g112 1 x_r3_g122 1 x_r3_g124 1 x_r3_g125 1 x_r3_g132 1 x_r3_g133 1 x_r3_g136 1 x_r3_g139 1 x_r3_g145 1 x_r3_g146 1 x_r3_g159 1 x_r3_g160 1 x_r3_g165 = 20 ;
1 p_r0_g23_h22_t1 -1 x_r0_g23 <= 0 ;
1 p_r0_g23_h22_t1 -1 x_r0_g22 <= 0 ;
1 p_r0_g23_h22_t1 -1 x_r0_g23 -1 x_r0_g22 >= -1 ;
1 p_r0_g47_h46_t1 -1 x_r0_g47 <= 0 ;
1 p_r0_g47_h46_t1 -1 x_r0_g46 <= 0 ;
1 p_r0_g47_h46_t1 -1 x_r0_g47 -1 x_r0_g46 >= -1 ;
1 p_r0_g50_h49_t1 -1 x_r0_g50 <= 0 ;
1 p_r0_g50_h49_t1 -1 x_r0_g49 <= 0 ;
1 p_r0_g50_h49_t1 -1 x_r0_g50 -1 x_r0_g49 >= -1 ;
1 p_r0_g74_h73_t1 -1 x_r0_g74 <= 0 ;
1 p_r0_g74_h73_t1 -1 x_r0_g73 <= 0 ;
1 p_r0_g74_h73_t1 -1 x_r0_g74 -1 x_r0_g73 >= -1 ;
1 p_r0_g111_h110_t1 -1 x_r0_g111 <= 0 ;
1 p_r0_g111_h110_t1 -1 x_r0_g110 <= 0 ;
1 p_r0_g111_h110_t1 -1 x_r0_g111 -1 x_r0_g110 >= -1 ;
1 p_r0_g112_h111_t1 -1 x_r0_g112 <= 0 ;
1 p_r0_g112_h111_t1 -1 x_r0_g111 <= 0 ;
1 p_r0_g112_h111_t1 -1 x_r0_g112 -1 x_r0_g111 >= -1 ;
1 p_r0_g113_h112_t1 -1 x_r0_g113 <= 0 ;
1 p_r0_g113_h112_t1 -1 x_r0_g112 <= 0 ;
1 p_r0_g113_h112_t1 -1 x_r0_g113 -1 x_r0_g112 >= -1 ;
1 p_r0_g117_h116_t1 -1 x_r0_g117 <= 0 ;
1 p_r0_g117_h116_t1 -1 x_r0_g116 <= 0 ;
1 p_r0_g117_h116_t1 -1 x_r0_g117 -1 x_r0_g116 >= -1 ;
1 p_r0_g118_h117_t1 -1 x_r0_g118 <= 0 ;
1 p_r0_g118_h117_t1 -1 x_r0_g117 <= 0 ;
1 p_r0_g118_h117_t1 -1 x_r0_g118 -1 x_r0_g117 >= -1 ;
1 p_r0_g136_h135_t1 -1 x_r0_g136 <= 0 ;
1 p_r0_g136_h135_t1 -1 x_r0_g135 <= 0 ;
1 p_r0_g136_h135_t1 -1 x_r0_g136 -1 x_r0_g135 >= -1 ;
1 p_r0_g140_h139_t1 -1 x_r0_g140 <= 0 ;
1 p_r0_g140_h139_t1 -1 x_r0_g139 <= 0 ;
1 p_r0_g140_h139_t1 -1 x_r0_g140 -1 x_r0_g139 >= -1 ;
1 p_r1_g16_h15_t1 -1 x_r1_g16 <= 0 ;
1 p_r1_g16_h15_t1 -1 x_r1_g15 <= 0 ;
1 p_r1_g16_h15_t1 -1 x_r1_g16 -1 x_r1_g15 >= -1 ;
1 p_r1_g20_h19_t1 -1 x_r1_g20 <= 0 ;
1 p_r1_g20_h19_t1 -1 x_r1_g19 <= 0 ;
1 p_r1_g20_h19_t1 -1 x_r1_g20 -1 x_r1_g19 >= -1 ;
1 p_r1_g29_h28_t1 -1 x_r1_g29 <= 0 ;
1 p_r1_g29_h28_t1 -1 x_r1_g28 <= 0 ;
1 p_r1_g29_h28_t1 -1 x_r1_g29 -1 x_r1_g28 >= -1 ;
1 p_r1_g36_h35_t1 -1 x_r1_g36 <= 0 ;
1 p_r1_g36_h35_t1 -1 x_r1_g35 <= 0 ;
1 p_r1_g36_h35_t1 -1 x_r1_g36 -1 x_r1_g35 >= -1 ;
1 p_r1_g42_h41_t1 -1 x_r1_g42 <= 0 ;
1 p_r1_g42_h41_t1 -1 x_r1_g41 <= 0 ;
1 p_r1_g42_h41_t1 -1 x_r1_g42 -1 x_r1_g41 >= -1 ;
1 p_r1_g43_h42_t1 -1 x_r1_g43 <= 0 ;
1 p_r1_g43_h42_t1 -1 x_r1_g42 <= 0 ;
1 p_r1_g43_h42_t1 -1 x_r1_g43 -1 x_r1_g42 >= -1 ;
1 p_r1_g44_h43_t1 -1 x_r1_g44 <= 0 ;
1 p_r1_g44_h43_t1 -1 x_r1_g43 <= 0 ;
1 p_r1_g44_h43_t1 -1 x_r1_g44 -1 x_r1_g43 >= -1 ;
1 p_r1_g77_h76_t1 -1 x_r1_g77 <= 0 ;
1 p_r1_g77_h76_t1 -1 x_r1_g76 <= 0 ;
1 p_r1_g77_h76_t1 -1 x_r1_g77 -1 x_r1_g76 >= -1 ;
1 p_r1_g78_h77_t1 -1 x_r1_g78 <= 0 ;
1 p_r1_g78_h77_t1 -1 x_r1_g77 <= 0 ;
1 p_r1_g78_h77_t1 -1 x_r1_g78 -1 x_r1_g77 >= -1 ;
1 p_r1_g92_h91_t1 -1 x_r1_g92 <= 0 ;
1 p_r1_g92_h91_t1 -1 x_r1_g91 <= 0 ;
1 p_r1_g92_h91_t1 -1 x_r1_g92 -1 x_r1_g91 >= -1 ;
1 p_r1_g131_h130_t1 -1 x_r1_g131 <= 0 ;
1 p_r1_g131_h130_t1 -1 x_r1_g130 <= 0 ;
1 p_r1_g131_h130_t1 -1 x_r1_g131 -1 x_r1_g130 >= -1 ;
1 p_r1_g132_h131_t1 -1 x_r1_g132 <= 0 ;
1 p_r1_g132_h131_t1 -1 x_r1_g131 <= 0 ;
1 p_r1_g132_h131_t1 -1 x_r1_g132 -1 x_r1_g131 >= -1 ;
1 p_r2_g6_h5_t1 -1 x_r2_g6 <= 0 ;
1 p_r2_g6_h5_t1 -1 x_r2_g5 <= 0 ;
1 p_r2_g6_h5_t1 -1 x_r2_g6 -1 x_r2_g5 >= -1 ;
1 p_r2_g7_h6_t1 -1 x_r2_g7 <= 0 ;
1 p_r2_g7_h6_t1 -1 x_r2_g6 <= 0 ;
1 p_r2_g7_h6_t1 -1 x_r2_g7 -1 x_r2_g6 >= -1 ;
1 p_r2_g8_h7_t1 -1 x_r2_g8 <= 0 ;
1 p_r2_g8_h7_t1 -1 x_r2_g7 <= 0 ;
1 p_r2_g8_h7_t1 -1 x_r2_g8 -1 x_r2_g7 >= -1 ;
1 p_r2_g14_h13_t1 -1 x_r2_g14 <= 0 ;
1 p_r2_g14_h13_t1 -1 x_r2_g13 <= 0 ;
1 p_r2_g14_h13_t1 -1 x_r2_g14 -1 x_r2_g13 >= -1 ;
1 p_r2_g34_h33_t1 -1 x_r2_g34 <= 0 ;
1 p_r2_g34_h33_t1 -1 x_r2_g33 <= 0 ;
1 p_r2_g34_h33_t1 -1 x_r2_g34 -1 x_r2_g33 >= -1 ;
1 p_r2_g35_h34_t1 -1 x_r2_g35 <= 0 ;
1 p_r2_g35_h34_t1 -1 x_r2_g34 <= 0 ;
1 p_r2_g35_h34_t1 -1 x_r2_g35 -1 x_r2_g34 >= -1 ;
1 p_r2_g42_h41_t1 -1 x_r2_g42 <= 0 ;
1 p_r2_g42_h41_t1 -1 x_r2_g41 <= 0 ;
1 p_r2_g42_h41_t1 -1 x_r2_g42 -1 x_r2_g41 >= -1 ;
1 p_r2_g48_h47_t1 -1 x_r2_g48 <= 0 ;
1 p_r2_g48_h47_t1 -1 x_r2_g47 <= 0 ;
1 p_r2_g48_h47_t1 -1 x_r2_g48 -1 x_r2_g47 >= -1 ;
1 p_r2_g112_h111_t1 -1 x_r2_g112 <= 0 ;
1 p_r2_g112_h111_t1 -1 x_r2_g111 <= 0 ;
1 p_r2_g112_h111_t1 -1 x_r2_g112 -1 x_r2_g111 >= -1 ;
1 p_r2_g119_h118_t1 -1 x_r2_g119 <= 0 ;
1 p_r2_g119_h118_t1 -1 x_r2_g118 <= 0 ;
1 p_r2_g119_h118_t1 -1 x_r2_g119 -1 x_r2_g118 >= -1 ;
1 p_r2_g132_h131_t1 -1 x_r2_g132 <= 0 ;
1 p_r2_g132_h131_t1 -1 x_r2_g131 <= 0 ;
1 p_r2_g132_h131_t1 -1 x_r2_g132 -1 x_r2_g131 >= -1 ;
1 p_r2_g133_h132_t1 -1 x_r2_g133 <= 0 ;
1 p_r2_g133_h132_t1 -1 x_r2_g132 <= 0 ;
1 p_r2_g133_h132_t1 -1 x_r2_g133 -1 x_r2_g132 >= -1 ;
1 p_r2_g139_h138_t1 -1 x_r2_g139 <= 0 ;
1 p_r2_g139_h138_t1 -1 x_r2_g138 <= 0 ;
1 p_r2_g139_h138_t1 -1 x_r2_g139 -1 x_r2_g138 >= -1 ;
1 p_r2_g146_h145_t1 -1 x_r2_g146 <= 0 ;
1 p_r2_g146_h145_t1 -1 x_r2_g145 <= 0 ;
1 p_r2_g146_h145_t1 -1 x_r2_g146 -1 x_r2_g145 >= -1 ;
1 p_r3_g24_h23_t1 -1 x_r3_g24 <= 0 ;
1 p_r3_g24_h23_t1 -1 x_r3_g23 <= 0 ;
1 p_r3_g24_h23_t1 -1 x_r3_g24 -1 x_r3_g23 >= -1 ;
1 p_r3_g53_h52_t1 -1 x_r3_g53 <= 0 ;
1 p_r3_g53_h52_t1 -1 x_r3_g52 <= 0 ;
1 p_r3_g53_h52_t1 -1 x_r3_g53 -1 x_r3_g52 >= -1 ;
1 p_r3_g54_h53_t1 -1 x_r3_g54 <= 0 ;
1 p_r3_g54_h53_t1 -1 x_r3_g53 <= 0 ;
1 p_r3_g54_h53_t1 -1 x_r3_g54 -1 x_r3_g53 >= -1 ;
1 p_r3_g55_h54_t1 -1 x_r3_g55 <= 0 ;
1 p_r3_g55_h54_t1 -1 x_r3_g54 <= 0 ;
1 p_r3_g55_h54_t1 -1 x_r3_g55 -1 x_r3_g54 >= -1 ;
1 p_r3_g61_h60_t1 -1 x_r3_g61 <= 0 ;
1 p_r3_g61_h60_t1 -1 x_r3_g60 <= 0 ;
1 p_r3_g61_h60_t1 -1 x_r3_g61 -1 x_r3_g60 >= -1 ;
1 p_r3_g78_h77_t1 -1 x_r3_g78 <= 0 ;
1 p_r3_g78_h77_t1 -1 x_r3_g77 <= 0 ;
1 p_r3_g78_h77_t1 -1 x_r3_g78 -1 x_r3_g77 >= -1 ;
1 p_r3_g111_h110_t1 -1 x_r3_g111 <= 0 ;
1 p_r3_g111_h110_t1 -1 x_r3_g110 <= 0 ;
1 p_r3_g111_h110_t1 -1 x_r3_g111 -1 x_r3_g110 >= -1 ;
1 p_r3_g112_h111_t1 -1 x_r3_g112 <= 0 ;
1 p_r3_g112_h111_t1 -1 x_r3_g111 <= 0 ;
1 p_r3_g112_h111_t1 -1 x_r3_g112 -1 x_r3_g111 >= -1 ;
1 p_r3_g125_h124_t1 -1 x_r3_g125 <= 0 ;
1 p_r3_g125_h124_t1 -1 x_r3_g124 <= 0 ;
1 p_r3_g125_h124_t1 -1 x_r3_g125 -1 x_r3_g124 >= -1 ;
1 p_r3_g133_h132_t1 -1 x_r3_g133 <= 0 ;
1 p_r3_g133_h132_t1 -1 x_r3_g132 <= 0 ;
1 p_r3_g133_h132_t1 -1 x_r3_g133 -1 x_r3_g132 >= -1 ;
1 p_r3_g146_h145_t1 -1 x_r3_g146 <= 0 ;
1 p_r3_g146_h145_t1 -1 x_r3_g145 <= 0 ;
1 p_r3_g146_h145_t1 -1 x_r3_g146 -1 x_r3_g145 >= -1 ;
1 p_r3_g160_h159_t1 -1 x_r3_g160 <= 0 ;
1 p_r3_g160_h159_t1 -1 x_r3_g159 <= 0 ;
1 p_r3_g160_h159_t1 -1 x_r3_g160 -1 x_r3_g159 >= -1 ;
1 d_1 -2 x_r0_g6 -2 x_r0_g13 -1 x_r0_g16 -2 x_r0_g35 -2 x_r0_g44 -1 x_r0_g46 -1 x_r0_g47 -1 x_r0_g49 -1 x_r0_g50 -1 x_r0_g54 -2 x_r0_g66 -2 x_r0_g99 -2 x_r0_g101 -1 x_r0_g118 -1 x_r0_g128 -1 x_r0_g132 -1 x_r0_g136 -1 x_r0_g144 -1 x_r0_g152 -2 x_r0_g156 -1 x_r0_g162 -2 x_r1_g0 -1 x_r1_g19 -1 x_r1_g28 -1 x_r1_g31 -1 x_r1_g33 -1 x_r1_g36 -2 x_r1_g38 -1 x_r1_g41 -1 x_r1_g48 -1 x_r1_g58 -1 x_r1_g71 -1 x_r1_g78 -1 x_r1_g82 -1 x_r1_g85 -2 x_r1_g89 -1 x_r1_g91 -2 x_r1_g99 -1 x_r1_g101 -2 x_r1_g114 -1 x_r1_g116 -1 x_r1_g126 -1 x_r1_g128 -1 x_r1_g157 -1 x_r1_g164 -1 x_r2_g5 -1 x_r2_g17 -2 x_r2_g27 -2 x_r2_g29 -1 x_r2_g42 -1 x_r2_g47 -1 x_r2_g48 -1 x_r2_g85 -1 x_r2_g93 -1 x_r2_g106 -1 x_r2_g111 -1 x_r2_g112 -2 x_r2_g114 -1 x_r2_g116 -1 x_r2_g119 -1 x_r2_g125 -2 x_r2_g127 -1 x_r2_g131 -1 x_r2_g133 -1 x_r2_g138 -1 x_r2_g139 -1 x_r2_g141 -2 x_r2_g151 -1 x_r2_g161 -2 x_r3_g0 -1 x_r3_g4 -1 x_r3_g6 -1 x_r3_g12 -2 x_r3_g21 -1 x_r3_g23 -2 x_r3_g29 -2 x_r3_g31 -1 x_r3_g58 -1 x_r3_g60 -1 x_r3_g61 -1 x_r3_g63 -1 x_r3_g74 -1 x_r3_g77 -2 x_r3_g82 -1 x_r3_g84 -1 x_r3_g97 -1 x_r3_g99 -1 x_r3_g122 -1 x_r3_g124 -1 x_r3_g133 -1 x_r3_g136 -2 x_r3_g139 -1 x_r3_g145 -1 x_r3_g165 -1 p_r0_g23_h22_t1 -1 p_r0_g47_h46_t1 -1 p_r0_g50_h49_t1 -1 p_r0_g74_h73_t1 -1 p_r0_g111_h110_t1 -1 p_r0_g112_h111_t1 -1 p_r0_g113_h112_t1 -1 p_r0_g117_h116_t1 -1 p_r0_g118_h117_t1 -1 p_r0_g136_h135_t1 -1 p_r0_g140_h139_t1 -1 p_r1_g16_h15_t1 -1 p_r1_g20_h19_t1 -1 p_r1_g29_h28_t1 -1 p_r1_g36_h35_t1 -1 p_r1_g42_h41_t1 -1 p_r1_g43_h42_t1 -1 p_r1_g44_h43_t1 -1 p_r1_g77_h76_t1 -1 p_r1_g78_h77_t1 -1 p_r1_g92_h91_t1 -1 p_r1_g131_h130_t1 -1 p_r1_g132_h131_t1 -1 p_r2_g6_h5_t1 -1 p_r2_g7_h6_t1 -1 p_r2_g8_h7_t1 -1 p_r2_g14_h13_t1 -1 p_r2_g34_h33_t1 -1 p_r2_g35_h34_t1 -1 p_r2_g42_h41_t1 -1 p_r2_g48_h47_t1 -1 p_r2_g112_h111_t1 -1 p_r2_g119_h118_t1 -1 p_r2_g132_h131_t1 -1 p_r2_g133_h132_t1 -1 p_r2_g139_h138_t1 -1 p_r2_g146_h145_t1 -1 p_r3_g24_h23_t1 -1 p_r3_g53_h52_t1 -1 p_r3_g54_h53_t1 -1 p_r3_g55_h54_t1 -1 p_r3_g61_h60_t1 -1 p_r3_g78_h77_t1 -1 p_r3_g111_h110_t1 -1 p_r3_g112_h111_t1 -1 p_r3_g125_h124_t1 -1 p_r3_g133_h132_t1 -1 p_r3_g146_h145_t1 -1 p_r3_g160_h159_t1 = -61 ;
1 d_1 -1 u_1 <= 0 ;
-1 d_1 -1 u_1 <= 0 ;
1 u_1 -1 M <= 0 ;
1 u_1 <= 2 ;
1 p_r0_g25_h23_t2 -1 x_r0_g25 <= 0 ;
1 p_r0_g25_h23_t2 -1 x_r0_g23 <= 0 ;
1 p_r0_g25_h23_t2 -1 x_r0_g25 -1 x_r0_g23 >= -1 ;
1 p_r0_g46_h44_t2 -1 x_r0_g46 <= 0 ;
1 p_r0_g46_h44_t2 -1 x_r0_g44 <= 0 ;
1 p_r0_g46_h44_t2 -1 x_r0_g46 -1 x_r0_g44 >= -1 ;
1 p_r0_g49_h47_t2 -1 x_r0_g49 <= 0 ;
1 p_r0_g49_h47_t2 -1 x_r0_g47 <= 0 ;
1 p_r0_g49_h47_t2 -1 x_r0_g49 -1 x_r0_g47 >= -1 ;
1 p_r0_g90_h88_t2 -1 x_r0_g90 <= 0 ;
1 p_r0_g90_h88_t2 -1 x_r0_g88 <= 0 ;
1 p_r0_g90_h88_t2 -1 x_r0_g90 -1 x_r0_g88 >= -1 ;
1 p_r0_g101_h99_t2 -1 x_r0_g101 <= 0 ;
1 p_r0_g101_h99_t2 -1 x_r0_g99 <= 0 ;
1 p_r0_g101_h99_t2 -1 x_r0_g101 -1 x_r0_g99 >= -1 ;
1 p_r0_g112_h110_t2 -1 x_r0_g112 <= 0 ;
1 p_r0_g112_h110_t2 -1 x_r0_g110 <= 0 ;
1 p_r0_g112_h110_t2 -1 x_r0_g112 -1 x_r0_g110 >= -1 ;
1 p_r0_g113_h111_t2 -1 x_r0_g113 <= 0 ;
1 p_r0_g113_h111_t2 -1 x_r0_g111 <= 0 ;
1 p_r0_g113_h111_t2 -1 x_r0_g113 -1 x_r0_g111 >= -1 ;
1 p_r0_g118_h116_t2 -1 x_r0_g118 <= 0 ;
1 p_r0_g118_h116_t2 -1 x_r0_g116 <= 0 ;
1 p_r0_g118_h116_t2 -1 x_r0_g118 -1 x_r0_g116 >= -1 ;
1 p_r1_g31_h29_t2 -1 x_r1_g31 <= 0 ;
1 p_r1_g31_h29_t2 -1 x_r1_g29 <= 0 ;
1 p_r1_g31_h29_t2 -1 x_r1_g31 -1 x_r1_g29 >= -1 ;
1 p_r1_g33_h31_t2 -1 x_r1_g33 <= 0 ;
1 p_r1_g33_h31_t2 -1 x_r1_g31 <= 0 ;
1 p_r1_g33_h31_t2 -1 x_r1_g33 -1 x_r1_g31 >= -1 ;
1 p_r1_g35_h33_t2 -1 x_r1_g35 <= 0 ;
1 p_r1_g35_h33_t2 -1 x_r1_g33 <= 0 ;
1 p_r1_g35_h33_t2 -1 x_r1_g35 -1 x_r1_g33 >= -1 ;
1 p_r1_g38_h36_t2 -1 x_r1_g38 <= 0 ;
1 p_r1_g38_h36_t2 -1 x_r1_g36 <= 0 ;
1 p_r1_g38_h36_t2 -1 x_r1_g38 -1 x_r1_g36 >= -1 ;
1 p_r1_g43_h41_t2 -1 x_r1_g43 <= 0 ;
1 p_r1_g43_h41_t2 -1 x_r1_g41 <= 0 ;
1 p_r1_g43_h41_t2 -1 x_r1_g43 -1 x_r1_g41 >= -1 ;
1 p_r1_g44_h42_t2 -1 x_r1_g44 <= 0 ;
1 p_r1_g44_h42_t2 -1 x_r1_g42 <= 0 ;
1 p_r1_g44_h42_t2 -1 x_r1_g44 -1 x_r1_g42 >= -1 ;
1 p_r1_g46_h44_t2 -1 x_r1_g46 <= 0 ;
1 p_r1_g46_h44_t2 -1 x_r1_g44 <= 0 ;
1 p_r1_g46_h44_t2 -1 x_r1_g46 -1 x_r1_g44 >= -1 ;
1 p_r1_g48_h46_t2 -1 x_r1_g48 <= 0 ;
1 p_r1_g48_h46_t2 -1 x_r1_g46 <= 0 ;
1 p_r1_g48_h46_t2 -1 x_r1_g48 -1 x_r1_g46 >= -1 ;
1 p_r1_g73_h71_t2 -1 x_r1_g73 <= 0 ;
1 p_r1_g73_h71_t2 -1 x_r1_g71 <= 0 ;
1 p_r1_g73_h71_t2 -1 x_r1_g73 -1 x_r1_g71 >= -1 ;
1 p_r1_g78_h76_t2 -1 x_r1_g78 <= 0 ;
1 p_r1_g78_h76_t2 -1 x_r1_g76 <= 0 ;
1 p_r1_g78_h76_t2 -1 x_r1_g78 -1 x_r1_g76 >= -1 ;
1 p_r1_g91_h89_t2 -1 x_r1_g91 <= 0 ;
1 p_r1_g91_h89_t2 -1 x_r1_g89 <= 0 ;
1 p_r1_g91_h89_t2 -1 x_r1_g91 -1 x_r1_g89 >= -1 ;
1 p_r1_g101_h99_t2 -1 x_r1_g101 <= 0 ;
1 p_r1_g101_h99_t2 -1 x_r1_g99 <= 0 ;
1 p_r1_g101_h99_t2 -1 x_r1_g101 -1 x_r1_g99 >= -1 ;
1 p_r1_g116_h114_t2 -1 x_r1_g116 <= 0 ;
1 p_r1_g116_h114_t2 -1 x_r1_g114 <= 0 ;
1 p_r1_g116_h114_t2 -1 x_r1_g116 -1 x_r1_g114 >= -1 ;
1 p_r1_g128_h126_t2 -1 x_r1_g128 <= 0 ;
1 p_r1_g128_h126_t2 -1 x_r1_g126 <= 0 ;
1 p_r1_g128_h126_t2 -1 x_r1_g128 -1 x_r1_g126 >= -1 ;
1 p_r1_g130_h128_t2 -1 x_r1_g130 <= 0 ;
1 p_r1_g130_h128_t2 -1 x_r1_g128 <= 0 ;
1 p_r1_g130_h128_t2 -1 x_r1_g130 -1 x_r1_g128 >= -1 ;
1 p_r1_g132_h130_t2 -1 x_r1_g132 <= 0 ;
1 p_r1_g132_h130_t2 -1 x_r1_g130 <= 0 ;
1 p_r1_g132_h130_t2 -1 x_r1_g132 -1 x_r1_g130 >= -1 ;
1 p_r2_g7_h5_t2 -1 x_r2_g7 <= 0 ;
1 p_r2_g7_h5_t2 -1 x_r2_g5 <= 0 ;
1 p_r2_g7_h5_t2 -1 x_r2_g7 -1 x_r2_g5 >= -1 ;
1 p_r2_g8_h6_t2 -1 x_r2_g8 <= 0 ;
1 p_r2_g8_h6_t2 -1 x_r2_g6 <= 0 ;
1 p_r2_g8_h6_t2 -1 x_r2_g8 -1 x_r2_g6 >= -1 ;
1 p_r2_g10_h8_t2 -1 x_r2_g10 <= 0 ;
1 p_r2_g10_h8_t2 -1 x_r2_g8 <= 0 ;
1 p_r2_g10_h8_t2 -1 x_r2_g10 -1 x_r2_g8 >= -1 ;
1 p_r2_g29_h27_t2 -1 x_r2_g29 <= 0 ;
1 p_r2_g29_h27_t2 -1 x_r2_g27 <= 0 ;
1 p_r2_g29_h27_t2 -1 x_r2_g29 -1 x_r2_g27 >= -1 ;
1 p_r2_g35_h33_t2 -1 x_r2_g35 <= 0 ;
1 p_r2_g35_h33_t2 -1 x_r2_g33 <= 0 ;
1 p_r2_g35_h33_t2 -1 x_r2_g35 -1 x_r2_g33 >= -1 ;
1 p_r2_g114_h112_t2 -1 x_r2_g114 <= 0 ;
1 p_r2_g114_h112_t2 -1 x_r2_g112 <= 0 ;
1 p_r2_g114_h112_t2 -1 x_r2_g114 -1 x_r2_g112 >= -1 ;
1 p_r2_g116_h114_t2 -1 x_r2_g116 <= 0 ;
1 p_r2_g116_h114_t2 -1 x_r2_g114 <= 0 ;
1 p_r2_g116_h114_t2 -1 x_r2_g116 -1 x_r2_g114 >= -1 ;
1 p_r2_g118_h116_t2 -1 x_r2_g118 <= 0 ;
1 p_r2_g118_h116_t2 -1 x_r2_g116 <= 0 ;
1 p_r2_g118_h116_t2 -1 x_r2_g118 -1 x_r2_g116 >= -1 ;
1 p_r2_g127_h125_t2 -1 x_r2_g127 <= 0 ;
1 p_r2_g127_h125_t2 -1 x_r2_g125 <= 0 ;
1 p_r2_g127_h125_t2 -1 x_r2_g127 -1 x_r2_g125 >= -1 ;
1 p_r2_g133_h131_t2 -1 x_r2_g133 <= 0 ;
1 p_r2_g133_h131_t2 -1 x_r2_g131 <= 0 ;
1 p_r2_g133_h131_t2 -1 x_r2_g133 -1 x_r2_g131 >= -1 ;
1 p_r2_g141_h139_t2 -1 x_r2_g141 <= 0 ;
1 p_r2_g141_h139_t2 -1 x_r2_g139 <= 0 ;
1 p_r2_g141_h139_t2 -1 x_r2_g141 -1 x_r2_g139 >= -1 ;
1 p_r3_g0_h165_t2 -1 x_r3_g0 <= 0 ;
1 p_r3_g0_h165_t2 -1 x_r3_g165 <= 0 ;
1 p_r3_g0_h165_t2 -1 x_r3_g0 -1 x_r3_g165 >= -1 ;
1 p_r3_g6_h4_t2 -1 x_r3_g6 <= 0 ;
1 p_r3_g6_h4_t2 -1 x_r3_g4 <= 0 ;
1 p_r3_g6_h4_t2 -1 x_r3_g6 -1 x_r3_g4 >= -1 ;
1 p_r3_g23_h21_t2 -1 x_r3_g23 <= 0 ;
1 p_r3_g23_h21_t2 -1 x_r3_g21 <= 0 ;
1 p_r3_g23_h21_t2 -1 x_r3_g23 -1 x_r3_g21 >= -1 ;
1 p_r3_g31_h29_t2 -1 x_r3_g31 <= 0 ;
1 p_r3_g31_h29_t2 -1 x_r3_g29 <= 0 ;
1 p_r3_g31_h29_t2 -1 x_r3_g31 -1 x_r3_g29 >= -1 ;
1 p_r3_g54_h52_t2 -1 x_r3_g54 <= 0 ;
1 p_r3_g54_h52_t2 -1 x_r3_g52 <= 0 ;
1 p_r3_g54_h52_t2 -1 x_r3_g54 -1 x_r3_g52 >= -1 ;
1 p_r3_g55_h53_t2 -1 x_r3_g55 <= 0 ;
1 p_r3_g55_h53_t2 -1 x_r3_g53 <= 0 ;
1 p_r3_g55_h53_t2 -1 x_r3_g55 -1 x_r3_g53 >= -1 ;
1 p_r3_g60_h58_t2 -1 x_r3_g60 <= 0 ;
1 p_r3_g60_h58_t2 -1 x_r3_g58 <= 0 ;
1 p_r3_g60_h58_t2 -1 x_r3_g60 -1 x_r3_g58 >= -1 ;
1 p_r3_g63_h61_t2 -1 x_r3_g63 <= 0 ;
1 p_r3_g63_h61_t2 -1 x_r3_g61 <= 0 ;
1 p_r3_g63_h61_t2 -1 x_r3_g63 -1 x_r3_g61 >= -1 ;
1 p_r3_g84_h82_t2 -1 x_r3_g84 <= 0 ;
1 p_r3_g84_h82_t2 -1 x_r3_g82 <= 0 ;
1 p_r3_g84_h82_t2 -1 x_r3_g84 -1 x_r3_g82 >= -1 ;
1 p_r3_g99_h97_t2 -1 x_r3_g99 <= 0 ;
1 p_r3_g99_h97_t2 -1 x_r3_g97 <= 0 ;
1 p_r3_g99_h97_t2 -1 x_r3_g99 -1 x_r3_g97 >= -1 ;
1 p_r3_g112_h110_t2 -1 x_r3_g112 <= 0 ;
1 p_r3_g112_h110_t2 -1 x_r3_g110 <= 0 ;
1 p_r3_g112_h110_t2 -1 x_r3_g112 -1 x_r3_g110 >= -1 ;
1 p_r3_g124_h122_t2 -1 x_r3_g124 <= 0 ;
1 p_r3_g124_h122_t2 -1 x_r3_g122 <= 0 ;
1 p_r3_g124_h122_t2 -1 x_r3_g124 -1 x_r3_g122 >= -1 ;
1 d_2 -2 x_r0_g13 -1 x_r0_g16 -1 x_r0_g22 -1 x_r0_g35 -2 x_r0_g40 -1 x_r0_g44 -1 x_r0_g46 -1 x_r0_g47 -1 x_r0_g49 -2 x_r0_g50 -1 x_r0_g54 -1 x_r0_g66 -1 x_r0_g101 -1 x_r0_g117 -1 x_r0_g118 -1 x_r0_g128 -1 x_r0_g135 -1 x_r0_g139 -1 x_r0_g140 -2 x_r0_g144 -1 x_r0_g156 -1 x_r0_g162 -1 x_r1_g16 -1 x_r1_g20 -1 x_r1_g28 -1 x_r1_g29 -1 x_r1_g35 -1 x_r1_g38 -1 x_r1_g41 -1 x_r1_g42 -1 x_r1_g58 -1 x_r1_g71 -1 x_r1_g77 -1 x_r1_g78 -2 x_r1_g82 -1 x_r1_g85 -1 x_r1_g89 -1 x_r1_g92 -1 x_r1_g101 -1 x_r1_g114 -1 x_r1_g126 -2 x_r1_g157 -1 x_r1_g164 -1 x_r2_g6 -1 x_r2_g27 -1 x_r2_g29 -1 x_r2_g33 -2 x_r2_g41 -1 x_r2_g47 -1 x_r2_g48 -1 x_r2_g56 -2 x_r2_g80 -2 x_r2_g85 -1 x_r2_g106 -1 x_r2_g111 -1 x_r2_g112 -1 x_r2_g118 -1 x_r2_g119 -1 x_r2_g127 -1 x_r2_g131 -2 x_r2_g132 -2 x_r2_g138 -1 x_r2_g139 -1 x_r2_g146 -1 x_r2_g151 -1 x_r2_g161 -1 x_r3_g0 -1 x_r3_g4 -1 x_r3_g6 -1 x_r3_g21 -2 x_r3_g24 -1 x_r3_g29 -1 x_r3_g60 -1 x_r3_g61 -1 x_r3_g63 -1 x_r3_g68 -1 x_r3_g74 -1 x_r3_g77 -2 x_r3_g78 -1 x_r3_g82 -1 x_r3_g84 -1 x_r3_g110 -2 x_r3_g125 -1 x_r3_g132 -2 x_r3_g136 -1 x_r3_g139 -1 x_r3_g145 -2 x_r3_g146 -1 x_r3_g160 -1 x_r3_g165 -1 p_r0_g25_h23_t2 -1 p_r0_g46_h44_t2 -1 p_r0_g49_h47_t2 -1 p_r0_g90_h88_t2 -1 p_r0_g101_h99_t2 -1 p_r0_g112_h110_t2 -1 p_r0_g113_h111_t2 -1 p_r0_g118_h116_t2 -1 p_r1_g31_h29_t2 -1 p_r1_g33_h31_t2 -1 p_r1_g35_h33_t2 -1 p_r1_g38_h36_t2 -1 p_r1_g43_h41_t2 -1 p_r1_g44_h42_t2 -1 p_r1_g46_h44_t2 -1 p_r1_g48_h46_t2 -1 p_r1_g73_h71_t2 -1 p_r1_g78_h76_t2 -1 p_r1_g91_h89_t2 -1 p_r1_g101_h99_t2 -1 p_r1_g116_h114_t2 -1 p_r1_g128_h126_t2 -1 p_r1_g130_h128_t2 -1 p_r1_g132_h130_t2 -1 p_r2_g7_h5_t2 -1 p_r2_g8_h6_t2 -1 p_r2_g10_h8_t2 -1 p_r2_g29_h27_t2 -1 p_r2_g35_h33_t2 -1 p_r2_g114_h112_t2 -1 p_r2_g116_h114_t2 -1 p_r2_g118_h116_t2 -1 p_r2_g127_h125_t2 -1 p_r2_g133_h131_t2 -1 p_r2_g141_h139_t2 -1 p_r3_g0_h165_t2 -1 p_r3_g6_h4_t2 -1 p_r3_g23_h21_t2 -1 p_r3_g31_h29_t2 -1 p_r3_g54_h52_t2 -1 p_r3_g55_h53_t2 -1 p_r3_g60_h58_t2 -1 p_r3_g63_h61_t2 -1 p_r3_g84_h82_t2 -1 p_r3_g99_h97_t2 -1 p_r3_g112_h110_t2 -1 p_r3_g124_h122_t2 = -71 ;
1 d_2 -1 u_2 <= 0 ;
-1 d_2 -1 u_2 <= 0 ;
1 u_2 -1 M <= 0 ;
1 u_2 <= 1 ;
1 p_r0_g16_h13_t3 -1 x_r0_g16 <= 0 ;
1 p_r0_g16_h13_t3 -1 x_r0_g13 <= 0 ;
1 p_r0_g16_h13_t3 -1 x_r0_g16 -1 x_r0_g13 >= -1 ;
1 p_r0_g25_h22_t3 -1 x_r0_g25 <= 0 ;
1 p_r0_g25_h22_t3 -1 x_r0_g22 <= 0 ;
1 p_r0_g25_h22_t3 -1 x_r0_g25 -1 x_r0_g22 >= -1 ;
1 p_r0_g47_h44_t3 -1 x_r0_g47 <= 0 ;
1 p_r0_g47_h44_t3 -1 x_r0_g44 <= 0 ;
1 p_r0_g47_h44_t3 -1 x_r0_g47 -1 x_r0_g44 >= -1 ;
1 p_r0_g49_h46_t3 -1 x_r0_g49 <= 0 ;
1 p_r0_g49_h46_t3 -1 x_r0_g46 <= 0 ;
1 p_r0_g49_h46_t3 -1 x_r0_g49 -1 x_r0_g46 >= -1 ;
1 p_r0_g50_h47_t3 -1 x_r0_g50 <= 0 ;
1 p_r0_g50_h47_t3 -1 x_r0_g47 <= 0 ;
1 p_r0_g50_h47_t3 -1 x_r0_g50 -1 x_r0_g47 >= -1 ;
1 p_r0_g77_h74_t3 -1 x_r0_g77 <= 0 ;
1 p_r0_g77_h74_t3 -1 x_r0_g74 <= 0 ;
1 p_r0_g77_h74_t3 -1 x_r0_g77 -1 x_r0_g74 >= -1 ;
1 p_r0_g113_h110_t3 -1 x_r0_g113 <= 0 ;
1 p_r0_g113_h110_t3 -1 x_r0_g110 <= 0 ;
1 p_r0_g113_h110_t3 -1 x_r0_g113 -1 x_r0_g110 >= -1 ;
1 p_r0_g116_h113_t3 -1 x_r0_g116 <= 0 ;
1 p_r0_g116_h113_t3 -1 x_r0_g113 <= 0 ;
1 p_r0_g116_h113_t3 -1 x_r0_g116 -1 x_r0_g113 >= -1 ;
1 p_r0_g135_h132_t3 -1 x_r0_g135 <= 0 ;
1 p_r0_g135_h132_t3 -1 x_r0_g132 <= 0 ;
1 p_r0_g135_h132_t3 -1 x_r0_g135 -1 x_r0_g132 >= -1 ;
1 p_r0_g139_h136_t3 -1 x_r0_g139 <= 0 ;
1 p_r0_g139_h136_t3 -1 x_r0_g136 <= 0 ;
1 p_r0_g139_h136_t3 -1 x_r0_g139 -1 x_r0_g136 >= -1 ;
1 p_r1_g0_h164_t3 -1 x_r1_g0 <= 0 ;
1 p_r1_g0_h164_t3 -1 x_r1_g164 <= 0 ;
1 p_r1_g0_h164_t3 -1 x_r1_g0 -1 x_r1_g164 >= -1 ;
1 p_r1_g19_h16_t3 -1 x_r1_g19 <= 0 ;
1 p_r1_g19_h16_t3 -1 x_r1_g16 <= 0 ;
1 p_r1_g19_h16_t3 -1 x_r1_g19 -1 x_r1_g16 >= -1 ;
1 p_r1_g31_h28_t3 -1 x_r1_g31 <= 0 ;
1 p_r1_g31_h28_t3 -1 x_r1_g28 <= 0 ;
1 p_r1_g31_h28_t3 -1 x_r1_g31 -1 x_r1_g28 >= -1 ;
1 p_r1_g36_h33_t3 -1 x_r1_g36 <= 0 ;
1 p_r1_g36_h33_t3 -1 x_r1_g33 <= 0 ;
1 p_r1_g36_h33_t3 -1 x_r1_g36 -1 x_r1_g33 >= -1 ;
1 p_r1_g38_h35_t3 -1 x_r1_g38 <= 0 ;
1 p_r1_g38_h35_t3 -1 x_r1_g35 <= 0 ;
1 p_r1_g38_h35_t3 -1 x_r1_g38 -1 x_r1_g35 >= -1 ;
1 p_r1_g41_h38_t3 -1 x_r1_g41 <= 0 ;
1 p_r1_g41_h38_t3 -1 x_r1_g38 <= 0 ;
1 p_r1_g41_h38_t3 -1 x_r1_g41 -1 x_r1_g38 >= -1 ;
1 p_r1_g44_h41_t3 -1 x_r1_g44 <= 0 ;
1 p_r1_g44_h41_t3 -1 x_r1_g41 <= 0 ;
1 p_r1_g44_h41_t3 -1 x_r1_g44 -1 x_r1_g41 >= -1 ;
1 p_r1_g46_h43_t3 -1 x_r1_g46 <= 0 ;
1 p_r1_g46_h43_t3 -1 x_r1_g43 <= 0 ;
1 p_r1_g46_h43_t3 -1 x_r1_g46 -1 x_r1_g43 >= -1 ;
1 p_r1_g76_h73_t3 -1 x_r1_g76 <= 0 ;
1 p_r1_g76_h73_t3 -1 x_r1_g73 <= 0 ;
1 p_r1_g76_h73_t3 -1 x_r1_g76 -1 x_r1_g73 >= -1 ;
1 p_r1_g85_h82_t3 -1 x_r1_g85 <= 0 ;
1 p_r1_g85_h82_t3 -1 x_r1_g82 <= 0 ;
1 p_r1_g85_h82_t3 -1 x_r1_g85 -1 x_r1_g82 >= -1 ;
1 p_r1_g92_h89_t3 -1 x_r1_g92 <= 0 ;
1 p_r1_g92_h89_t3 -1 x_r1_g89 <= 0 ;
1 p_r1_g92_h89_t3 -1 x_r1_g92 -1 x_r1_g89 >= -1 ;
1 p_r1_g131_h128_t3 -1 x_r1_g131 <= 0 ;
1 p_r1_g131_h128_t3 -1 x_r1_g128 <= 0 ;
1 p_r1_g131_h128_t3 -1 x_r1_g131 -1 x_r1_g128 >= -1 ;
1 p_r2_g8_h5_t3 -1 x_r2_g8 <= 0 ;
1 p_r2_g8_h5_t3 -1 x_r2_g5 <= 0 ;
1 p_r2_g8_h5_t3 -1 x_r2_g8 -1 x_r2_g5 >= -1 ;
1 p_r2_g10_h7_t3 -1 x_r2_g10 <= 0 ;
1 p_r2_g10_h7_t3 -1 x_r2_g7 <= 0 ;
1 p_r2_g10_h7_t3 -1 x_r2_g10 -1 x_r2_g7 >= -1 ;
1 p_r2_g13_h10_t3 -1 x_r2_g13 <= 0 ;
1 p_r2_g13_h10_t3 -1 x_r2_g10 <= 0 ;
1 p_r2_g13_h10_t3 -1 x_r2_g13 -1 x_r2_g10 >= -1 ;
1 p_r2_g17_h14_t3 -1 x_r2_g17 <= 0 ;
1 p_r2_g17_h14_t3 -1 x_r2_g14 <= 0 ;
1 p_r2_g17_h14_t3 -1 x_r2_g17 -1 x_r2_g14 >= -1 ;
1 p_r2_g114_h111_t3 -1 x_r2_g114 <= 0 ;
1 p_r2_g114_h111_t3 -1 x_r2_g111 <= 0 ;
1 p_r2_g114_h111_t3 -1 x_r2_g114 -1 x_r2_g111 >= -1 ;
1 p_r2_g119_h116_t3 -1 x_r2_g119 <= 0 ;
1 p_r2_g119_h116_t3 -1 x_r2_g116 <= 0 ;
1 p_r2_g119_h116_t3 -1 x_r2_g119 -1 x_r2_g116 >= -1 ;
1 p_r2_g141_h138_t3 -1 x_r2_g141 <= 0 ;
1 p_r2_g141_h138_t3 -1 x_r2_g138 <= 0 ;
1 p_r2_g141_h138_t3 -1 x_r2_g141 -1 x_r2_g138 >= -1 ;
1 p_r3_g24_h21_t3 -1 x_r3_g24 <= 0 ;
1 p_r3_g24_h21_t3 -1 x_r3_g21 <= 0 ;
1 p_r3_g24_h21_t3 -1 x_r3_g24 -1 x_r3_g21 >= -1 ;
1 p_r3_g55_h52_t3 -1 x_r3_g55 <= 0 ;
1 p_r3_g55_h52_t3 -1 x_r3_g52 <= 0 ;
1 p_r3_g55_h52_t3 -1 x_r3_g55 -1 x_r3_g52 >= -1 ;
1 p_r3_g58_h55_t3 -1 x_r3_g58 <= 0 ;
1 p_r3_g58_h55_t3 -1 x_r3_g55 <= 0 ;
1 p_r3_g58_h55_t3 -1 x_r3_g58 -1 x_r3_g55 >= -1 ;
1 p_r3_g61_h58_t3 -1 x_r3_g61 <= 0 ;
1 p_r3_g61_h58_t3 -1 x_r3_g58 <= 0 ;
1 p_r3_g61_h58_t3 -1 x_r3_g61 -1 x_r3_g58 >= -1 ;
1 p_r3_g63_h60_t3 -1 x_r3_g63 <= 0 ;
1 p_r3_g63_h60_t3 -1 x_r3_g60 <= 0 ;
1 p_r3_g63_h60_t3 -1 x_r3_g63 -1 x_r3_g60 >= -1 ;
1 p_r3_g77_h74_t3 -1 x_r3_g77 <= 0 ;
1 p_r3_g77_h74_t3 -1 x_r3_g74 <= 0 ;
1 p_r3_g77_h74_t3 -1 x_r3_g77 -1 x_r3_g74 >= -1 ;
1 p_r3_g125_h122_t3 -1 x_r3_g125 <= 0 ;
1 p_r3_g125_h122_t3 -1 x_r3_g122 <= 0 ;
1 p_r3_g125_h122_t3 -1 x_r3_g125 -1 x_r3_g122 >= -1 ;
1 p_r3_g136_h133_t3 -1 x_r3_g136 <= 0 ;
1 p_r3_g136_h133_t3 -1 x_r3_g133 <= 0 ;
1 p_r3_g136_h133_t3 -1 x_r3_g136 -1 x_r3_g133 >= -1 ;
1 p_r3_g139_h136_t3 -1 x_r3_g139 <= 0 ;
1 p_r3_g139_h136_t3 -1 x_r3_g136 <= 0 ;
1 p_r3_g139_h136_t3 -1 x_r3_g139 -1 x_r3_g136 >= -1 ;
1 d_3 -1 x_r0_g6 -1 x_r0_g16 -1 x_r0_g22 -1 x_r0_g23 -1 x_r0_g35 -2 x_r0_g40 -1 x_r0_g46 -1 x_r0_g49 -1 x_r0_g54 -1 x_r0_g66 -1 x_r0_g73 -1 x_r0_g95 -1 x_r0_g99 -1 x_r0_g101 -1 x_r0_g116 -1 x_r0_g117 -2 x_r0_g128 -1 x_r0_g139 -2 x_r0_g140 -2 x_r0_g152 -1 x_r0_g156 -2 x_r0_g162 -1 x_r1_g0 -1 x_r1_g15 -2 x_r1_g29 -1 x_r1_g35 -1 x_r1_g36 -1 x_r1_g42 -1 x_r1_g43 -1 x_r1_g46 -1 x_r1_g71 -1 x_r1_g73 -1 x_r1_g76 -1 x_r1_g77 -1 x_r1_g78 -1 x_r1_g82 -1 x_r1_g85 -1 x_r1_g91 -1 x_r1_g92 -1 x_r1_g99 -1 x_r1_g101 -2 x_r1_g116 -1 x_r1_g126 -1 x_r1_g130 -2 x_r1_g157 -1 x_r2_g7 -1 x_r2_g17 -1 x_r2_g27 -1 x_r2_g29 -1 x_r2_g33 -1 x_r2_g34 -1 x_r2_g42 -1 x_r2_g80 -1 x_r2_g85 -1 x_r2_g93 -1 x_r2_g112 -1 x_r2_g116 -2 x_r2_g118 -1 x_r2_g119 -2 x_r2_g125 -1 x_r2_g127 -2 x_r2_g131 -1 x_r2_g132 -2 x_r2_g133 -1 x_r2_g139 -1 x_r2_g145 -1 x_r2_g151 -1 x_r2_g161 -1 x_r3_g4 -1 x_r3_g6 -1 x_r3_g12 -1 x_r3_g21 -2 x_r3_g23 -1 x_r3_g24 -2 x_r3_g29 -1 x_r3_g31 -1 x_r3_g52 -1 x_r3_g63 -1 x_r3_g68 -1 x_r3_g77 -2 x_r3_g78 -1 x_r3_g84 -1 x_r3_g97 -1 x_r3_g111 -1 x_r3_g122 -1 x_r3_g124 -1 x_r3_g125 -1 x_r3_g132 -1 x_r3_g139 -2 x_r3_g145 -2 x_r3_g146 -1 x_r3_g159 -1 x_r3_g160 -2 x_r3_g165 -1 p_r0_g16_h13_t3 -1 p_r0_g25_h22_t3 -1 p_r0_g47_h44_t3 -1 p_r0_g49_h46_t3 -1 p_r0_g50_h47_t3 -1 p_r0_g77_h74_t3 -1 p_r0_g113_h110_t3 -1 p_r0_g116_h113_t3 -1 p_r0_g135_h132_t3 -1 p_r0_g139_h136_t3 -1 p_r1_g0_h164_t3 -1 p_r1_g19_h16_t3 -1 p_r1_g31_h28_t3 -1 p_r1_g36_h33_t3 -1 p_r1_g38_h35_t3 -1 p_r1_g41_h38_t3 -1 p_r1_g44_h41_t3 -1 p_r1_g46_h43_t3 -1 p_r1_g76_h73_t3 -1 p_r1_g85_h82_t3 -1 p_r1_g92_h89_t3 -1 p_r1_g131_h128_t3 -1 p_r2_g8_h5_t3 -1 p_r2_g10_h7_t3 -1 p_r2_g13_h10_t3 -1 p_r2_g17_h14_t3 -1 p_r2_g114_h111_t3 -1 p_r2_g119_h116_t3 -1 p_r2_g141_h138_t3 -1 p_r3_g24_h21_t3 -1 p_r3_g55_h52_t3 -1 p_r3_g58_h55_t3 -1 p_r3_g61_h58_t3 -1 p_r3_g63_h60_t3 -1 p_r3_g77_h74_t3 -1 p_r3_g125_h122_t3 -1 p_r3_g136_h133_t3 -1 p_r3_g139_h136_t3 = -57 ;
1 d_3 -1 u_3 <= 0 ;
-1 d_3 -1 u_3 <= 0 ;
1 u_3 -1 M <= 0 ;
1 u_3 <= 1 ;
1 p_r0_g44_h40_t4 -1 x_r0_g44 <= 0 ;
1 p_r0_g44_h40_t4 -1 x_r0_g40 <= 0 ;
1 p_r0_g44_h40_t4 -1 x_r0_g44 -1 x_r0_g40 >= -1 ;
1 p_r0_g50_h46_t4 -1 x_r0_g50 <= 0 ;
1 p_r0_g50_h46_t4 -1 x_r0_g46 <= 0 ;
1 p_r0_g50_h46_t4 -1 x_r0_g50 -1 x_r0_g46 >= -1 ;
1 p_r0_g54_h50_t4 -1 x_r0_g54 <= 0 ;
1 p_r0_g54_h50_t4 -1 x_r0_g50 <= 0 ;
1 p_r0_g54_h50_t4 -1 x_r0_g54 -1 x_r0_g50 >= -1 ;
1 p_r0_g77_h73_t4 -1 x_r0_g77 <= 0 ;
1 p_r0_g77_h73_t4 -1 x_r0_g73 <= 0 ;
1 p_r0_g77_h73_t4 -1 x_r0_g77 -1 x_r0_g73 >= -1 ;
1 p_r0_g99_h95_t4 -1 x_r0_g99 <= 0 ;
1 p_r0_g99_h95_t4 -1 x_r0_g95 <= 0 ;
1 p_r0_g99_h95_t4 -1 x_r0_g99 -1 x_r0_g95 >= -1 ;
1 p_r0_g116_h112_t4 -1 x_r0_g116 <= 0 ;
1 p_r0_g116_h112_t4 -1 x_r0_g112 <= 0 ;
1 p_r0_g116_h112_t4 -1 x_r0_g116 -1 x_r0_g112 >= -1 ;
1 p_r0_g117_h113_t4 -1 x_r0_g117 <= 0 ;
1 p_r0_g117_h113_t4 -1 x_r0_g113 <= 0 ;
1 p_r0_g117_h113_t4 -1 x_r0_g117 -1 x_r0_g113 >= -1 ;
1 p_r0_g132_h128_t4 -1 x_r0_g132 <= 0 ;
1 p_r0_g132_h128_t4 -1 x_r0_g128 <= 0 ;
1 p_r0_g132_h128_t4 -1 x_r0_g132 -1 x_r0_g128 >= -1 ;
1 p_r0_g136_h132_t4 -1 x_r0_g136 <= 0 ;
1 p_r0_g136_h132_t4 -1 x_r0_g132 <= 0 ;
1 p_r0_g136_h132_t4 -1 x_r0_g136 -1 x_r0_g132 >= -1 ;
1 p_r0_g139_h135_t4 -1 x_r0_g139 <= 0 ;
1 p_r0_g139_h135_t4 -1 x_r0_g135 <= 0 ;
1 p_r0_g139_h135_t4 -1 x_r0_g139 -1 x_r0_g135 >= -1 ;
1 p_r0_g140_h136_t4 -1 x_r0_g140 <= 0 ;
1 p_r0_g140_h136_t4 -1 x_r0_g136 <= 0 ;
1 p_r0_g140_h136_t4 -1 x_r0_g140 -1 x_r0_g136 >= -1 ;
1 p_r0_g144_h140_t4 -1 x_r0_g144 <= 0 ;
1 p_r0_g144_h140_t4 -1 x_r0_g140 <= 0 ;
1 p_r0_g144_h140_t4 -1 x_r0_g144 -1 x_r0_g140 >= -1 ;
1 p_r0_g156_h152_t4 -1 x_r0_g156 <= 0 ;
1 p_r0_g156_h152_t4 -1 x_r0_g152 <= 0 ;
1 p_r0_g156_h152_t4 -1 x_r0_g156 -1 x_r0_g152 >= -1 ;
1 p_r1_g19_h15_t4 -1 x_r1_g19 <= 0 ;
1 p_r1_g19_h15_t4 -1 x_r1_g15 <= 0 ;
1 p_r1_g19_h15_t4 -1 x_r1_g19 -1 x_r1_g15 >= -1 ;
1 p_r1_g20_h16_t4 -1 x_r1_g20 <= 0 ;
1 p_r1_g20_h16_t4 -1 x_r1_g16 <= 0 ;
1 p_r1_g20_h16_t4 -1 x_r1_g20 -1 x_r1_g16 >= -1 ;
1 p_r1_g33_h29_t4 -1 x_r1_g33 <= 0 ;
1 p_r1_g33_h29_t4 -1 x_r1_g29 <= 0 ;
1 p_r1_g33_h29_t4 -1 x_r1_g33 -1 x_r1_g29 >= -1 ;
1 p_r1_g35_h31_t4 -1 x_r1_g35 <= 0 ;
1 p_r1_g35_h31_t4 -1 x_r1_g31 <= 0 ;
1 p_r1_g35_h31_t4 -1 x_r1_g35 -1 x_r1_g31 >= -1 ;
1 p_r1_g42_h38_t4 -1 x_r1_g42 <= 0 ;
1 p_r1_g42_h38_t4 -1 x_r1_g38 <= 0 ;
1 p_r1_g42_h38_t4 -1 x_r1_g42 -1 x_r1_g38 >= -1 ;
1 p_r1_g46_h42_t4 -1 x_r1_g46 <= 0 ;
1 p_r1_g46_h42_t4 -1 x_r1_g42 <= 0 ;
1 p_r1_g46_h42_t4 -1 x_r1_g46 -1 x_r1_g42 >= -1 ;
1 p_r1_g48_h44_t4 -1 x_r1_g48 <= 0 ;
1 p_r1_g48_h44_t4 -1 x_r1_g44 <= 0 ;
1 p_r1_g48_h44_t4 -1 x_r1_g48 -1 x_r1_g44 >= -1 ;
1 p_r1_g77_h73_t4 -1 x_r1_g77 <= 0 ;
1 p_r1_g77_h73_t4 -1 x_r1_g73 <= 0 ;
1 p_r1_g77_h73_t4 -1 x_r1_g77 -1 x_r1_g73 >= -1 ;
1 p_r1_g82_h78_t4 -1 x_r1_g82 <= 0 ;
1 p_r1_g82_h78_t4 -1 x_r1_g78 <= 0 ;
1 p_r1_g82_h78_t4 -1 x_r1_g82 -1 x_r1_g78 >= -1 ;
1 p_r1_g89_h85_t4 -1 x_r1_g89 <= 0 ;
1 p_r1_g89_h85_t4 -1 x_r1_g85 <= 0 ;
1 p_r1_g89_h85_t4 -1 x_r1_g89 -1 x_r1_g85 >= -1 ;
1 p_r1_g130_h126_t4 -1 x_r1_g130 <= 0 ;
1 p_r1_g130_h126_t4 -1 x_r1_g126 <= 0 ;
1 p_r1_g130_h126_t4 -1 x_r1_g130 -1 x_r1_g126 >= -1 ;
1 p_r1_g132_h128_t4 -1 x_r1_g132 <= 0 ;
1 p_r1_g132_h128_t4 -1 x_r1_g128 <= 0 ;
1 p_r1_g132_h128_t4 -1 x_r1_g132 -1 x_r1_g128 >= -1 ;
1 p_r2_g10_h6_t4 -1 x_r2_g10 <= 0 ;
1 p_r2_g10_h6_t4 -1 x_r2_g6 <= 0 ;
1 p_r2_g10_h6_t4 -1 x_r2_g10 -1 x_r2_g6 >= -1 ;
1 p_r2_g14_h10_t4 -1 x_r2_g14 <= 0 ;
1 p_r2_g14_h10_t4 -1 x_r2_g10 <= 0 ;
1 p_r2_g14_h10_t4 -1 x_r2_g14 -1 x_r2_g10 >= -1 ;
1 p_r2_g17_h13_t4 -1 x_r2_g17 <= 0 ;
1 p_r2_g17_h13_t4 -1 x_r2_g13 <= 0 ;
1 p_r2_g17_h13_t4 -1 x_r2_g17 -1 x_r2_g13 >= -1 ;
1 p_r2_g33_h29_t4 -1 x_r2_g33 <= 0 ;
1 p_r2_g33_h29_t4 -1 x_r2_g29 <= 0 ;
1 p_r2_g33_h29_t4 -1 x_r2_g33 -1 x_r2_g29 >= -1 ;
1 p_r2_g116_h112_t4 -1 x_r2_g116 <= 0 ;
1 p_r2_g116_h112_t4 -1 x_r2_g112 <= 0 ;
1 p_r2_g116_h112_t4 -1 x_r2_g116 -1 x_r2_g112 >= -1 ;
1 p_r2_g118_h114_t4 -1 x_r2_g118 <= 0 ;
1 p_r2_g118_h114_t4 -1 x_r2_g114 <= 0 ;
1 p_r2_g118_h114_t4 -1 x_r2_g118 -1 x_r2_g114 >= -1 ;
1 p_r2_g131_h127_t4 -1 x_r2_g131 <= 0 ;
1 p_r2_g131_h127_t4 -1 x_r2_g127 <= 0 ;
1 p_r2_g131_h127_t4 -1 x_r2_g131 -1 x_r2_g127 >= -1 ;
1 p_r2_g145_h141_t4 -1 x_r2_g145 <= 0 ;
1 p_r2_g145_h141_t4 -1 x_r2_g141 <= 0 ;
1 p_r2_g145_h141_t4 -1 x_r2_g145 -1 x_r2_g141 >= -1 ;
1 p_r3_g4_h0_t4 -1 x_r3_g4 <= 0 ;
1 p_r3_g4_h0_t4 -1 x_r3_g0 <= 0 ;
1 p_r3_g4_h0_t4 -1 x_r3_g4 -1 x_r3_g0 >= -1 ;
1 p_r3_g58_h54_t4 -1 x_r3_g58 <= 0 ;
1 p_r3_g58_h54_t4 -1 x_r3_g54 <= 0 ;
1 p_r3_g58_h54_t4 -1 x_r3_g58 -1 x_r3_g54 >= -1 ;
1 p_r3_g78_h74_t4 -1 x_r3_g78 <= 0 ;
1 p_r3_g78_h74_t4 -1 x_r3_g74 <= 0 ;
1 p_r3_g78_h74_t4 -1 x_r3_g78 -1 x_r3_g74 >= -1 ;
1 p_r3_g82_h78_t4 -1 x_r3_g82 <= 0 ;
1 p_r3_g82_h78_t4 -1 x_r3_g78 <= 0 ;
1 p_r3_g82_h78_t4 -1 x_r3_g82 -1 x_r3_g78 >= -1 ;
1 p_r3_g136_h132_t4 -1 x_r3_g136 <= 0 ;
1 p_r3_g136_h132_t4 -1 x_r3_g132 <= 0 ;
1 p_r3_g136_h132_t4 -1 x_r3_g136 -1 x_r3_g132 >= -1 ;
1 d_4 -2 x_r0_g16 -1 x_r0_g23 -1 x_r0_g40 -1 x_r0_g44 -1 x_r0_g46 -2 x_r0_g47 -1 x_r0_g49 -1 x_r0_g54 -2 x_r0_g66 -1 x_r0_g74 -1 x_r0_g99 -1 x_r0_g110 -1 x_r0_g116 -1 x_r0_g118 -1 x_r0_g135 -1 x_r0_g139 -1 x_r0_g156 -1 x_r0_g162 -1 x_r1_g0 -1 x_r1_g15 -1 x_r1_g28 -1 x_r1_g31 -1 x_r1_g33 -1 x_r1_g35 -2 x_r1_g36 -1 x_r1_g41 -1 x_r1_g43 -1 x_r1_g44 -1 x_r1_g58 -1 x_r1_g73 -1 x_r1_g76 -1 x_r1_g77 -1 x_r1_g85 -2 x_r1_g91 -2 x_r1_g92 -2 x_r1_g99 -1 x_r1_g116 -1 x_r1_g128 -1 x_r1_g131 -2 x_r1_g164 -1 x_r2_g5 -1 x_r2_g8 -1 x_r2_g14 -1 x_r2_g17 -1 x_r2_g27 -1 x_r2_g29 -1 x_r2_g34 -2 x_r2_g35 -1 x_r2_g42 -1 x_r2_g47 -1 x_r2_g56 -2 x_r2_g106 -1 x_r2_g111 -1 x_r2_g114 -1 x_r2_g116 -1 x_r2_g118 -1 x_r2_g119 -2 x_r2_g125 -2 x_r2_g132 -2 x_r2_g133 -1 x_r2_g138 -1 x_r2_g141 -1 x_r2_g146 -2 x_r2_g161 -1 x_r3_g0 -1 x_r3_g4 -1 x_r3_g6 -1 x_r3_g12 -1 x_r3_g21 -2 x_r3_g23 -2 x_r3_g24 -1 x_r3_g31 -1 x_r3_g53 -1 x_r3_g55 -1 x_r3_g58 -1 x_r3_g61 -1 x_r3_g63 -1 x_r3_g77 -1 x_r3_g82 -1 x_r3_g84 -1 x_r3_g110 -1 x_r3_g112 -1 x_r3_g122 -1 x_r3_g124 -1 x_r3_g125 -1 x_r3_g132 -2 x_r3_g133 -1 x_r3_g136 -1 x_r3_g139 -1 x_r3_g145 -1 x_r3_g146 -1 x_r3_g159 -1 x_r3_g165 -1 p_r0_g44_h40_t4 -1 p_r0_g50_h46_t4 -1 p_r0_g54_h50_t4 -1 p_r0_g77_h73_t4 -1 p_r0_g99_h95_t4 -1 p_r0_g116_h112_t4 -1 p_r0_g117_h113_t4 -1 p_r0_g132_h128_t4 -1 p_r0_g136_h132_t4 -1 p_r0_g139_h135_t4 -1 p_r0_g140_h136_t4 -1 p_r0_g144_h140_t4 -1 p_r0_g156_h152_t4 -1 p_r1_g19_h15_t4 -1 p_r1_g20_h16_t4 -1 p_r1_g33_h29_t4 -1 p_r1_g35_h31_t4 -1 p_r1_g42_h38_t4 -1 p_r1_g46_h42_t4 -1 p_r1_g48_h44_t4 -1 p_r1_g77_h73_t4 -1 p_r1_g82_h78_t4 -1 p_r1_g89_h85_t4 -1 p_r1_g130_h126_t4 -1 p_r1_g132_h128_t4 -1 p_r2_g10_h6_t4 -1 p_r2_g14_h10_t4 -1 p_r2_g17_h13_t4 -1 p_r2_g33_h29_t4 -1 p_r2_g116_h112_t4 -1 p_r2_g118_h114_t4 -1 p_r2_g131_h127_t4 -1 p_r2_g145_h141_t4 -1 p_r3_g4_h0_t4 -1 p_r3_g58_h54_t4 -1 p_r3_g78_h74_t4 -1 p_r3_g82_h78_t4 -1 p_r3_g136_h132_t4 = -54 ;
1 d_4 -1 u_4 <= 0 ;
-1 d_4 -1 u_4 <= 0 ;
1 u_4 -1 M <= 0 ;
1 u_4 <= 1 ;
1 p_r0_g22_h16_t6 -1 x_r0_g22 <= 0 ;
1 p_r0_g22_h16_t6 -1 x_r0_g16 <= 0 ;
1 p_r0_g22_h16_t6 -1 x_r0_g22 -1 x_r0_g16 >= -1 ;
1 p_r0_g46_h40_t6 -1 x_r0_g46 <= 0 ;
1 p_r0_g46_h40_t6 -1 x_r0_g40 <= 0 ;
1 p_r0_g46_h40_t6 -1 x_r0_g46 -1 x_r0_g40 >= -1 ;
1 p_r0_g50_h44_t6 -1 x_r0_g50 <= 0 ;
1 p_r0_g50_h44_t6 -1 x_r0_g44 <= 0 ;
1 p_r0_g50_h44_t6 -1 x_r0_g50 -1 x_r0_g44 >= -1 ;
1 p_r0_g101_h95_t6 -1 x_r0_g101 <= 0 ;
1 p_r0_g101_h95_t6 -1 x_r0_g95 <= 0 ;
1 p_r0_g101_h95_t6 -1 x_r0_g101 -1 x_r0_g95 >= -1 ;
1 p_r0_g116_h110_t6 -1 x_r0_g116 <= 0 ;
1 p_r0_g116_h110_t6 -1 x_r0_g110 <= 0 ;
1 p_r0_g116_h110_t6 -1 x_r0_g116 -1 x_r0_g110 >= -1 ;
1 p_r0_g117_h111_t6 -1 x_r0_g117 <= 0 ;
1 p_r0_g117_h111_t6 -1 x_r0_g111 <= 0 ;
1 p_r0_g117_h111_t6 -1 x_r0_g117 -1 x_r0_g111 >= -1 ;
1 p_r0_g118_h112_t6 -1 x_r0_g118 <= 0 ;
1 p_r0_g118_h112_t6 -1 x_r0_g112 <= 0 ;
1 p_r0_g118_h112_t6 -1 x_r0_g118 -1 x_r0_g112 >= -1 ;
1 p_r0_g162_h156_t6 -1 x_r0_g162 <= 0 ;
1 p_r0_g162_h156_t6 -1 x_r0_g156 <= 0 ;
1 p_r0_g162_h156_t6 -1 x_r0_g162 -1 x_r0_g156 >= -1 ;
1 p_r1_g35_h29_t6 -1 x_r1_g35 <= 0 ;
1 p_r1_g35_h29_t6 -1 x_r1_g29 <= 0 ;
1 p_r1_g35_h29_t6 -1 x_r1_g35 -1 x_r1_g29 >= -1 ;
1 p_r1_g41_h35_t6 -1 x_r1_g41 <= 0 ;
1 p_r1_g41_h35_t6 -1 x_r1_g35 <= 0 ;
1 p_r1_g41_h35_t6 -1 x_r1_g41 -1 x_r1_g35 >= -1 ;
1 p_r1_g42_h36_t6 -1 x_r1_g42 <= 0 ;
1 p_r1_g42_h36_t6 -1 x_r1_g36 <= 0 ;
1 p_r1_g42_h36_t6 -1 x_r1_g42 -1 x_r1_g36 >= -1 ;
1 p_r1_g44_h38_t6 -1 x_r1_g44 <= 0 ;
1 p_r1_g44_h38_t6 -1 x_r1_g38 <= 0 ;
1 p_r1_g44_h38_t6 -1 x_r1_g44 -1 x_r1_g38 >= -1 ;
1 p_r1_g48_h42_t6 -1 x_r1_g48 <= 0 ;
1 p_r1_g48_h42_t6 -1 x_r1_g42 <= 0 ;
1 p_r1_g48_h42_t6 -1 x_r1_g48 -1 x_r1_g42 >= -1 ;
1 p_r1_g77_h71_t6 -1 x_r1_g77 <= 0 ;
1 p_r1_g77_h71_t6 -1 x_r1_g71 <= 0 ;
1 p_r1_g77_h71_t6 -1 x_r1_g77 -1 x_r1_g71 >= -1 ;
1 p_r1_g82_h76_t6 -1 x_r1_g82 <= 0 ;
1 p_r1_g82_h76_t6 -1 x_r1_g76 <= 0 ;
1 p_r1_g82_h76_t6 -1 x_r1_g82 -1 x_r1_g76 >= -1 ;
1 p_r1_g91_h85_t6 -1 x_r1_g91 <= 0 ;
1 p_r1_g91_h85_t6 -1 x_r1_g85 <= 0 ;
1 p_r1_g91_h85_t6 -1 x_r1_g91 -1 x_r1_g85 >= -1 ;
1 p_r1_g132_h126_t6 -1 x_r1_g132 <= 0 ;
1 p_r1_g132_h126_t6 -1 x_r1_g126 <= 0 ;
1 p_r1_g132_h126_t6 -1 x_r1_g132 -1 x_r1_g126 >= -1 ;
1 p_r2_g13_h7_t6 -1 x_r2_g13 <= 0 ;
1 p_r2_g13_h7_t6 -1 x_r2_g7 <= 0 ;
1 p_r2_g13_h7_t6 -1 x_r2_g13 -1 x_r2_g7 >= -1 ;
1 p_r2_g14_h8_t6 -1 x_r2_g14 <= 0 ;
1 p_r2_g14_h8_t6 -1 x_r2_g8 <= 0 ;
1 p_r2_g14_h8_t6 -1 x_r2_g14 -1 x_r2_g8 >= -1 ;
1 p_r2_g33_h27_t6 -1 x_r2_g33 <= 0 ;
1 p_r2_g33_h27_t6 -1 x_r2_g27 <= 0 ;
1 p_r2_g33_h27_t6 -1 x_r2_g33 -1 x_r2_g27 >= -1 ;
1 p_r2_g35_h29_t6 -1 x_r2_g35 <= 0 ;
1 p_r2_g35_h29_t6 -1 x_r2_g29 <= 0 ;
1 p_r2_g35_h29_t6 -1 x_r2_g35 -1 x_r2_g29 >= -1 ;
1 p_r2_g41_h35_t6 -1 x_r2_g41 <= 0 ;
1 p_r2_g41_h35_t6 -1 x_r2_g35 <= 0 ;
1 p_r2_g41_h35_t6 -1 x_r2_g41 -1 x_r2_g35 >= -1 ;
1 p_r2_g47_h41_t6 -1 x_r2_g47 <= 0 ;
1 p_r2_g47_h41_t6 -1 x_r2_g41 <= 0 ;
1 p_r2_g47_h41_t6 -1 x_r2_g47 -1 x_r2_g41 >= -1 ;
1 p_r2_g48_h42_t6 -1 x_r2_g48 <= 0 ;
1 p_r2_g48_h42_t6 -1 x_r2_g42 <= 0 ;
1 p_r2_g48_h42_t6 -1 x_r2_g48 -1 x_r2_g42 >= -1 ;
1 p_r2_g112_h106_t6 -1 x_r2_g112 <= 0 ;
1 p_r2_g112_h106_t6 -1 x_r2_g106 <= 0 ;
1 p_r2_g112_h106_t6 -1 x_r2_g112 -1 x_r2_g106 >= -1 ;
1 p_r2_g118_h112_t6 -1 x_r2_g118 <= 0 ;
1 p_r2_g118_h112_t6 -1 x_r2_g112 <= 0 ;
1 p_r2_g118_h112_t6 -1 x_r2_g118 -1 x_r2_g112 >= -1 ;
1 p_r2_g125_h119_t6 -1 x_r2_g125 <= 0 ;
1 p_r2_g125_h119_t6 -1 x_r2_g119 <= 0 ;
1 p_r2_g125_h119_t6 -1 x_r2_g125 -1 x_r2_g119 >= -1 ;
1 p_r2_g131_h125_t6 -1 x_r2_g131 <= 0 ;
1 p_r2_g131_h125_t6 -1 x_r2_g125 <= 0 ;
1 p_r2_g131_h125_t6 -1 x_r2_g131 -1 x_r2_g125 >= -1 ;
1 p_r2_g133_h127_t6 -1 x_r2_g133 <= 0 ;
1 p_r2_g133_h127_t6 -1 x_r2_g127 <= 0 ;
1 p_r2_g133_h127_t6 -1 x_r2_g133 -1 x_r2_g127 >= -1 ;
1 p_r2_g138_h132_t6 -1 x_r2_g138 <= 0 ;
1 p_r2_g138_h132_t6 -1 x_r2_g132 <= 0 ;
1 p_r2_g138_h132_t6 -1 x_r2_g138 -1 x_r2_g132 >= -1 ;
1 p_r2_g139_h133_t6 -1 x_r2_g139 <= 0 ;
1 p_r2_g139_h133_t6 -1 x_r2_g133 <= 0 ;
1 p_r2_g139_h133_t6 -1 x_r2_g139 -1 x_r2_g133 >= -1 ;
1 p_r2_g145_h139_t6 -1 x_r2_g145 <= 0 ;
1 p_r2_g145_h139_t6 -1 x_r2_g139 <= 0 ;
1 p_r2_g145_h139_t6 -1 x_r2_g145 -1 x_r2_g139 >= -1 ;
1 p_r2_g151_h145_t6 -1 x_r2_g151 <= 0 ;
1 p_r2_g151_h145_t6 -1 x_r2_g145 <= 0 ;
1 p_r2_g151_h145_t6 -1 x_r2_g151 -1 x_r2_g145 >= -1 ;
1 p_r3_g4_h165_t6 -1 x_r3_g4 <= 0 ;
1 p_r3_g4_h165_t6 -1 x_r3_g165 <= 0 ;
1 p_r3_g4_h165_t6 -1 x_r3_g4 -1 x_r3_g165 >= -1 ;
1 p_r3_g6_h0_t6 -1 x_r3_g6 <= 0 ;
1 p_r3_g6_h0_t6 -1 x_r3_g0 <= 0 ;
1 p_r3_g6_h0_t6 -1 x_r3_g6 -1 x_r3_g0 >= -1 ;
1 p_r3_g12_h6_t6 -1 x_r3_g12 <= 0 ;
1 p_r3_g12_h6_t6 -1 x_r3_g6 <= 0 ;
1 p_r3_g12_h6_t6 -1 x_r3_g12 -1 x_r3_g6 >= -1 ;
1 p_r3_g29_h23_t6 -1 x_r3_g29 <= 0 ;
1 p_r3_g29_h23_t6 -1 x_r3_g23 <= 0 ;
1 p_r3_g29_h23_t6 -1 x_r3_g29 -1 x_r3_g23 >= -1 ;
1 p_r3_g58_h52_t6 -1 x_r3_g58 <= 0 ;
1 p_r3_g58_h52_t6 -1 x_r3_g52 <= 0 ;
1 p_r3_g58_h52_t6 -1 x_r3_g58 -1 x_r3_g52 >= -1 ;
1 p_r3_g60_h54_t6 -1 x_r3_g60 <= 0 ;
1 p_r3_g60_h54_t6 -1 x_r3_g54 <= 0 ;
1 p_r3_g60_h54_t6 -1 x_r3_g60 -1 x_r3_g54 >= -1 ;
1 p_r3_g61_h55_t6 -1 x_r3_g61 <= 0 ;
1 p_r3_g61_h55_t6 -1 x_r3_g55 <= 0 ;
1 p_r3_g61_h55_t6 -1 x_r3_g61 -1 x_r3_g55 >= -1 ;
1 p_r3_g74_h68_t6 -1 x_r3_g74 <= 0 ;
1 p_r3_g74_h68_t6 -1 x_r3_g68 <= 0 ;
1 p_r3_g74_h68_t6 -1 x_r3_g74 -1 x_r3_g68 >= -1 ;
1 p_r3_g84_h78_t6 -1 x_r3_g84 <= 0 ;
1 p_r3_g84_h78_t6 -1 x_r3_g78 <= 0 ;
1 p_r3_g84_h78_t6 -1 x_r3_g84 -1 x_r3_g78 >= -1 ;
1 p_r3_g139_h133_t6 -1 x_r3_g139 <= 0 ;
1 p_r3_g139_h133_t6 -1 x_r3_g133 <= 0 ;
1 p_r3_g139_h133_t6 -1 x_r3_g139 -1 x_r3_g133 >= -1 ;
1 p_r3_g145_h139_t6 -1 x_r3_g145 <= 0 ;
1 p_r3_g145_h139_t6 -1 x_r3_g139 <= 0 ;
1 p_r3_g145_h139_t6 -1 x_r3_g145 -1 x_r3_g139 >= -1 ;
1 p_r3_g165_h159_t6 -1 x_r3_g165 <= 0 ;
1 p_r3_g165_h159_t6 -1 x_r3_g159 <= 0 ;
1 p_r3_g165_h159_t6 -1 x_r3_g165 -1 x_r3_g159 >= -1 ;
1 d_6 -1 x_r0_g6 -2 x_r0_g13 -1 x_r0_g25 -1 x_r0_g40 -1 x_r0_g44 -1 x_r0_g46 -2 x_r0_g49 -1 x_r0_g54 -1 x_r0_g73 -1 x_r0_g74 -1 x_r0_g112 -1 x_r0_g113 -1 x_r0_g116 -1 x_r0_g117 -1 x_r0_g128 -1 x_r0_g132 -1 x_r0_g136 -1 x_r0_g140 -2 x_r0_g152 -1 x_r1_g16 -1 x_r1_g20 -1 x_r1_g31 -2 x_r1_g33 -1 x_r1_g38 -2 x_r1_g43 -1 x_r1_g46 -1 x_r1_g58 -1 x_r1_g71 -1 x_r1_g73 -1 x_r1_g76 -1 x_r1_g78 -1 x_r1_g82 -1 x_r1_g85 -1 x_r1_g89 -1 x_r1_g92 -2 x_r1_g101 -1 x_r1_g114 -1 x_r1_g130 -1 x_r1_g132 -1 x_r1_g157 -1 x_r1_g164 -1 x_r2_g6 -1 x_r2_g7 -1 x_r2_g10 -1 x_r2_g14 -1 x_r2_g27 -1 x_r2_g33 -1 x_r2_g34 -2 x_r2_g80 -1 x_r2_g93 -1 x_r2_g111 -1 x_r2_g114 -2 x_r2_g116 -1 x_r2_g119 -1 x_r2_g127 -1 x_r2_g131 -1 x_r2_g132 -2 x_r2_g146 -1 x_r2_g151 -1 x_r2_g161 -1 x_r3_g12 -1 x_r3_g21 -1 x_r3_g23 -2 x_r3_g24 -1 x_r3_g31 -1 x_r3_g52 -2 x_r3_g53 -1 x_r3_g55 -1 x_r3_g60 -1 x_r3_g68 -1 x_r3_g74 -1 x_r3_g77 -1 x_r3_g82 -2 x_r3_g112 -1 x_r3_g122 -1 x_r3_g124 -1 x_r3_g125 -1 x_r3_g132 -1 x_r3_g133 -1 x_r3_g136 -1 x_r3_g145 -1 x_r3_g146 -2 x_r3_g160 -1 p_r0_g22_h16_t6 -1 p_r0_g46_h40_t6 -1 p_r0_g50_h44_t6 -1 p_r0_g101_h95_t6 -1 p_r0_g116_h110_t6 -1 p_r0_g117_h111_t6 -1 p_r0_g118_h112_t6 -1 p_r0_g162_h156_t6 -1 p_r1_g35_h29_t6 -1 p_r1_g41_h35_t6 -1 p_r1_g42_h36_t6 -1 p_r1_g44_h38_t6 -1 p_r1_g48_h42_t6 -1 p_r1_g77_h71_t6 -1 p_r1_g82_h76_t6 -1 p_r1_g91_h85_t6 -1 p_r1_g132_h126_t6 -1 p_r2_g13_h7_t6 -1 p_r2_g14_h8_t6 -1 p_r2_g33_h27_t6 -1 p_r2_g35_h29_t6 -1 p_r2_g41_h35_t6 -1 p_r2_g47_h41_t6 -1 p_r2_g48_h42_t6 -1 p_r2_g112_h106_t6 -1 p_r2_g118_h112_t6 -1 p_r2_g125_h119_t6 -1 p_r2_g131_h125_t6 -1 p_r2_g133_h127_t6 -1 p_r2_g138_h132_t6 -1 p_r2_g139_h133_t6 -1 p_r2_g145_h139_t6 -1 p_r2_g151_h145_t6 -1 p_r3_g4_h165_t6 -1 p_r3_g6_h0_t6 -1 p_r3_g12_h6_t6 -1 p_r3_g29_h23_t6 -1 p_r3_g58_h52_t6 -1 p_r3_g60_h54_t6 -1 p_r3_g61_h55_t6 -1 p_r3_g74_h68_t6 -1 p_r3_g84_h78_t6 -1 p_r3_g139_h133_t6 -1 p_r3_g145_h139_t6 -1 p_r3_g165_h159_t6 = -66 ;
1 d_6 -1 u_6 <= 0 ;
-1 d_6 -1 u_6 <= 0 ;
1 u_6 -1 M <= 0 ;
1 u_6 <= 1 ;
1 p_r0_g54_h46_t8 -1 x_r0_g54 <= 0 ;
1 p_r0_g54_h46_t8 -1 x_r0_g46 <= 0 ;
1 p_r0_g54_h46_t8 -1 x_r0_g54 -1 x_r0_g46 >= -1 ;
1 p_r0_g74_h66_t8 -1 x_r0_g74 <= 0 ;
1 p_r0_g74_h66_t8 -1 x_r0_g66 <= 0 ;
1 p_r0_g74_h66_t8 -1 x_r0_g74 -1 x_r0_g66 >= -1 ;
1 p_r0_g118_h110_t8 -1 x_r0_g118 <= 0 ;
1 p_r0_g118_h110_t8 -1 x_r0_g110 <= 0 ;
1 p_r0_g118_h110_t8 -1 x_r0_g118 -1 x_r0_g110 >= -1 ;
1 p_r0_g136_h128_t8 -1 x_r0_g136 <= 0 ;
1 p_r0_g136_h128_t8 -1 x_r0_g128 <= 0 ;
1 p_r0_g136_h128_t8 -1 x_r0_g136 -1 x_r0_g128 >= -1 ;
1 p_r0_g140_h132_t8 -1 x_r0_g140 <= 0 ;
1 p_r0_g140_h132_t8 -1 x_r0_g132 <= 0 ;
1 p_r0_g140_h132_t8 -1 x_r0_g140 -1 x_r0_g132 >= -1 ;
1 p_r0_g144_h136_t8 -1 x_r0_g144 <= 0 ;
1 p_r0_g144_h136_t8 -1 x_r0_g136 <= 0 ;
1 p_r0_g144_h136_t8 -1 x_r0_g144 -1 x_r0_g136 >= -1 ;
1 p_r0_g152_h144_t8 -1 x_r0_g152 <= 0 ;
1 p_r0_g152_h144_t8 -1 x_r0_g144 <= 0 ;
1 p_r0_g152_h144_t8 -1 x_r0_g152 -1 x_r0_g144 >= -1 ;
1 p_r1_g28_h20_t8 -1 x_r1_g28 <= 0 ;
1 p_r1_g28_h20_t8 -1 x_r1_g20 <= 0 ;
1 p_r1_g28_h20_t8 -1 x_r1_g28 -1 x_r1_g20 >= -1 ;
1 p_r1_g36_h28_t8 -1 x_r1_g36 <= 0 ;
1 p_r1_g36_h28_t8 -1 x_r1_g28 <= 0 ;
1 p_r1_g36_h28_t8 -1 x_r1_g36 -1 x_r1_g28 >= -1 ;
1 p_r1_g41_h33_t8 -1 x_r1_g41 <= 0 ;
1 p_r1_g41_h33_t8 -1 x_r1_g33 <= 0 ;
1 p_r1_g41_h33_t8 -1 x_r1_g41 -1 x_r1_g33 >= -1 ;
1 p_r1_g43_h35_t8 -1 x_r1_g43 <= 0 ;
1 p_r1_g43_h35_t8 -1 x_r1_g35 <= 0 ;
1 p_r1_g43_h35_t8 -1 x_r1_g43 -1 x_r1_g35 >= -1 ;
1 p_r1_g44_h36_t8 -1 x_r1_g44 <= 0 ;
1 p_r1_g44_h36_t8 -1 x_r1_g36 <= 0 ;
1 p_r1_g44_h36_t8 -1 x_r1_g44 -1 x_r1_g36 >= -1 ;
1 p_r1_g46_h38_t8 -1 x_r1_g46 <= 0 ;
1 p_r1_g46_h38_t8 -1 x_r1_g38 <= 0 ;
1 p_r1_g46_h38_t8 -1 x_r1_g46 -1 x_r1_g38 >= -1 ;
1 p_r1_g85_h77_t8 -1 x_r1_g85 <= 0 ;
1 p_r1_g85_h77_t8 -1 x_r1_g77 <= 0 ;
1 p_r1_g85_h77_t8 -1 x_r1_g85 -1 x_r1_g77 >= -1 ;
1 p_r1_g99_h91_t8 -1 x_r1_g99 <= 0 ;
1 p_r1_g99_h91_t8 -1 x_r1_g91 <= 0 ;
1 p_r1_g99_h91_t8 -1 x_r1_g99 -1 x_r1_g91 >= -1 ;
1 p_r2_g13_h5_t8 -1 x_r2_g13 <= 0 ;
1 p_r2_g13_h5_t8 -1 x_r2_g5 <= 0 ;
1 p_r2_g13_h5_t8 -1 x_r2_g13 -1 x_r2_g5 >= -1 ;
1 p_r2_g14_h6_t8 -1 x_r2_g14 <= 0 ;
1 p_r2_g14_h6_t8 -1 x_r2_g6 <= 0 ;
1 p_r2_g14_h6_t8 -1 x_r2_g14 -1 x_r2_g6 >= -1 ;
1 p_r2_g35_h27_t8 -1 x_r2_g35 <= 0 ;
1 p_r2_g35_h27_t8 -1 x_r2_g27 <= 0 ;
1 p_r2_g35_h27_t8 -1 x_r2_g35 -1 x_r2_g27 >= -1 ;
1 p_r2_g41_h33_t8 -1 x_r2_g41 <= 0 ;
1 p_r2_g41_h33_t8 -1 x_r2_g33 <= 0 ;
1 p_r2_g41_h33_t8 -1 x_r2_g41 -1 x_r2_g33 >= -1 ;
1 p_r2_g42_h34_t8 -1 x_r2_g42 <= 0 ;
1 p_r2_g42_h34_t8 -1 x_r2_g34 <= 0 ;
1 p_r2_g42_h34_t8 -1 x_r2_g42 -1 x_r2_g34 >= -1 ;
1 p_r2_g56_h48_t8 -1 x_r2_g56 <= 0 ;
1 p_r2_g56_h48_t8 -1 x_r2_g48 <= 0 ;
1 p_r2_g56_h48_t8 -1 x_r2_g56 -1 x_r2_g48 >= -1 ;
1 p_r2_g93_h85_t8 -1 x_r2_g93 <= 0 ;
1 p_r2_g93_h85_t8 -1 x_r2_g85 <= 0 ;
1 p_r2_g93_h85_t8 -1 x_r2_g93 -1 x_r2_g85 >= -1 ;
1 p_r2_g114_h106_t8 -1 x_r2_g114 <= 0 ;
1 p_r2_g114_h106_t8 -1 x_r2_g106 <= 0 ;
1 p_r2_g114_h106_t8 -1 x_r2_g114 -1 x_r2_g106 >= -1 ;
1 p_r2_g119_h111_t8 -1 x_r2_g119 <= 0 ;
1 p_r2_g119_h111_t8 -1 x_r2_g111 <= 0 ;
1 p_r2_g119_h111_t8 -1 x_r2_g119 -1 x_r2_g111 >= -1 ;
1 p_r2_g127_h119_t8 -1 x_r2_g127 <= 0 ;
1 p_r2_g127_h119_t8 -1 x_r2_g119 <= 0 ;
1 p_r2_g127_h119_t8 -1 x_r2_g127 -1 x_r2_g119 >= -1 ;
1 p_r2_g133_h125_t8 -1 x_r2_g133 <= 0 ;
1 p_r2_g133_h125_t8 -1 x_r2_g125 <= 0 ;
1 p_r2_g133_h125_t8 -1 x_r2_g133 -1 x_r2_g125 >= -1 ;
1 p_r2_g139_h131_t8 -1 x_r2_g139 <= 0 ;
1 p_r2_g139_h131_t8 -1 x_r2_g131 <= 0 ;
1 p_r2_g139_h131_t8 -1 x_r2_g139 -1 x_r2_g131 >= -1 ;
1 p_r2_g141_h133_t8 -1 x_r2_g141 <= 0 ;
1 p_r2_g141_h133_t8 -1 x_r2_g133 <= 0 ;
1 p_r2_g141_h133_t8 -1 x_r2_g141 -1 x_r2_g133 >= -1 ;
1 p_r2_g146_h138_t8 -1 x_r2_g146 <= 0 ;
1 p_r2_g146_h138_t8 -1 x_r2_g138 <= 0 ;
1 p_r2_g146_h138_t8 -1 x_r2_g146 -1 x_r2_g138 >= -1 ;
1 p_r3_g0_h159_t8 -1 x_r3_g0 <= 0 ;
1 p_r3_g0_h159_t8 -1 x_r3_g159 <= 0 ;
1 p_r3_g0_h159_t8 -1 x_r3_g0 -1 x_r3_g159 >= -1 ;
1 p_r3_g6_h165_t8 -1 x_r3_g6 <= 0 ;
1 p_r3_g6_h165_t8 -1 x_r3_g165 <= 0 ;
1 p_r3_g6_h165_t8 -1 x_r3_g6 -1 x_r3_g165 >= -1 ;
1 p_r3_g12_h4_t8 -1 x_r3_g12 <= 0 ;
1 p_r3_g12_h4_t8 -1 x_r3_g4 <= 0 ;
1 p_r3_g12_h4_t8 -1 x_r3_g12 -1 x_r3_g4 >= -1 ;
1 p_r3_g29_h21_t8 -1 x_r3_g29 <= 0 ;
1 p_r3_g29_h21_t8 -1 x_r3_g21 <= 0 ;
1 p_r3_g29_h21_t8 -1 x_r3_g29 -1 x_r3_g21 >= -1 ;
1 p_r3_g31_h23_t8 -1 x_r3_g31 <= 0 ;
1 p_r3_g31_h23_t8 -1 x_r3_g23 <= 0 ;
1 p_r3_g31_h23_t8 -1 x_r3_g31 -1 x_r3_g23 >= -1 ;
1 p_r3_g60_h52_t8 -1 x_r3_g60 <= 0 ;
1 p_r3_g60_h52_t8 -1 x_r3_g52 <= 0 ;
1 p_r3_g60_h52_t8 -1 x_r3_g60 -1 x_r3_g52 >= -1 ;
1 p_r3_g61_h53_t8 -1 x_r3_g61 <= 0 ;
1 p_r3_g61_h53_t8 -1 x_r3_g53 <= 0 ;
1 p_r3_g61_h53_t8 -1 x_r3_g61 -1 x_r3_g53 >= -1 ;
1 p_r3_g63_h55_t8 -1 x_r3_g63 <= 0 ;
1 p_r3_g63_h55_t8 -1 x_r3_g55 <= 0 ;
1 p_r3_g63_h55_t8 -1 x_r3_g63 -1 x_r3_g55 >= -1 ;
1 p_r3_g68_h60_t8 -1 x_r3_g68 <= 0 ;
1 p_r3_g68_h60_t8 -1 x_r3_g60 <= 0 ;
1 p_r3_g68_h60_t8 -1 x_r3_g68 -1 x_r3_g60 >= -1 ;
1 p_r3_g82_h74_t8 -1 x_r3_g82 <= 0 ;
1 p_r3_g82_h74_t8 -1 x_r3_g74 <= 0 ;
1 p_r3_g82_h74_t8 -1 x_r3_g82 -1 x_r3_g74 >= -1 ;
1 p_r3_g132_h124_t8 -1 x_r3_g132 <= 0 ;
1 p_r3_g132_h124_t8 -1 x_r3_g124 <= 0 ;
1 p_r3_g132_h124_t8 -1 x_r3_g132 -1 x_r3_g124 >= -1 ;
1 p_r3_g133_h125_t8 -1 x_r3_g133 <= 0 ;
1 p_r3_g133_h125_t8 -1 x_r3_g125 <= 0 ;
1 p_r3_g133_h125_t8 -1 x_r3_g133 -1 x_r3_g125 >= -1 ;
1 d_8 -2 x_r0_g6 -1 x_r0_g13 -2 x_r0_g22 -1 x_r0_g23 -1 x_r0_g35 -1 x_r0_g40 -2 x_r0_g44 -1 x_r0_g46 -1 x_r0_g47 -2 x_r0_g50 -1 x_r0_g54 -1 x_r0_g66 -1 x_r0_g73 -1 x_r0_g90 -1 x_r0_g95 -1 x_r0_g110 -2 x_r0_g111 -1 x_r0_g112 -1 x_r0_g117 -1 x_r0_g118 -1 x_r0_g128 -2 x_r0_g135 -1 x_r0_g139 -1 x_r0_g152 -1 x_r0_g162 -1 x_r1_g0 -2 x_r1_g19 -1 x_r1_g29 -1 x_r1_g31 -1 x_r1_g35 -1 x_r1_g41 -2 x_r1_g48 -1 x_r1_g58 -1 x_r1_g71 -2 x_r1_g73 -2 x_r1_g76 -1 x_r1_g77 -1 x_r1_g78 -1 x_r1_g82 -1 x_r1_g89 -2 x_r1_g92 -1 x_r1_g99 -1 x_r1_g101 -2 x_r1_g116 -1 x_r1_g130 -1 x_r1_g131 -2 x_r1_g132 -1 x_r1_g164 -1 x_r2_g6 -1 x_r2_g8 -1 x_r2_g10 -1 x_r2_g13 -1 x_r2_g17 -1 x_r2_g29 -1 x_r2_g33 -1 x_r2_g34 -1 x_r2_g35 -1 x_r2_g41 -1 x_r2_g47 -1 x_r2_g56 -1 x_r2_g93 -1 x_r2_g106 -2 x_r2_g112 -1 x_r2_g114 -2 x_r2_g118 -1 x_r2_g132 -1 x_r2_g138 -2 x_r2_g145 -1 x_r2_g161 -1 x_r3_g0 -1 x_r3_g4 -1 x_r3_g12 -1 x_r3_g21 -1 x_r3_g24 -1 x_r3_g29 -1 x_r3_g31 -1 x_r3_g53 -2 x_r3_g54 -1 x_r3_g55 -1 x_r3_g58 -1 x_r3_g68 -1 x_r3_g74 -1 x_r3_g78 -1 x_r3_g84 -1 x_r3_g97 -1 x_r3_g110 -1 x_r3_g111 -1 x_r3_g132 -2 x_r3_g136 -1 x_r3_g145 -2 x_r3_g146 -1 x_r3_g159 -1 x_r3_g160 -1 p_r0_g54_h46_t8 -1 p_r0_g74_h66_t8 -1 p_r0_g118_h110_t8 -1 p_r0_g136_h128_t8 -1 p_r0_g140_h132_t8 -1 p_r0_g144_h136_t8 -1 p_r0_g152_h144_t8 -1 p_r1_g28_h20_t8 -1 p_r1_g36_h28_t8 -1 p_r1_g41_h33_t8 -1 p_r1_g43_h35_t8 -1 p_r1_g44_h36_t8 -1 p_r1_g46_h38_t8 -1 p_r1_g85_h77_t8 -1 p_r1_g99_h91_t8 -1 p_r2_g13_h5_t8 -1 p_r2_g14_h6_t8 -1 p_r2_g35_h27_t8 -1 p_r2_g41_h33_t8 -1 p_r2_g42_h34_t8 -1 p_r2_g56_h48_t8 -1 p_r2_g93_h85_t8 -1 p_r2_g114_h106_t8 -1 p_r2_g119_h111_t8 -1 p_r2_g127_h119_t8 -1 p_r2_g133_h125_t8 -1 p_r2_g139_h131_t8 -1 p_r2_g141_h133_t8 -1 p_r2_g146_h138_t8 -1 p_r3_g0_h159_t8 -1 p_r3_g6_h165_t8 -1 p_r3_g12_h4_t8 -1 p_r3_g29_h21_t8 -1 p_r3_g31_h23_t8 -1 p_r3_g60_h52_t8 -1 p_r3_g61_h53_t8 -1 p_r3_g63_h55_t8 -1 p_r3_g68_h60_t8 -1 p_r3_g82_h74_t8 -1 p_r3_g132_h124_t8 -1 p_r3_g133_h125_t8 = -52 ;
1 d_8 -1 u_8 <= 0 ;
-1 d_8 -1 u_8 <= 0 ;
1 u_8 -1 M <= 0 ;
1 u_8 <= 2 ;
1 p_r0_g6_h162_t11 -1 x_r0_g6 <= 0 ;
1 p_r0_g6_h162_t11 -1 x_r0_g162 <= 0 ;
1 p_r0_g6_h162_t11 -1 x_r0_g6 -1 x_r0_g162 >= -1 ;
1 p_r0_g46_h35_t11 -1 x_r0_g46 <= 0 ;
1 p_r0_g46_h35_t11 -1 x_r0_g35 <= 0 ;
1 p_r0_g46_h35_t11 -1 x_r0_g46 -1 x_r0_g35 >= -1 ;
1 p_r0_g77_h66_t11 -1 x_r0_g77 <= 0 ;
1 p_r0_g77_h66_t11 -1 x_r0_g66 <= 0 ;
1 p_r0_g77_h66_t11 -1 x_r0_g77 -1 x_r0_g66 >= -1 ;
1 p_r0_g88_h77_t11 -1 x_r0_g88 <= 0 ;
1 p_r0_g88_h77_t11 -1 x_r0_g77 <= 0 ;
1 p_r0_g88_h77_t11 -1 x_r0_g88 -1 x_r0_g77 >= -1 ;
1 p_r0_g99_h88_t11 -1 x_r0_g99 <= 0 ;
1 p_r0_g99_h88_t11 -1 x_r0_g88 <= 0 ;
1 p_r0_g99_h88_t11 -1 x_r0_g99 -1 x_r0_g88 >= -1 ;
1 p_r0_g101_h90_t11 -1 x_r0_g101 <= 0 ;
1 p_r0_g101_h90_t11 -1 x_r0_g90 <= 0 ;
1 p_r0_g101_h90_t11 -1 x_r0_g101 -1 x_r0_g90 >= -1 ;
1 p_r0_g110_h99_t11 -1 x_r0_g110 <= 0 ;
1 p_r0_g110_h99_t11 -1 x_r0_g99 <= 0 ;
1 p_r0_g110_h99_t11 -1 x_r0_g110 -1 x_r0_g99 >= -1 ;
1 p_r0_g112_h101_t11 -1 x_r0_g112 <= 0 ;
1 p_r0_g112_h101_t11 -1 x_r0_g101 <= 0 ;
1 p_r0_g112_h101_t11 -1 x_r0_g112 -1 x_r0_g101 >= -1 ;
1 p_r0_g128_h117_t11 -1 x_r0_g128 <= 0 ;
1 p_r0_g128_h117_t11 -1 x_r0_g117 <= 0 ;
1 p_r0_g128_h117_t11 -1 x_r0_g128 -1 x_r0_g117 >= -1 ;
1 p_r0_g139_h128_t11 -1 x_r0_g139 <= 0 ;
1 p_r0_g139_h128_t11 -1 x_r0_g128 <= 0 ;
1 p_r0_g139_h128_t11 -1 x_r0_g139 -1 x_r0_g128 >= -1 ;
1 p_r1_g31_h20_t11 -1 x_r1_g31 <= 0 ;
1 p_r1_g31_h20_t11 -1 x_r1_g20 <= 0 ;
1 p_r1_g31_h20_t11 -1 x_r1_g31 -1 x_r1_g20 >= -1 ;
1 p_r1_g42_h31_t11 -1 x_r1_g42 <= 0 ;
1 p_r1_g42_h31_t11 -1 x_r1_g31 <= 0 ;
1 p_r1_g42_h31_t11 -1 x_r1_g42 -1 x_r1_g31 >= -1 ;
1 p_r1_g44_h33_t11 -1 x_r1_g44 <= 0 ;
1 p_r1_g44_h33_t11 -1 x_r1_g33 <= 0 ;
1 p_r1_g44_h33_t11 -1 x_r1_g44 -1 x_r1_g33 >= -1 ;
1 p_r1_g46_h35_t11 -1 x_r1_g46 <= 0 ;
1 p_r1_g46_h35_t11 -1 x_r1_g35 <= 0 ;
1 p_r1_g46_h35_t11 -1 x_r1_g46 -1 x_r1_g35 >= -1 ;
1 p_r1_g82_h71_t11 -1 x_r1_g82 <= 0 ;
1 p_r1_g82_h71_t11 -1 x_r1_g71 <= 0 ;
1 p_r1_g82_h71_t11 -1 x_r1_g82 -1 x_r1_g71 >= -1 ;
1 p_r1_g89_h78_t11 -1 x_r1_g89 <= 0 ;
1 p_r1_g89_h78_t11 -1 x_r1_g78 <= 0 ;
1 p_r1_g89_h78_t11 -1 x_r1_g89 -1 x_r1_g78 >= -1 ;
1 p_r2_g5_h161_t11 -1 x_r2_g5 <= 0 ;
1 p_r2_g5_h161_t11 -1 x_r2_g161 <= 0 ;
1 p_r2_g5_h161_t11 -1 x_r2_g5 -1 x_r2_g161 >= -1 ;
1 p_r2_g17_h6_t11 -1 x_r2_g17 <= 0 ;
1 p_r2_g17_h6_t11 -1 x_r2_g6 <= 0 ;
1 p_r2_g17_h6_t11 -1 x_r2_g17 -1 x_r2_g6 >= -1 ;
1 p_r2_g125_h114_t11 -1 x_r2_g125 <= 0 ;
1 p_r2_g125_h114_t11 -1 x_r2_g114 <= 0 ;
1 p_r2_g125_h114_t11 -1 x_r2_g125 -1 x_r2_g114 >= -1 ;
1 p_r2_g127_h116_t11 -1 x_r2_g127 <= 0 ;
1 p_r2_g127_h116_t11 -1 x_r2_g116 <= 0 ;
1 p_r2_g127_h116_t11 -1 x_r2_g127 -1 x_r2_g116 >= -1 ;
1 p_r2_g138_h127_t11 -1 x_r2_g138 <= 0 ;
1 p_r2_g138_h127_t11 -1 x_r2_g127 <= 0 ;
1 p_r2_g138_h127_t11 -1 x_r2_g138 -1 x_r2_g127 >= -1 ;
1 p_r3_g4_h160_t11 -1 x_r3_g4 <= 0 ;
1 p_r3_g4_h160_t11 -1 x_r3_g160 <= 0 ;
1 p_r3_g4_h160_t11 -1 x_r3_g4 -1 x_r3_g160 >= -1 ;
1 p_r3_g23_h12_t11 -1 x_r3_g23 <= 0 ;
1 p_r3_g23_h12_t11 -1 x_r3_g12 <= 0 ;
1 p_r3_g23_h12_t11 -1 x_r3_g23 -1 x_r3_g12 >= -1 ;
1 p_r3_g63_h52_t11 -1 x_r3_g63 <= 0 ;
1 p_r3_g63_h52_t11 -1 x_r3_g52 <= 0 ;
1 p_r3_g63_h52_t11 -1 x_r3_g63 -1 x_r3_g52 >= -1 ;
1 p_r3_g74_h63_t11 -1 x_r3_g74 <= 0 ;
1 p_r3_g74_h63_t11 -1 x_r3_g63 <= 0 ;
1 p_r3_g74_h63_t11 -1 x_r3_g74 -1 x_r3_g63 >= -1 ;
1 p_r3_g110_h99_t11 -1 x_r3_g110 <= 0 ;
1 p_r3_g110_h99_t11 -1 x_r3_g99 <= 0 ;
1 p_r3_g110_h99_t11 -1 x_r3_g110 -1 x_r3_g99 >= -1 ;
1 p_r3_g122_h111_t11 -1 x_r3_g122 <= 0 ;
1 p_r3_g122_h111_t11 -1 x_r3_g111 <= 0 ;
1 p_r3_g122_h111_t11 -1 x_r3_g122 -1 x_r3_g111 >= -1 ;
1 p_r3_g133_h122_t11 -1 x_r3_g133 <= 0 ;
1 p_r3_g133_h122_t11 -1 x_r3_g122 <= 0 ;
1 p_r3_g133_h122_t11 -1 x_r3_g133 -1 x_r3_g122 >= -1 ;
1 p_r3_g136_h125_t11 -1 x_r3_g136 <= 0 ;
1 p_r3_g136_h125_t11 -1 x_r3_g125 <= 0 ;
1 p_r3_g136_h125_t11 -1 x_r3_g136 -1 x_r3_g125 >= -1 ;
1 d_11 -1 x_r0_g16 -1 x_r0_g22 -2 x_r0_g23 -2 x_r0_g25 -1 x_r0_g40 -1 x_r0_g44 -2 x_r0_g47 -1 x_r0_g49 -2 x_r0_g54 -1 x_r0_g66 -1 x_r0_g73 -1 x_r0_g74 -1 x_r0_g95 -2 x_r0_g111 -1 x_r0_g112 -1 x_r0_g113 -1 x_r0_g116 -1 x_r0_g117 -1 x_r0_g132 -1 x_r0_g135 -1 x_r0_g136 -1 x_r0_g140 -1 x_r0_g144 -1 x_r0_g152 -1 x_r0_g162 -2 x_r1_g0 -1 x_r1_g15 -1 x_r1_g16 -1 x_r1_g28 -2 x_r1_g29 -2 x_r1_g38 -1 x_r1_g42 -1 x_r1_g43 -1 x_r1_g46 -1 x_r1_g48 -1 x_r1_g58 -2 x_r1_g73 -2 x_r1_g76 -2 x_r1_g77 -1 x_r1_g85 -1 x_r1_g89 -1 x_r1_g91 -2 x_r1_g92 -1 x_r1_g99 -2 x_r1_g101 -1 x_r1_g114 -1 x_r1_g116 -1 x_r1_g126 -2 x_r1_g130 -2 x_r1_g157 -2 x_r2_g7 -1 x_r2_g10 -1 x_r2_g14 -1 x_r2_g17 -1 x_r2_g29 -1 x_r2_g35 -1 x_r2_g41 -1 x_r2_g42 -1 x_r2_g47 -1 x_r2_g85 -2 x_r2_g93 -1 x_r2_g111 -1 x_r2_g112 -1 x_r2_g116 -1 x_r2_g118 -1 x_r2_g119 -1 x_r2_g125 -1 x_r2_g131 -1 x_r2_g132 -1 x_r2_g133 -2 x_r2_g139 -2 x_r2_g141 -1 x_r2_g145 -1 x_r2_g146 -1 x_r2_g151 -1 x_r2_g161 -2 x_r3_g6 -1 x_r3_g12 -1 x_r3_g21 -1 x_r3_g24 -2 x_r3_g29 -1 x_r3_g31 -1 x_r3_g52 -2 x_r3_g54 -1 x_r3_g55 -1 x_r3_g58 -1 x_r3_g60 -1 x_r3_g77 -1 x_r3_g78 -2 x_r3_g97 -1 x_r3_g112 -1 x_r3_g132 -1 x_r3_g133 -1 x_r3_g139 -1 x_r3_g145 -1 x_r3_g159 -1 x_r3_g160 -2 x_r3_g165 -1 p_r0_g6_h162_t11 -1 p_r0_g46_h35_t11 -1 p_r0_g77_h66_t11 -1 p_r0_g88_h77_t11 -1 p_r0_g99_h88_t11 -1 p_r0_g101_h90_t11 -1 p_r0_g110_h99_t11 -1 p_r0_g112_h101_t11 -1 p_r0_g128_h117_t11 -1 p_r0_g139_h128_t11 -1 p_r1_g31_h20_t11 -1 p_r1_g42_h31_t11 -1 p_r1_g44_h33_t11 -1 p_r1_g46_h35_t11 -1 p_r1_g82_h71_t11 -1 p_r1_g89_h78_t11 -1 p_r2_g5_h161_t11 -1 p_r2_g17_h6_t11 -1 p_r2_g125_h114_t11 -1 p_r2_g127_h116_t11 -1 p_r2_g138_h127_t11 -1 p_r3_g4_h160_t11 -1 p_r3_g23_h12_t11 -1 p_r3_g63_h52_t11 -1 p_r3_g74_h63_t11 -1 p_r3_g110_h99_t11 -1 p_r3_g122_h111_t11 -1 p_r3_g133_h122_t11 -1 p_r3_g136_h125_t11 = -66 ;
1 d_11 -1 u_11 <= 0 ;
-1 d_11 -1 u_11 <= 0 ;
1 u_11 -1 M <= 0 ;
1 u_11 <= 1 ;
1 p_r0_g35_h22_t13 -1 x_r0_g35 <= 0 ;
1 p_r0_g35_h22_t13 -1 x_r0_g22 <= 0 ;
1 p_r0_g35_h22_t13 -1 x_r0_g35 -1 x_r0_g22 >= -1 ;
1 p_r0_g90_h77_t13 -1 x_r0_g90 <= 0 ;
1 p_r0_g90_h77_t13 -1 x_r0_g77 <= 0 ;
1 p_r0_g90_h77_t13 -1 x_r0_g90 -1 x_r0_g77 >= -1 ;
1 p_r0_g101_h88_t13 -1 x_r0_g101 <= 0 ;
1 p_r0_g101_h88_t13 -1 x_r0_g88 <= 0 ;
1 p_r0_g101_h88_t13 -1 x_r0_g101 -1 x_r0_g88 >= -1 ;
1 p_r0_g112_h99_t13 -1 x_r0_g112 <= 0 ;
1 p_r0_g112_h99_t13 -1 x_r0_g99 <= 0 ;
1 p_r0_g112_h99_t13 -1 x_r0_g112 -1 x_r0_g99 >= -1 ;
1 p_r0_g152_h139_t13 -1 x_r0_g152 <= 0 ;
1 p_r0_g152_h139_t13 -1 x_r0_g139 <= 0 ;
1 p_r0_g152_h139_t13 -1 x_r0_g152 -1 x_r0_g139 >= -1 ;
1 p_r1_g28_h15_t13 -1 x_r1_g28 <= 0 ;
1 p_r1_g28_h15_t13 -1 x_r1_g15 <= 0 ;
1 p_r1_g28_h15_t13 -1 x_r1_g28 -1 x_r1_g15 >= -1 ;
1 p_r1_g29_h16_t13 -1 x_r1_g29 <= 0 ;
1 p_r1_g29_h16_t13 -1 x_r1_g16 <= 0 ;
1 p_r1_g29_h16_t13 -1 x_r1_g29 -1 x_r1_g16 >= -1 ;
1 p_r1_g33_h20_t13 -1 x_r1_g33 <= 0 ;
1 p_r1_g33_h20_t13 -1 x_r1_g20 <= 0 ;
1 p_r1_g33_h20_t13 -1 x_r1_g33 -1 x_r1_g20 >= -1 ;
1 p_r1_g41_h28_t13 -1 x_r1_g41 <= 0 ;
1 p_r1_g41_h28_t13 -1 x_r1_g28 <= 0 ;
1 p_r1_g41_h28_t13 -1 x_r1_g41 -1 x_r1_g28 >= -1 ;
1 p_r1_g42_h29_t13 -1 x_r1_g42 <= 0 ;
1 p_r1_g42_h29_t13 -1 x_r1_g29 <= 0 ;
1 p_r1_g42_h29_t13 -1 x_r1_g42 -1 x_r1_g29 >= -1 ;
1 p_r1_g44_h31_t13 -1 x_r1_g44 <= 0 ;
1 p_r1_g44_h31_t13 -1 x_r1_g31 <= 0 ;
1 p_r1_g44_h31_t13 -1 x_r1_g44 -1 x_r1_g31 >= -1 ;
1 p_r1_g46_h33_t13 -1 x_r1_g46 <= 0 ;
1 p_r1_g46_h33_t13 -1 x_r1_g33 <= 0 ;
1 p_r1_g46_h33_t13 -1 x_r1_g46 -1 x_r1_g33 >= -1 ;
1 p_r1_g48_h35_t13 -1 x_r1_g48 <= 0 ;
1 p_r1_g48_h35_t13 -1 x_r1_g35 <= 0 ;
1 p_r1_g48_h35_t13 -1 x_r1_g48 -1 x_r1_g35 >= -1 ;
1 p_r1_g71_h58_t13 -1 x_r1_g71 <= 0 ;
1 p_r1_g71_h58_t13 -1 x_r1_g58 <= 0 ;
1 p_r1_g71_h58_t13 -1 x_r1_g71 -1 x_r1_g58 >= -1 ;
1 p_r1_g89_h76_t13 -1 x_r1_g89 <= 0 ;
1 p_r1_g89_h76_t13 -1 x_r1_g76 <= 0 ;
1 p_r1_g89_h76_t13 -1 x_r1_g89 -1 x_r1_g76 >= -1 ;
1 p_r1_g91_h78_t13 -1 x_r1_g91 <= 0 ;
1 p_r1_g91_h78_t13 -1 x_r1_g78 <= 0 ;
1 p_r1_g91_h78_t13 -1 x_r1_g91 -1 x_r1_g78 >= -1 ;
1 p_r1_g114_h101_t13 -1 x_r1_g114 <= 0 ;
1 p_r1_g114_h101_t13 -1 x_r1_g101 <= 0 ;
1 p_r1_g114_h101_t13 -1 x_r1_g114 -1 x_r1_g101 >= -1 ;
1 p_r2_g7_h161_t13 -1 x_r2_g7 <= 0 ;
1 p_r2_g7_h161_t13 -1 x_r2_g161 <= 0 ;
1 p_r2_g7_h161_t13 -1 x_r2_g7 -1 x_r2_g161 >= -1 ;
1 p_r2_g27_h14_t13 -1 x_r2_g27 <= 0 ;
1 p_r2_g27_h14_t13 -1 x_r2_g14 <= 0 ;
1 p_r2_g27_h14_t13 -1 x_r2_g27 -1 x_r2_g14 >= -1 ;
1 p_r2_g42_h29_t13 -1 x_r2_g42 <= 0 ;
1 p_r2_g42_h29_t13 -1 x_r2_g29 <= 0 ;
1 p_r2_g42_h29_t13 -1 x_r2_g42 -1 x_r2_g29 >= -1 ;
1 p_r2_g47_h34_t13 -1 x_r2_g47 <= 0 ;
1 p_r2_g47_h34_t13 -1 x_r2_g34 <= 0 ;
1 p_r2_g47_h34_t13 -1 x_r2_g47 -1 x_r2_g34 >= -1 ;
1 p_r2_g48_h35_t13 -1 x_r2_g48 <= 0 ;
1 p_r2_g48_h35_t13 -1 x_r2_g35 <= 0 ;
1 p_r2_g48_h35_t13 -1 x_r2_g48 -1 x_r2_g35 >= -1 ;
1 p_r2_g93_h80_t13 -1 x_r2_g93 <= 0 ;
1 p_r2_g93_h80_t13 -1 x_r2_g80 <= 0 ;
1 p_r2_g93_h80_t13 -1 x_r2_g93 -1 x_r2_g80 >= -1 ;
1 p_r2_g106_h93_t13 -1 x_r2_g106 <= 0 ;
1 p_r2_g106_h93_t13 -1 x_r2_g93 <= 0 ;
1 p_r2_g106_h93_t13 -1 x_r2_g106 -1 x_r2_g93 >= -1 ;
1 p_r2_g119_h106_t13 -1 x_r2_g119 <= 0 ;
1 p_r2_g119_h106_t13 -1 x_r2_g106 <= 0 ;
1 p_r2_g119_h106_t13 -1 x_r2_g119 -1 x_r2_g106 >= -1 ;
1 p_r2_g125_h112_t13 -1 x_r2_g125 <= 0 ;
1 p_r2_g125_h112_t13 -1 x_r2_g112 <= 0 ;
1 p_r2_g125_h112_t13 -1 x_r2_g125 -1 x_r2_g112 >= -1 ;
1 p_r2_g127_h114_t13 -1 x_r2_g127 <= 0 ;
1 p_r2_g127_h114_t13 -1 x_r2_g114 <= 0 ;
1 p_r2_g127_h114_t13 -1 x_r2_g127 -1 x_r2_g114 >= -1 ;
1 p_r2_g131_h118_t13 -1 x_r2_g131 <= 0 ;
1 p_r2_g131_h118_t13 -1 x_r2_g118 <= 0 ;
1 p_r2_g131_h118_t13 -1 x_r2_g131 -1 x_r2_g118 >= -1 ;
1 p_r2_g132_h119_t13 -1 x_r2_g132 <= 0 ;
1 p_r2_g132_h119_t13 -1 x_r2_g119 <= 0 ;
1 p_r2_g132_h119_t13 -1 x_r2_g132 -1 x_r2_g119 >= -1 ;
1 p_r2_g138_h125_t13 -1 x_r2_g138 <= 0 ;
1 p_r2_g138_h125_t13 -1 x_r2_g125 <= 0 ;
1 p_r2_g138_h125_t13 -1 x_r2_g138 -1 x_r2_g125 >= -1 ;
1 p_r2_g145_h132_t13 -1 x_r2_g145 <= 0 ;
1 p_r2_g145_h132_t13 -1 x_r2_g132 <= 0 ;
1 p_r2_g145_h132_t13 -1 x_r2_g145 -1 x_r2_g132 >= -1 ;
1 p_r2_g146_h133_t13 -1 x_r2_g146 <= 0 ;
1 p_r2_g146_h133_t13 -1 x_r2_g133 <= 0 ;
1 p_r2_g146_h133_t13 -1 x_r2_g146 -1 x_r2_g133 >= -1 ;
1 p_r2_g151_h138_t13 -1 x_r2_g151 <= 0 ;
1 p_r2_g151_h138_t13 -1 x_r2_g138 <= 0 ;
1 p_r2_g151_h138_t13 -1 x_r2_g151 -1 x_r2_g138 >= -1 ;
1 p_r3_g6_h160_t13 -1 x_r3_g6 <= 0 ;
1 p_r3_g6_h160_t13 -1 x_r3_g160 <= 0 ;
1 p_r3_g6_h160_t13 -1 x_r3_g6 -1 x_r3_g160 >= -1 ;
1 p_r3_g68_h55_t13 -1 x_r3_g68 <= 0 ;
1 p_r3_g68_h55_t13 -1 x_r3_g55 <= 0 ;
1 p_r3_g68_h55_t13 -1 x_r3_g68 -1 x_r3_g55 >= -1 ;
1 p_r3_g74_h61_t13 -1 x_r3_g74 <= 0 ;
1 p_r3_g74_h61_t13 -1 x_r3_g61 <= 0 ;
1 p_r3_g74_h61_t13 -1 x_r3_g74 -1 x_r3_g61 >= -1 ;
1 p_r3_g97_h84_t13 -1 x_r3_g97 <= 0 ;
1 p_r3_g97_h84_t13 -1 x_r3_g84 <= 0 ;
1 p_r3_g97_h84_t13 -1 x_r3_g97 -1 x_r3_g84 >= -1 ;
1 p_r3_g110_h97_t13 -1 x_r3_g110 <= 0 ;
1 p_r3_g110_h97_t13 -1 x_r3_g97 <= 0 ;
1 p_r3_g110_h97_t13 -1 x_r3_g110 -1 x_r3_g97 >= -1 ;
1 p_r3_g112_h99_t13 -1 x_r3_g112 <= 0 ;
1 p_r3_g112_h99_t13 -1 x_r3_g99 <= 0 ;
1 p_r3_g112_h99_t13 -1 x_r3_g112 -1 x_r3_g99 >= -1 ;
1 p_r3_g124_h111_t13 -1 x_r3_g124 <= 0 ;
1 p_r3_g124_h111_t13 -1 x_r3_g111 <= 0 ;
1 p_r3_g124_h111_t13 -1 x_r3_g124 -1 x_r3_g111 >= -1 ;
1 p_r3_g125_h112_t13 -1 x_r3_g125 <= 0 ;
1 p_r3_g125_h112_t13 -1 x_r3_g112 <= 0 ;
1 p_r3_g125_h112_t13 -1 x_r3_g125 -1 x_r3_g112 >= -1 ;
1 p_r3_g145_h132_t13 -1 x_r3_g145 <= 0 ;
1 p_r3_g145_h132_t13 -1 x_r3_g132 <= 0 ;
1 p_r3_g145_h132_t13 -1 x_r3_g145 -1 x_r3_g132 >= -1 ;
1 p_r3_g146_h133_t13 -1 x_r3_g146 <= 0 ;
1 p_r3_g146_h133_t13 -1 x_r3_g133 <= 0 ;
1 p_r3_g146_h133_t13 -1 x_r3_g146 -1 x_r3_g133 >= -1 ;
1 p_r3_g159_h146_t13 -1 x_r3_g159 <= 0 ;
1 p_r3_g159_h146_t13 -1 x_r3_g146 <= 0 ;
1 p_r3_g159_h146_t13 -1 x_r3_g159 -1 x_r3_g146 >= -1 ;
1 d_13 -2 x_r0_g6 -1 x_r0_g16 -1 x_r0_g23 -2 x_r0_g25 -1 x_r0_g35 -1 x_r0_g46 -1 x_r0_g47 -2 x_r0_g49 -2 x_r0_g50 -1 x_r0_g54 -1 x_r0_g90 -1 x_r0_g110 -1 x_r0_g111 -1 x_r0_g112 -2 x_r0_g113 -1 x_r0_g116 -1 x_r0_g118 -1 x_r0_g132 -1 x_r0_g135 -2 x_r0_g136 -1 x_r0_g139 -1 x_r0_g140 -2 x_r0_g144 -1 x_r0_g152 -1 x_r0_g156 -1 x_r0_g162 -1 x_r1_g0 -1 x_r1_g16 -1 x_r1_g19 -1 x_r1_g31 -1 x_r1_g36 -1 x_r1_g43 -1 x_r1_g44 -1 x_r1_g71 -2 x_r1_g77 -1 x_r1_g78 -2 x_r1_g82 -1 x_r1_g85 -1 x_r1_g92 -1 x_r1_g99 -1 x_r1_g101 -1 x_r1_g114 -1 x_r1_g116 -1 x_r1_g126 -2 x_r1_g128 -1 x_r1_g132 -1 x_r1_g157 -1 x_r1_g164 -1 x_r2_g5 -1 x_r2_g6 -1 x_r2_g7 -1 x_r2_g8 -2 x_r2_g13 -1 x_r2_g14 -2 x_r2_g17 -2 x_r2_g33 -1 x_r2_g34 -1 x_r2_g41 -1 x_r2_g47 -1 x_r2_g48 -1 x_r2_g56 -1 x_r2_g85 -1 x_r2_g111 -1 x_r2_g114 -1 x_r2_g116 -1 x_r2_g118 -1 x_r2_g127 -1 x_r2_g133 -2 x_r2_g139 -1 x_r2_g141 -1 x_r2_g145 -1 x_r2_g161 -2 x_r3_g0 -1 x_r3_g4 -1 x_r3_g6 -1 x_r3_g12 -1 x_r3_g21 -1 x_r3_g23 -1 x_r3_g24 -1 x_r3_g31 -2 x_r3_g52 -2 x_r3_g53 -1 x_r3_g54 -1 x_r3_g58 -1 x_r3_g60 -1 x_r3_g63 -1 x_r3_g68 -1 x_r3_g78 -1 x_r3_g99 -1 x_r3_g110 -1 x_r3_g111 -1 x_r3_g124 -1 x_r3_g125 -1 x_r3_g132 -2 x_r3_g136 -1 x_r3_g159 -1 p_r0_g35_h22_t13 -1 p_r0_g90_h77_t13 -1 p_r0_g101_h88_t13 -1 p_r0_g112_h99_t13 -1 p_r0_g152_h139_t13 -1 p_r1_g28_h15_t13 -1 p_r1_g29_h16_t13 -1 p_r1_g33_h20_t13 -1 p_r1_g41_h28_t13 -1 p_r1_g42_h29_t13 -1 p_r1_g44_h31_t13 -1 p_r1_g46_h33_t13 -1 p_r1_g48_h35_t13 -1 p_r1_g71_h58_t13 -1 p_r1_g89_h76_t13 -1 p_r1_g91_h78_t13 -1 p_r1_g114_h101_t13 -1 p_r2_g7_h161_t13 -1 p_r2_g27_h14_t13 -1 p_r2_g42_h29_t13 -1 p_r2_g47_h34_t13 -1 p_r2_g48_h35_t13 -1 p_r2_g93_h80_t13 -1 p_r2_g106_h93_t13 -1 p_r2_g119_h106_t13 -1 p_r2_g125_h112_t13 -1 p_r2_g127_h114_t13 -1 p_r2_g131_h118_t13 -1 p_r2_g132_h119_t13 -1 p_r2_g138_h125_t13 -1 p_r2_g145_h132_t13 -1 p_r2_g146_h133_t13 -1 p_r2_g151_h138_t13 -1 p_r3_g6_h160_t13 -1 p_r3_g68_h55_t13 -1 p_r3_g74_h61_t13 -1 p_r3_g97_h84_t13 -1 p_r3_g110_h97_t13 -1 p_r3_g112_h99_t13 -1 p_r3_g124_h111_t13 -1 p_r3_g125_h112_t13 -1 p_r3_g145_h132_t13 -1 p_r3_g146_h133_t13 -1 p_r3_g159_h146_t13 = -75 ;
1 d_13 -1 u_13 <= 0 ;
-1 d_13 -1 u_13 <= 0 ;
1 u_13 -1 M <= 0 ;
1 u_13 <= 1 ;
1 p_r0_g49_h35_t14 -1 x_r0_g49 <= 0 ;
1 p_r0_g49_h35_t14 -1 x_r0_g35 <= 0 ;
1 p_r0_g49_h35_t14 -1 x_r0_g49 -1 x_r0_g35 >= -1 ;
1 p_r0_g54_h40_t14 -1 x_r0_g54 <= 0 ;
1 p_r0_g54_h40_t14 -1 x_r0_g40 <= 0 ;
1 p_r0_g54_h40_t14 -1 x_r0_g54 -1 x_r0_g40 >= -1 ;
1 p_r0_g88_h74_t14 -1 x_r0_g88 <= 0 ;
1 p_r0_g88_h74_t14 -1 x_r0_g74 <= 0 ;
1 p_r0_g88_h74_t14 -1 x_r0_g88 -1 x_r0_g74 >= -1 ;
1 p_r0_g113_h99_t14 -1 x_r0_g113 <= 0 ;
1 p_r0_g113_h99_t14 -1 x_r0_g99 <= 0 ;
1 p_r0_g113_h99_t14 -1 x_r0_g113 -1 x_r0_g99 >= -1 ;
1 p_r0_g132_h118_t14 -1 x_r0_g132 <= 0 ;
1 p_r0_g132_h118_t14 -1 x_r0_g118 <= 0 ;
1 p_r0_g132_h118_t14 -1 x_r0_g132 -1 x_r0_g118 >= -1 ;
1 p_r1_g29_h15_t14 -1 x_r1_g29 <= 0 ;
1 p_r1_g29_h15_t14 -1 x_r1_g15 <= 0 ;
1 p_r1_g29_h15_t14 -1 x_r1_g29 -1 x_r1_g15 >= -1 ;
1 p_r1_g33_h19_t14 -1 x_r1_g33 <= 0 ;
1 p_r1_g33_h19_t14 -1 x_r1_g19 <= 0 ;
1 p_r1_g33_h19_t14 -1 x_r1_g33 -1 x_r1_g19 >= -1 ;
1 p_r1_g42_h28_t14 -1 x_r1_g42 <= 0 ;
1 p_r1_g42_h28_t14 -1 x_r1_g28 <= 0 ;
1 p_r1_g42_h28_t14 -1 x_r1_g42 -1 x_r1_g28 >= -1 ;
1 p_r1_g43_h29_t14 -1 x_r1_g43 <= 0 ;
1 p_r1_g43_h29_t14 -1 x_r1_g29 <= 0 ;
1 p_r1_g43_h29_t14 -1 x_r1_g43 -1 x_r1_g29 >= -1 ;
1 p_r1_g58_h44_t14 -1 x_r1_g58 <= 0 ;
1 p_r1_g58_h44_t14 -1 x_r1_g44 <= 0 ;
1 p_r1_g58_h44_t14 -1 x_r1_g58 -1 x_r1_g44 >= -1 ;
1 p_r1_g85_h71_t14 -1 x_r1_g85 <= 0 ;
1 p_r1_g85_h71_t14 -1 x_r1_g71 <= 0 ;
1 p_r1_g85_h71_t14 -1 x_r1_g85 -1 x_r1_g71 >= -1 ;
1 p_r1_g91_h77_t14 -1 x_r1_g91 <= 0 ;
1 p_r1_g91_h77_t14 -1 x_r1_g77 <= 0 ;
1 p_r1_g91_h77_t14 -1 x_r1_g91 -1 x_r1_g77 >= -1 ;
1 p_r1_g92_h78_t14 -1 x_r1_g92 <= 0 ;
1 p_r1_g92_h78_t14 -1 x_r1_g78 <= 0 ;
1 p_r1_g92_h78_t14 -1 x_r1_g92 -1 x_r1_g78 >= -1 ;
1 p_r1_g99_h85_t14 -1 x_r1_g99 <= 0 ;
1 p_r1_g99_h85_t14 -1 x_r1_g85 <= 0 ;
1 p_r1_g99_h85_t14 -1 x_r1_g99 -1 x_r1_g85 >= -1 ;
1 p_r1_g128_h114_t14 -1 x_r1_g128 <= 0 ;
1 p_r1_g128_h114_t14 -1 x_r1_g114 <= 0 ;
1 p_r1_g128_h114_t14 -1 x_r1_g128 -1 x_r1_g114 >= -1 ;
1 p_r1_g130_h116_t14 -1 x_r1_g130 <= 0 ;
1 p_r1_g130_h116_t14 -1 x_r1_g116 <= 0 ;
1 p_r1_g130_h116_t14 -1 x_r1_g130 -1 x_r1_g116 >= -1 ;
1 p_r2_g8_h161_t14 -1 x_r2_g8 <= 0 ;
1 p_r2_g8_h161_t14 -1 x_r2_g161 <= 0 ;
1 p_r2_g8_h161_t14 -1 x_r2_g8 -1 x_r2_g161 >= -1 ;
1 p_r2_g27_h13_t14 -1 x_r2_g27 <= 0 ;
1 p_r2_g27_h13_t14 -1 x_r2_g13 <= 0 ;
1 p_r2_g27_h13_t14 -1 x_r2_g27 -1 x_r2_g13 >= -1 ;
1 p_r2_g41_h27_t14 -1 x_r2_g41 <= 0 ;
1 p_r2_g41_h27_t14 -1 x_r2_g27 <= 0 ;
1 p_r2_g41_h27_t14 -1 x_r2_g41 -1 x_r2_g27 >= -1 ;
1 p_r2_g47_h33_t14 -1 x_r2_g47 <= 0 ;
1 p_r2_g47_h33_t14 -1 x_r2_g33 <= 0 ;
1 p_r2_g47_h33_t14 -1 x_r2_g47 -1 x_r2_g33 >= -1 ;
1 p_r2_g48_h34_t14 -1 x_r2_g48 <= 0 ;
1 p_r2_g48_h34_t14 -1 x_r2_g34 <= 0 ;
1 p_r2_g48_h34_t14 -1 x_r2_g48 -1 x_r2_g34 >= -1 ;
1 p_r2_g56_h42_t14 -1 x_r2_g56 <= 0 ;
1 p_r2_g56_h42_t14 -1 x_r2_g42 <= 0 ;
1 p_r2_g56_h42_t14 -1 x_r2_g56 -1 x_r2_g42 >= -1 ;
1 p_r2_g125_h111_t14 -1 x_r2_g125 <= 0 ;
1 p_r2_g125_h111_t14 -1 x_r2_g111 <= 0 ;
1 p_r2_g125_h111_t14 -1 x_r2_g125 -1 x_r2_g111 >= -1 ;
1 p_r2_g132_h118_t14 -1 x_r2_g132 <= 0 ;
1 p_r2_g132_h118_t14 -1 x_r2_g118 <= 0 ;
1 p_r2_g132_h118_t14 -1 x_r2_g132 -1 x_r2_g118 >= -1 ;
1 p_r2_g133_h119_t14 -1 x_r2_g133 <= 0 ;
1 p_r2_g133_h119_t14 -1 x_r2_g119 <= 0 ;
1 p_r2_g133_h119_t14 -1 x_r2_g133 -1 x_r2_g119 >= -1 ;
1 p_r2_g139_h125_t14 -1 x_r2_g139 <= 0 ;
1 p_r2_g139_h125_t14 -1 x_r2_g125 <= 0 ;
1 p_r2_g139_h125_t14 -1 x_r2_g139 -1 x_r2_g125 >= -1 ;
1 p_r2_g141_h127_t14 -1 x_r2_g141 <= 0 ;
1 p_r2_g141_h127_t14 -1 x_r2_g127 <= 0 ;
1 p_r2_g141_h127_t14 -1 x_r2_g141 -1 x_r2_g127 >= -1 ;
1 p_r2_g145_h131_t14 -1 x_r2_g145 <= 0 ;
1 p_r2_g145_h131_t14 -1 x_r2_g131 <= 0 ;
1 p_r2_g145_h131_t14 -1 x_r2_g145 -1 x_r2_g131 >= -1 ;
1 p_r2_g146_h132_t14 -1 x_r2_g146 <= 0 ;
1 p_r2_g146_h132_t14 -1 x_r2_g132 <= 0 ;
1 p_r2_g146_h132_t14 -1 x_r2_g146 -1 x_r2_g132 >= -1 ;
1 p_r3_g6_h159_t14 -1 x_r3_g6 <= 0 ;
1 p_r3_g6_h159_t14 -1 x_r3_g159 <= 0 ;
1 p_r3_g6_h159_t14 -1 x_r3_g6 -1 x_r3_g159 >= -1 ;
1 p_r3_g12_h165_t14 -1 x_r3_g12 <= 0 ;
1 p_r3_g12_h165_t14 -1 x_r3_g165 <= 0 ;
1 p_r3_g12_h165_t14 -1 x_r3_g12 -1 x_r3_g165 >= -1 ;
1 p_r3_g68_h54_t14 -1 x_r3_g68 <= 0 ;
1 p_r3_g68_h54_t14 -1 x_r3_g54 <= 0 ;
1 p_r3_g68_h54_t14 -1 x_r3_g68 -1 x_r3_g54 >= -1 ;
1 p_r3_g74_h60_t14 -1 x_r3_g74 <= 0 ;
1 p_r3_g74_h60_t14 -1 x_r3_g60 <= 0 ;
1 p_r3_g74_h60_t14 -1 x_r3_g74 -1 x_r3_g60 >= -1 ;
1 p_r3_g77_h63_t14 -1 x_r3_g77 <= 0 ;
1 p_r3_g77_h63_t14 -1 x_r3_g63 <= 0 ;
1 p_r3_g77_h63_t14 -1 x_r3_g77 -1 x_r3_g63 >= -1 ;
1 p_r3_g82_h68_t14 -1 x_r3_g82 <= 0 ;
1 p_r3_g82_h68_t14 -1 x_r3_g68 <= 0 ;
1 p_r3_g82_h68_t14 -1 x_r3_g82 -1 x_r3_g68 >= -1 ;
1 p_r3_g111_h97_t14 -1 x_r3_g111 <= 0 ;
1 p_r3_g111_h97_t14 -1 x_r3_g97 <= 0 ;
1 p_r3_g111_h97_t14 -1 x_r3_g111 -1 x_r3_g97 >= -1 ;
1 p_r3_g124_h110_t14 -1 x_r3_g124 <= 0 ;
1 p_r3_g124_h110_t14 -1 x_r3_g110 <= 0 ;
1 p_r3_g124_h110_t14 -1 x_r3_g124 -1 x_r3_g110 >= -1 ;
1 p_r3_g125_h111_t14 -1 x_r3_g125 <= 0 ;
1 p_r3_g125_h111_t14 -1 x_r3_g111 <= 0 ;
1 p_r3_g125_h111_t14 -1 x_r3_g125 -1 x_r3_g111 >= -1 ;
1 p_r3_g136_h122_t14 -1 x_r3_g136 <= 0 ;
1 p_r3_g136_h122_t14 -1 x_r3_g122 <= 0 ;
1 p_r3_g136_h122_t14 -1 x_r3_g136 -1 x_r3_g122 >= -1 ;
1 p_r3_g139_h125_t14 -1 x_r3_g139 <= 0 ;
1 p_r3_g139_h125_t14 -1 x_r3_g125 <= 0 ;
1 p_r3_g139_h125_t14 -1 x_r3_g139 -1 x_r3_g125 >= -1 ;
1 p_r3_g146_h132_t14 -1 x_r3_g146 <= 0 ;
1 p_r3_g146_h132_t14 -1 x_r3_g132 <= 0 ;
1 p_r3_g146_h132_t14 -1 x_r3_g146 -1 x_r3_g132 >= -1 ;
1 p_r3_g159_h145_t14 -1 x_r3_g159 <= 0 ;
1 p_r3_g159_h145_t14 -1 x_r3_g145 <= 0 ;
1 p_r3_g159_h145_t14 -1 x_r3_g159 -1 x_r3_g145 >= -1 ;
1 p_r3_g160_h146_t14 -1 x_r3_g160 <= 0 ;
1 p_r3_g160_h146_t14 -1 x_r3_g146 <= 0 ;
1 p_r3_g160_h146_t14 -1 x_r3_g160 -1 x_r3_g146 >= -1 ;
1 d_14 -2 x_r0_g6 -1 x_r0_g16 -1 x_r0_g22 -1 x_r0_g23 -1 x_r0_g25 -2 x_r0_g44 -1 x_r0_g49 -1 x_r0_g50 -1 x_r0_g54 -1 x_r0_g66 -1 x_r0_g73 -1 x_r0_g77 -1 x_r0_g88 -1 x_r0_g111 -2 x_r0_g112 -1 x_r0_g113 -1 x_r0_g116 -2 x_r0_g117 -1 x_r0_g128 -1 x_r0_g132 -1 x_r0_g135 -1 x_r0_g136 -1 x_r0_g139 -1 x_r0_g140 -1 x_r0_g144 -2 x_r0_g156 -1 x_r1_g15 -1 x_r1_g35 -1 x_r1_g41 -1 x_r1_g42 -1 x_r1_g43 -1 x_r1_g46 -1 x_r1_g48 -1 x_r1_g71 -1 x_r1_g73 -2 x_r1_g76 -1 x_r1_g78 -2 x_r1_g82 -1 x_r1_g89 -1 x_r1_g99 -2 x_r1_g101 -1 x_r1_g114 -2 x_r1_g126 -1 x_r1_g132 -1 x_r1_g164 -1 x_r2_g5 -1 x_r2_g6 -2 x_r2_g7 -1 x_r2_g10 -2 x_r2_g14 -1 x_r2_g17 -1 x_r2_g29 -1 x_r2_g34 -2 x_r2_g35 -1 x_r2_g42 -1 x_r2_g47 -1 x_r2_g80 -1 x_r2_g106 -2 x_r2_g112 -1 x_r2_g114 -2 x_r2_g116 -1 x_r2_g118 -1 x_r2_g119 -1 x_r2_g127 -1 x_r2_g138 -1 x_r2_g139 -1 x_r2_g146 -2 x_r2_g151 -1 x_r3_g4 -1 x_r3_g6 -1 x_r3_g12 -2 x_r3_g23 -1 x_r3_g24 -1 x_r3_g29 -2 x_r3_g31 -2 x_r3_g52 -1 x_r3_g53 -1 x_r3_g54 -1 x_r3_g55 -1 x_r3_g60 -2 x_r3_g61 -1 x_r3_g63 -1 x_r3_g84 -1 x_r3_g97 -1 x_r3_g112 -1 x_r3_g122 -1 x_r3_g124 -1 x_r3_g132 -1 x_r3_g133 -1 x_r3_g165 -1 p_r0_g49_h35_t14 -1 p_r0_g54_h40_t14 -1 p_r0_g88_h74_t14 -1 p_r0_g113_h99_t14 -1 p_r0_g132_h118_t14 -1 p_r1_g29_h15_t14 -1 p_r1_g33_h19_t14 -1 p_r1_g42_h28_t14 -1 p_r1_g43_h29_t14 -1 p_r1_g58_h44_t14 -1 p_r1_g85_h71_t14 -1 p_r1_g91_h77_t14 -1 p_r1_g92_h78_t14 -1 p_r1_g99_h85_t14 -1 p_r1_g128_h114_t14 -1 p_r1_g130_h116_t14 -1 p_r2_g8_h161_t14 -1 p_r2_g27_h13_t14 -1 p_r2_g41_h27_t14 -1 p_r2_g47_h33_t14 -1 p_r2_g48_h34_t14 -1 p_r2_g56_h42_t14 -1 p_r2_g125_h111_t14 -1 p_r2_g132_h118_t14 -1 p_r2_g133_h119_t14 -1 p_r2_g139_h125_t14 -1 p_r2_g141_h127_t14 -1 p_r2_g145_h131_t14 -1 p_r2_g146_h132_t14 -1 p_r3_g6_h159_t14 -1 p_r3_g12_h165_t14 -1 p_r3_g68_h54_t14 -1 p_r3_g74_h60_t14 -1 p_r3_g77_h63_t14 -1 p_r3_g82_h68_t14 -1 p_r3_g111_h97_t14 -1 p_r3_g124_h110_t14 -1 p_r3_g125_h111_t14 -1 p_r3_g136_h122_t14 -1 p_r3_g139_h125_t14 -1 p_r3_g146_h132_t14 -1 p_r3_g159_h145_t14 -1 p_r3_g160_h146_t14 = -61 ;
1 d_14 -1 u_14 <= 0 ;
-1 d_14 -1 u_14 <= 0 ;
1 u_14 -1 M <= 0 ;
1 u_14 <= 1 ;
1 p_r0_g40_h25_t15 -1 x_r0_g40 <= 0 ;
1 p_r0_g40_h25_t15 -1 x_r0_g25 <= 0 ;
1 p_r0_g40_h25_t15 -1 x_r0_g40 -1 x_r0_g25 >= -1 ;
1 p_r0_g50_h35_t15 -1 x_r0_g50 <= 0 ;
1 p_r0_g50_h35_t15 -1 x_r0_g35 <= 0 ;
1 p_r0_g50_h35_t15 -1 x_r0_g50 -1 x_r0_g35 >= -1 ;
1 p_r0_g88_h73_t15 -1 x_r0_g88 <= 0 ;
1 p_r0_g88_h73_t15 -1 x_r0_g73 <= 0 ;
1 p_r0_g88_h73_t15 -1 x_r0_g88 -1 x_r0_g73 >= -1 ;
1 p_r0_g110_h95_t15 -1 x_r0_g110 <= 0 ;
1 p_r0_g110_h95_t15 -1 x_r0_g95 <= 0 ;
1 p_r0_g110_h95_t15 -1 x_r0_g110 -1 x_r0_g95 >= -1 ;
1 p_r0_g116_h101_t15 -1 x_r0_g116 <= 0 ;
1 p_r0_g116_h101_t15 -1 x_r0_g101 <= 0 ;
1 p_r0_g116_h101_t15 -1 x_r0_g116 -1 x_r0_g101 >= -1 ;
1 p_r0_g128_h113_t15 -1 x_r0_g128 <= 0 ;
1 p_r0_g128_h113_t15 -1 x_r0_g113 <= 0 ;
1 p_r0_g128_h113_t15 -1 x_r0_g128 -1 x_r0_g113 >= -1 ;
1 p_r0_g132_h117_t15 -1 x_r0_g132 <= 0 ;
1 p_r0_g132_h117_t15 -1 x_r0_g117 <= 0 ;
1 p_r0_g132_h117_t15 -1 x_r0_g132 -1 x_r0_g117 >= -1 ;
1 p_r1_g15_h0_t15 -1 x_r1_g15 <= 0 ;
1 p_r1_g15_h0_t15 -1 x_r1_g0 <= 0 ;
1 p_r1_g15_h0_t15 -1 x_r1_g15 -1 x_r1_g0 >= -1 ;
1 p_r1_g31_h16_t15 -1 x_r1_g31 <= 0 ;
1 p_r1_g31_h16_t15 -1 x_r1_g16 <= 0 ;
1 p_r1_g31_h16_t15 -1 x_r1_g31 -1 x_r1_g16 >= -1 ;
1 p_r1_g35_h20_t15 -1 x_r1_g35 <= 0 ;
1 p_r1_g35_h20_t15 -1 x_r1_g20 <= 0 ;
1 p_r1_g35_h20_t15 -1 x_r1_g35 -1 x_r1_g20 >= -1 ;
1 p_r1_g43_h28_t15 -1 x_r1_g43 <= 0 ;
1 p_r1_g43_h28_t15 -1 x_r1_g28 <= 0 ;
1 p_r1_g43_h28_t15 -1 x_r1_g43 -1 x_r1_g28 >= -1 ;
1 p_r1_g44_h29_t15 -1 x_r1_g44 <= 0 ;
1 p_r1_g44_h29_t15 -1 x_r1_g29 <= 0 ;
1 p_r1_g44_h29_t15 -1 x_r1_g44 -1 x_r1_g29 >= -1 ;
1 p_r1_g46_h31_t15 -1 x_r1_g46 <= 0 ;
1 p_r1_g46_h31_t15 -1 x_r1_g31 <= 0 ;
1 p_r1_g46_h31_t15 -1 x_r1_g46 -1 x_r1_g31 >= -1 ;
1 p_r1_g48_h33_t15 -1 x_r1_g48 <= 0 ;
1 p_r1_g48_h33_t15 -1 x_r1_g33 <= 0 ;
1 p_r1_g48_h33_t15 -1 x_r1_g48 -1 x_r1_g33 >= -1 ;
1 p_r1_g58_h43_t15 -1 x_r1_g58 <= 0 ;
1 p_r1_g58_h43_t15 -1 x_r1_g43 <= 0 ;
1 p_r1_g58_h43_t15 -1 x_r1_g58 -1 x_r1_g43 >= -1 ;
1 p_r1_g73_h58_t15 -1 x_r1_g73 <= 0 ;
1 p_r1_g73_h58_t15 -1 x_r1_g58 <= 0 ;
1 p_r1_g73_h58_t15 -1 x_r1_g73 -1 x_r1_g58 >= -1 ;
1 p_r1_g91_h76_t15 -1 x_r1_g91 <= 0 ;
1 p_r1_g91_h76_t15 -1 x_r1_g76 <= 0 ;
1 p_r1_g91_h76_t15 -1 x_r1_g91 -1 x_r1_g76 >= -1 ;
1 p_r1_g92_h77_t15 -1 x_r1_g92 <= 0 ;
1 p_r1_g92_h77_t15 -1 x_r1_g77 <= 0 ;
1 p_r1_g92_h77_t15 -1 x_r1_g92 -1 x_r1_g77 >= -1 ;
1 p_r1_g114_h99_t15 -1 x_r1_g114 <= 0 ;
1 p_r1_g114_h99_t15 -1 x_r1_g99 <= 0 ;
1 p_r1_g114_h99_t15 -1 x_r1_g114 -1 x_r1_g99 >= -1 ;
1 p_r1_g116_h101_t15 -1 x_r1_g116 <= 0 ;
1 p_r1_g116_h101_t15 -1 x_r1_g101 <= 0 ;
1 p_r1_g116_h101_t15 -1 x_r1_g116 -1 x_r1_g101 >= -1 ;
1 p_r1_g131_h116_t15 -1 x_r1_g131 <= 0 ;
1 p_r1_g131_h116_t15 -1 x_r1_g116 <= 0 ;
1 p_r1_g131_h116_t15 -1 x_r1_g131 -1 x_r1_g116 >= -1 ;
1 p_r2_g29_h14_t15 -1 x_r2_g29 <= 0 ;
1 p_r2_g29_h14_t15 -1 x_r2_g14 <= 0 ;
1 p_r2_g29_h14_t15 -1 x_r2_g29 -1 x_r2_g14 >= -1 ;
1 p_r2_g42_h27_t15 -1 x_r2_g42 <= 0 ;
1 p_r2_g42_h27_t15 -1 x_r2_g27 <= 0 ;
1 p_r2_g42_h27_t15 -1 x_r2_g42 -1 x_r2_g27 >= -1 ;
1 p_r2_g48_h33_t15 -1 x_r2_g48 <= 0 ;
1 p_r2_g48_h33_t15 -1 x_r2_g33 <= 0 ;
1 p_r2_g48_h33_t15 -1 x_r2_g48 -1 x_r2_g33 >= -1 ;
1 p_r2_g56_h41_t15 -1 x_r2_g56 <= 0 ;
1 p_r2_g56_h41_t15 -1 x_r2_g41 <= 0 ;
1 p_r2_g56_h41_t15 -1 x_r2_g56 -1 x_r2_g41 >= -1 ;
1 p_r2_g127_h112_t15 -1 x_r2_g127 <= 0 ;
1 p_r2_g127_h112_t15 -1 x_r2_g112 <= 0 ;
1 p_r2_g127_h112_t15 -1 x_r2_g127 -1 x_r2_g112 >= -1 ;
1 p_r2_g131_h116_t15 -1 x_r2_g131 <= 0 ;
1 p_r2_g131_h116_t15 -1 x_r2_g116 <= 0 ;
1 p_r2_g131_h116_t15 -1 x_r2_g131 -1 x_r2_g116 >= -1 ;
1 p_r2_g133_h118_t15 -1 x_r2_g133 <= 0 ;
1 p_r2_g133_h118_t15 -1 x_r2_g118 <= 0 ;
1 p_r2_g133_h118_t15 -1 x_r2_g133 -1 x_r2_g118 >= -1 ;
1 p_r2_g146_h131_t15 -1 x_r2_g146 <= 0 ;
1 p_r2_g146_h131_t15 -1 x_r2_g131 <= 0 ;
1 p_r2_g146_h131_t15 -1 x_r2_g146 -1 x_r2_g131 >= -1 ;
1 p_r2_g161_h146_t15 -1 x_r2_g161 <= 0 ;
1 p_r2_g161_h146_t15 -1 x_r2_g146 <= 0 ;
1 p_r2_g161_h146_t15 -1 x_r2_g161 -1 x_r2_g146 >= -1 ;
1 p_r3_g21_h6_t15 -1 x_r3_g21 <= 0 ;
1 p_r3_g21_h6_t15 -1 x_r3_g6 <= 0 ;
1 p_r3_g21_h6_t15 -1 x_r3_g21 -1 x_r3_g6 >= -1 ;
1 p_r3_g68_h53_t15 -1 x_r3_g68 <= 0 ;
1 p_r3_g68_h53_t15 -1 x_r3_g53 <= 0 ;
1 p_r3_g68_h53_t15 -1 x_r3_g68 -1 x_r3_g53 >= -1 ;
1 p_r3_g78_h63_t15 -1 x_r3_g78 <= 0 ;
1 p_r3_g78_h63_t15 -1 x_r3_g63 <= 0 ;
1 p_r3_g78_h63_t15 -1 x_r3_g78 -1 x_r3_g63 >= -1 ;
1 p_r3_g97_h82_t15 -1 x_r3_g97 <= 0 ;
1 p_r3_g97_h82_t15 -1 x_r3_g82 <= 0 ;
1 p_r3_g97_h82_t15 -1 x_r3_g97 -1 x_r3_g82 >= -1 ;
1 p_r3_g99_h84_t15 -1 x_r3_g99 <= 0 ;
1 p_r3_g99_h84_t15 -1 x_r3_g84 <= 0 ;
1 p_r3_g99_h84_t15 -1 x_r3_g99 -1 x_r3_g84 >= -1 ;
1 p_r3_g112_h97_t15 -1 x_r3_g112 <= 0 ;
1 p_r3_g112_h97_t15 -1 x_r3_g97 <= 0 ;
1 p_r3_g112_h97_t15 -1 x_r3_g112 -1 x_r3_g97 >= -1 ;
1 p_r3_g125_h110_t15 -1 x_r3_g125 <= 0 ;
1 p_r3_g125_h110_t15 -1 x_r3_g110 <= 0 ;
1 p_r3_g125_h110_t15 -1 x_r3_g125 -1 x_r3_g110 >= -1 ;
1 p_r3_g139_h124_t15 -1 x_r3_g139 <= 0 ;
1 p_r3_g139_h124_t15 -1 x_r3_g124 <= 0 ;
1 p_r3_g139_h124_t15 -1 x_r3_g139 -1 x_r3_g124 >= -1 ;
1 p_r3_g160_h145_t15 -1 x_r3_g160 <= 0 ;
1 p_r3_g160_h145_t15 -1 x_r3_g145 <= 0 ;
1 p_r3_g160_h145_t15 -1 x_r3_g160 -1 x_r3_g145 >= -1 ;
1 d_15 -1 x_r0_g6 -1 x_r0_g13 -2 x_r0_g22 -1 x_r0_g23 -1 x_r0_g35 -1 x_r0_g40 -1 x_r0_g44 -1 x_r0_g47 -1 x_r0_g49 -1 x_r0_g50 -1 x_r0_g66 -1 x_r0_g73 -1 x_r0_g74 -1 x_r0_g77 -1 x_r0_g88 -1 x_r0_g110 -1 x_r0_g111 -1 x_r0_g112 -1 x_r0_g113 -1 x_r0_g116 -1 x_r0_g117 -1 x_r0_g118 -1 x_r0_g128 -1 x_r0_g135 -1 x_r0_g136 -2 x_r0_g140 -1 x_r0_g144 -1 x_r0_g152 -1 x_r1_g16 -1 x_r1_g33 -1 x_r1_g38 -2 x_r1_g41 -2 x_r1_g42 -1 x_r1_g71 -1 x_r1_g73 -1 x_r1_g77 -2 x_r1_g85 -1 x_r1_g92 -1 x_r1_g99 -1 x_r1_g126 -1 x_r1_g128 -1 x_r1_g130 -1 x_r1_g131 -2 x_r2_g5 -2 x_r2_g6 -1 x_r2_g8 -1 x_r2_g10 -2 x_r2_g13 -1 x_r2_g33 -1 x_r2_g34 -1 x_r2_g35 -1 x_r2_g41 -1 x_r2_g48 -1 x_r2_g80 -1 x_r2_g93 -1 x_r2_g106 -1 x_r2_g111 -1 x_r2_g114 -1 x_r2_g116 -2 x_r2_g119 -2 x_r2_g125 -1 x_r2_g133 -1 x_r2_g138 -1 x_r2_g141 -2 x_r2_g145 -1 x_r2_g151 -1 x_r3_g4 -1 x_r3_g12 -1 x_r3_g21 -2 x_r3_g23 -2 x_r3_g24 -1 x_r3_g31 -1 x_r3_g52 -1 x_r3_g53 -1 x_r3_g54 -1 x_r3_g55 -1 x_r3_g58 -2 x_r3_g60 -2 x_r3_g61 -1 x_r3_g68 -2 x_r3_g74 -1 x_r3_g77 -1 x_r3_g112 -1 x_r3_g122 -1 x_r3_g125 -2 x_r3_g133 -1 x_r3_g136 -1 x_r3_g139 -1 x_r3_g159 -1 x_r3_g160 -1 x_r3_g165 -1 p_r0_g40_h25_t15 -1 p_r0_g50_h35_t15 -1 p_r0_g88_h73_t15 -1 p_r0_g110_h95_t15 -1 p_r0_g116_h101_t15 -1 p_r0_g128_h113_t15 -1 p_r0_g132_h117_t15 -1 p_r1_g15_h0_t15 -1 p_r1_g31_h16_t15 -1 p_r1_g35_h20_t15 -1 p_r1_g43_h28_t15 -1 p_r1_g44_h29_t15 -1 p_r1_g46_h31_t15 -1 p_r1_g48_h33_t15 -1 p_r1_g58_h43_t15 -1 p_r1_g73_h58_t15 -1 p_r1_g91_h76_t15 -1 p_r1_g92_h77_t15 -1 p_r1_g114_h99_t15 -1 p_r1_g116_h101_t15 -1 p_r1_g131_h116_t15 -1 p_r2_g29_h14_t15 -1 p_r2_g42_h27_t15 -1 p_r2_g48_h33_t15 -1 p_r2_g56_h41_t15 -1 p_r2_g127_h112_t15 -1 p_r2_g131_h116_t15 -1 p_r2_g133_h118_t15 -1 p_r2_g146_h131_t15 -1 p_r2_g161_h146_t15 -1 p_r3_g21_h6_t15 -1 p_r3_g68_h53_t15 -1 p_r3_g78_h63_t15 -1 p_r3_g97_h82_t15 -1 p_r3_g99_h84_t15 -1 p_r3_g112_h97_t15 -1 p_r3_g125_h110_t15 -1 p_r3_g139_h124_t15 -1 p_r3_g160_h145_t15 = -57 ;
1 d_15 -1 u_15 <= 0 ;
-1 d_15 -1 u_15 <= 0 ;
1 u_15 -1 M <= 0 ;
1 u_15 <= 1 ;
1 p_r0_g6_h156_t17 -1 x_r0_g6 <= 0 ;
1 p_r0_g6_h156_t17 -1 x_r0_g156 <= 0 ;
1 p_r0_g6_h156_t17 -1 x_r0_g6 -1 x_r0_g156 >= -1 ;
1 p_r0_g23_h6_t17 -1 x_r0_g23 <= 0 ;
1 p_r0_g23_h6_t17 -1 x_r0_g6 <= 0 ;
1 p_r0_g23_h6_t17 -1 x_r0_g23 -1 x_r0_g6 >= -1 ;
1 p_r0_g40_h23_t17 -1 x_r0_g40 <= 0 ;
1 p_r0_g40_h23_t17 -1 x_r0_g23 <= 0 ;
1 p_r0_g40_h23_t17 -1 x_r0_g40 -1 x_r0_g23 >= -1 ;
1 p_r0_g66_h49_t17 -1 x_r0_g66 <= 0 ;
1 p_r0_g66_h49_t17 -1 x_r0_g49 <= 0 ;
1 p_r0_g66_h49_t17 -1 x_r0_g66 -1 x_r0_g49 >= -1 ;
1 p_r0_g90_h73_t17 -1 x_r0_g90 <= 0 ;
1 p_r0_g90_h73_t17 -1 x_r0_g73 <= 0 ;
1 p_r0_g90_h73_t17 -1 x_r0_g90 -1 x_r0_g73 >= -1 ;
1 p_r0_g112_h95_t17 -1 x_r0_g112 <= 0 ;
1 p_r0_g112_h95_t17 -1 x_r0_g95 <= 0 ;
1 p_r0_g112_h95_t17 -1 x_r0_g112 -1 x_r0_g95 >= -1 ;
1 p_r0_g116_h99_t17 -1 x_r0_g116 <= 0 ;
1 p_r0_g116_h99_t17 -1 x_r0_g99 <= 0 ;
1 p_r0_g116_h99_t17 -1 x_r0_g116 -1 x_r0_g99 >= -1 ;
1 p_r0_g118_h101_t17 -1 x_r0_g118 <= 0 ;
1 p_r0_g118_h101_t17 -1 x_r0_g101 <= 0 ;
1 p_r0_g118_h101_t17 -1 x_r0_g118 -1 x_r0_g101 >= -1 ;
1 p_r0_g128_h111_t17 -1 x_r0_g128 <= 0 ;
1 p_r0_g128_h111_t17 -1 x_r0_g111 <= 0 ;
1 p_r0_g128_h111_t17 -1 x_r0_g128 -1 x_r0_g111 >= -1 ;
1 p_r0_g135_h118_t17 -1 x_r0_g135 <= 0 ;
1 p_r0_g135_h118_t17 -1 x_r0_g118 <= 0 ;
1 p_r0_g135_h118_t17 -1 x_r0_g135 -1 x_r0_g118 >= -1 ;
1 p_r0_g152_h135_t17 -1 x_r0_g152 <= 0 ;
1 p_r0_g152_h135_t17 -1 x_r0_g135 <= 0 ;
1 p_r0_g152_h135_t17 -1 x_r0_g152 -1 x_r0_g135 >= -1 ;
1 p_r0_g156_h139_t17 -1 x_r0_g156 <= 0 ;
1 p_r0_g156_h139_t17 -1 x_r0_g139 <= 0 ;
1 p_r0_g156_h139_t17 -1 x_r0_g156 -1 x_r0_g139 >= -1 ;
1 p_r1_g33_h16_t17 -1 x_r1_g33 <= 0 ;
1 p_r1_g33_h16_t17 -1 x_r1_g16 <= 0 ;
1 p_r1_g33_h16_t17 -1 x_r1_g33 -1 x_r1_g16 >= -1 ;
1 p_r1_g36_h19_t17 -1 x_r1_g36 <= 0 ;
1 p_r1_g36_h19_t17 -1 x_r1_g19 <= 0 ;
1 p_r1_g36_h19_t17 -1 x_r1_g36 -1 x_r1_g19 >= -1 ;
1 p_r1_g46_h29_t17 -1 x_r1_g46 <= 0 ;
1 p_r1_g46_h29_t17 -1 x_r1_g29 <= 0 ;
1 p_r1_g46_h29_t17 -1 x_r1_g46 -1 x_r1_g29 >= -1 ;
1 p_r1_g48_h31_t17 -1 x_r1_g48 <= 0 ;
1 p_r1_g48_h31_t17 -1 x_r1_g31 <= 0 ;
1 p_r1_g48_h31_t17 -1 x_r1_g48 -1 x_r1_g31 >= -1 ;
1 p_r1_g58_h41_t17 -1 x_r1_g58 <= 0 ;
1 p_r1_g58_h41_t17 -1 x_r1_g41 <= 0 ;
1 p_r1_g58_h41_t17 -1 x_r1_g58 -1 x_r1_g41 >= -1 ;
1 p_r1_g99_h82_t17 -1 x_r1_g99 <= 0 ;
1 p_r1_g99_h82_t17 -1 x_r1_g82 <= 0 ;
1 p_r1_g99_h82_t17 -1 x_r1_g99 -1 x_r1_g82 >= -1 ;
1 p_r1_g116_h99_t17 -1 x_r1_g116 <= 0 ;
1 p_r1_g116_h99_t17 -1 x_r1_g99 <= 0 ;
1 p_r1_g116_h99_t17 -1 x_r1_g116 -1 x_r1_g99 >= -1 ;
1 p_r1_g131_h114_t17 -1 x_r1_g131 <= 0 ;
1 p_r1_g131_h114_t17 -1 x_r1_g114 <= 0 ;
1 p_r1_g131_h114_t17 -1 x_r1_g131 -1 x_r1_g114 >= -1 ;
1 p_r2_g27_h10_t17 -1 x_r2_g27 <= 0 ;
1 p_r2_g27_h10_t17 -1 x_r2_g10 <= 0 ;
1 p_r2_g27_h10_t17 -1 x_r2_g27 -1 x_r2_g10 >= -1 ;
1 p_r2_g34_h17_t17 -1 x_r2_g34 <= 0 ;
1 p_r2_g34_h17_t17 -1 x_r2_g17 <= 0 ;
1 p_r2_g34_h17_t17 -1 x_r2_g34 -1 x_r2_g17 >= -1 ;
1 p_r2_g131_h114_t17 -1 x_r2_g131 <= 0 ;
1 p_r2_g131_h114_t17 -1 x_r2_g114 <= 0 ;
1 p_r2_g131_h114_t17 -1 x_r2_g131 -1 x_r2_g114 >= -1 ;
1 p_r2_g133_h116_t17 -1 x_r2_g133 <= 0 ;
1 p_r2_g133_h116_t17 -1 x_r2_g116 <= 0 ;
1 p_r2_g133_h116_t17 -1 x_r2_g133 -1 x_r2_g116 >= -1 ;
1 p_r3_g21_h4_t17 -1 x_r3_g21 <= 0 ;
1 p_r3_g21_h4_t17 -1 x_r3_g4 <= 0 ;
1 p_r3_g21_h4_t17 -1 x_r3_g21 -1 x_r3_g4 >= -1 ;
1 p_r3_g23_h6_t17 -1 x_r3_g23 <= 0 ;
1 p_r3_g23_h6_t17 -1 x_r3_g6 <= 0 ;
1 p_r3_g23_h6_t17 -1 x_r3_g23 -1 x_r3_g6 >= -1 ;
1 p_r3_g29_h12_t17 -1 x_r3_g29 <= 0 ;
1 p_r3_g29_h12_t17 -1 x_r3_g12 <= 0 ;
1 p_r3_g29_h12_t17 -1 x_r3_g29 -1 x_r3_g12 >= -1 ;
1 p_r3_g77_h60_t17 -1 x_r3_g77 <= 0 ;
1 p_r3_g77_h60_t17 -1 x_r3_g60 <= 0 ;
1 p_r3_g77_h60_t17 -1 x_r3_g77 -1 x_r3_g60 >= -1 ;
1 p_r3_g78_h61_t17 -1 x_r3_g78 <= 0 ;
1 p_r3_g78_h61_t17 -1 x_r3_g61 <= 0 ;
1 p_r3_g78_h61_t17 -1 x_r3_g78 -1 x_r3_g61 >= -1 ;
1 p_r3_g99_h82_t17 -1 x_r3_g99 <= 0 ;
1 p_r3_g99_h82_t17 -1 x_r3_g82 <= 0 ;
1 p_r3_g99_h82_t17 -1 x_r3_g99 -1 x_r3_g82 >= -1 ;
1 p_r3_g139_h122_t17 -1 x_r3_g139 <= 0 ;
1 p_r3_g139_h122_t17 -1 x_r3_g122 <= 0 ;
1 p_r3_g139_h122_t17 -1 x_r3_g139 -1 x_r3_g122 >= -1 ;
1 d_17 -2 x_r0_g13 -1 x_r0_g22 -1 x_r0_g25 -1 x_r0_g35 -1 x_r0_g46 -1 x_r0_g47 -1 x_r0_g50 -1 x_r0_g54 -1 x_r0_g110 -1 x_r0_g117 -1 x_r0_g132 -1 x_r0_g136 -1 x_r0_g139 -2 x_r0_g140 -1 x_r0_g144 -1 x_r0_g162 -1 x_r1_g15 -1 x_r1_g16 -2 x_r1_g20 -1 x_r1_g28 -1 x_r1_g35 -1 x_r1_g36 -1 x_r1_g43 -1 x_r1_g44 -1 x_r1_g48 -1 x_r1_g71 -2 x_r1_g73 -1 x_r1_g78 -1 x_r1_g82 -1 x_r1_g85 -1 x_r1_g91 -1 x_r1_g92 -1 x_r1_g101 -1 x_r1_g126 -1 x_r1_g130 -1 x_r1_g132 -1 x_r1_g157 -1 x_r2_g7 -2 x_r2_g8 -1 x_r2_g10 -2 x_r2_g13 -1 x_r2_g14 -1 x_r2_g17 -1 x_r2_g29 -1 x_r2_g35 -1 x_r2_g41 -1 x_r2_g42 -2 x_r2_g47 -2 x_r2_g48 -1 x_r2_g56 -1 x_r2_g80 -2 x_r2_g85 -1 x_r2_g93 -2 x_r2_g111 -1 x_r2_g112 -1 x_r2_g118 -2 x_r2_g119 -1 x_r2_g127 -1 x_r2_g131 -1 x_r2_g132 -1 x_r2_g133 -1 x_r2_g138 -1 x_r2_g139 -1 x_r2_g141 -1 x_r2_g145 -2 x_r2_g146 -2 x_r2_g151 -1 x_r3_g0 -1 x_r3_g4 -1 x_r3_g12 -1 x_r3_g21 -1 x_r3_g23 -1 x_r3_g24 -1 x_r3_g29 -1 x_r3_g53 -1 x_r3_g54 -1 x_r3_g55 -2 x_r3_g58 -1 x_r3_g60 -2 x_r3_g63 -1 x_r3_g77 -1 x_r3_g82 -1 x_r3_g97 -1 x_r3_g110 -2 x_r3_g111 -1 x_r3_g112 -2 x_r3_g125 -1 x_r3_g132 -1 x_r3_g136 -2 x_r3_g145 -2 x_r3_g146 -2 x_r3_g159 -1 x_r3_g160 -1 x_r3_g165 -1 p_r0_g6_h156_t17 -1 p_r0_g23_h6_t17 -1 p_r0_g40_h23_t17 -1 p_r0_g66_h49_t17 -1 p_r0_g90_h73_t17 -1 p_r0_g112_h95_t17 -1 p_r0_g116_h99_t17 -1 p_r0_g118_h101_t17 -1 p_r0_g128_h111_t17 -1 p_r0_g135_h118_t17 -1 p_r0_g152_h135_t17 -1 p_r0_g156_h139_t17 -1 p_r1_g33_h16_t17 -1 p_r1_g36_h19_t17 -1 p_r1_g46_h29_t17 -1 p_r1_g48_h31_t17 -1 p_r1_g58_h41_t17 -1 p_r1_g99_h82_t17 -1 p_r1_g116_h99_t17 -1 p_r1_g131_h114_t17 -1 p_r2_g27_h10_t17 -1 p_r2_g34_h17_t17 -1 p_r2_g131_h114_t17 -1 p_r2_g133_h116_t17 -1 p_r3_g21_h4_t17 -1 p_r3_g23_h6_t17 -1 p_r3_g29_h12_t17 -1 p_r3_g77_h60_t17 -1 p_r3_g78_h61_t17 -1 p_r3_g99_h82_t17 -1 p_r3_g139_h122_t17 = -57 ;
1 d_17 -1 u_17 <= 0 ;
-1 d_17 -1 u_17 <= 0 ;
1 u_17 -1 M <= 0 ;
1 u_17 <= 1 ;
1 p_r0_g25_h6_t19 -1 x_r0_g25 <= 0 ;
1 p_r0_g25_h6_t19 -1 x_r0_g6 <= 0 ;
1 p_r0_g25_h6_t19 -1 x_r0_g25 -1 x_r0_g6 >= -1 ;
1 p_r0_g35_h16_t19 -1 x_r0_g35 <= 0 ;
1 p_r0_g35_h16_t19 -1 x_r0_g16 <= 0 ;
1 p_r0_g35_h16_t19 -1 x_r0_g35 -1 x_r0_g16 >= -1 ;
1 p_r0_g44_h25_t19 -1 x_r0_g44 <= 0 ;
1 p_r0_g44_h25_t19 -1 x_r0_g25 <= 0 ;
1 p_r0_g44_h25_t19 -1 x_r0_g44 -1 x_r0_g25 >= -1 ;
1 p_r0_g54_h35_t19 -1 x_r0_g54 <= 0 ;
1 p_r0_g54_h35_t19 -1 x_r0_g35 <= 0 ;
1 p_r0_g54_h35_t19 -1 x_r0_g54 -1 x_r0_g35 >= -1 ;
1 p_r0_g66_h47_t19 -1 x_r0_g66 <= 0 ;
1 p_r0_g66_h47_t19 -1 x_r0_g47 <= 0 ;
1 p_r0_g66_h47_t19 -1 x_r0_g66 -1 x_r0_g47 >= -1 ;
1 p_r0_g73_h54_t19 -1 x_r0_g73 <= 0 ;
1 p_r0_g73_h54_t19 -1 x_r0_g54 <= 0 ;
1 p_r0_g73_h54_t19 -1 x_r0_g73 -1 x_r0_g54 >= -1 ;
1 p_r0_g118_h99_t19 -1 x_r0_g118 <= 0 ;
1 p_r0_g118_h99_t19 -1 x_r0_g99 <= 0 ;
1 p_r0_g118_h99_t19 -1 x_r0_g118 -1 x_r0_g99 >= -1 ;
1 p_r0_g132_h113_t19 -1 x_r0_g132 <= 0 ;
1 p_r0_g132_h113_t19 -1 x_r0_g113 <= 0 ;
1 p_r0_g132_h113_t19 -1 x_r0_g132 -1 x_r0_g113 >= -1 ;
1 p_r0_g135_h116_t19 -1 x_r0_g135 <= 0 ;
1 p_r0_g135_h116_t19 -1 x_r0_g116 <= 0 ;
1 p_r0_g135_h116_t19 -1 x_r0_g135 -1 x_r0_g116 >= -1 ;
1 p_r0_g136_h117_t19 -1 x_r0_g136 <= 0 ;
1 p_r0_g136_h117_t19 -1 x_r0_g117 <= 0 ;
1 p_r0_g136_h117_t19 -1 x_r0_g136 -1 x_r0_g117 >= -1 ;
1 p_r1_g16_h164_t19 -1 x_r1_g16 <= 0 ;
1 p_r1_g16_h164_t19 -1 x_r1_g164 <= 0 ;
1 p_r1_g16_h164_t19 -1 x_r1_g16 -1 x_r1_g164 >= -1 ;
1 p_r1_g19_h0_t19 -1 x_r1_g19 <= 0 ;
1 p_r1_g19_h0_t19 -1 x_r1_g0 <= 0 ;
1 p_r1_g19_h0_t19 -1 x_r1_g19 -1 x_r1_g0 >= -1 ;
1 p_r1_g35_h16_t19 -1 x_r1_g35 <= 0 ;
1 p_r1_g35_h16_t19 -1 x_r1_g16 <= 0 ;
1 p_r1_g35_h16_t19 -1 x_r1_g35 -1 x_r1_g16 >= -1 ;
1 p_r1_g38_h19_t19 -1 x_r1_g38 <= 0 ;
1 p_r1_g38_h19_t19 -1 x_r1_g19 <= 0 ;
1 p_r1_g38_h19_t19 -1 x_r1_g38 -1 x_r1_g19 >= -1 ;
1 p_r1_g48_h29_t19 -1 x_r1_g48 <= 0 ;
1 p_r1_g48_h29_t19 -1 x_r1_g29 <= 0 ;
1 p_r1_g48_h29_t19 -1 x_r1_g48 -1 x_r1_g29 >= -1 ;
1 p_r1_g77_h58_t19 -1 x_r1_g77 <= 0 ;
1 p_r1_g77_h58_t19 -1 x_r1_g58 <= 0 ;
1 p_r1_g77_h58_t19 -1 x_r1_g77 -1 x_r1_g58 >= -1 ;
1 p_r1_g92_h73_t19 -1 x_r1_g92 <= 0 ;
1 p_r1_g92_h73_t19 -1 x_r1_g73 <= 0 ;
1 p_r1_g92_h73_t19 -1 x_r1_g92 -1 x_r1_g73 >= -1 ;
1 p_r1_g101_h82_t19 -1 x_r1_g101 <= 0 ;
1 p_r1_g101_h82_t19 -1 x_r1_g82 <= 0 ;
1 p_r1_g101_h82_t19 -1 x_r1_g101 -1 x_r1_g82 >= -1 ;
1 p_r2_g13_h161_t19 -1 x_r2_g13 <= 0 ;
1 p_r2_g13_h161_t19 -1 x_r2_g161 <= 0 ;
1 p_r2_g13_h161_t19 -1 x_r2_g13 -1 x_r2_g161 >= -1 ;
1 p_r2_g27_h8_t19 -1 x_r2_g27 <= 0 ;
1 p_r2_g27_h8_t19 -1 x_r2_g8 <= 0 ;
1 p_r2_g27_h8_t19 -1 x_r2_g27 -1 x_r2_g8 >= -1 ;
1 p_r2_g29_h10_t19 -1 x_r2_g29 <= 0 ;
1 p_r2_g29_h10_t19 -1 x_r2_g10 <= 0 ;
1 p_r2_g29_h10_t19 -1 x_r2_g29 -1 x_r2_g10 >= -1 ;
1 p_r2_g33_h14_t19 -1 x_r2_g33 <= 0 ;
1 p_r2_g33_h14_t19 -1 x_r2_g14 <= 0 ;
1 p_r2_g33_h14_t19 -1 x_r2_g33 -1 x_r2_g14 >= -1 ;
1 p_r2_g48_h29_t19 -1 x_r2_g48 <= 0 ;
1 p_r2_g48_h29_t19 -1 x_r2_g29 <= 0 ;
1 p_r2_g48_h29_t19 -1 x_r2_g48 -1 x_r2_g29 >= -1 ;
1 p_r2_g112_h93_t19 -1 x_r2_g112 <= 0 ;
1 p_r2_g112_h93_t19 -1 x_r2_g93 <= 0 ;
1 p_r2_g112_h93_t19 -1 x_r2_g112 -1 x_r2_g93 >= -1 ;
1 p_r2_g125_h106_t19 -1 x_r2_g125 <= 0 ;
1 p_r2_g125_h106_t19 -1 x_r2_g106 <= 0 ;
1 p_r2_g125_h106_t19 -1 x_r2_g125 -1 x_r2_g106 >= -1 ;
1 p_r2_g131_h112_t19 -1 x_r2_g131 <= 0 ;
1 p_r2_g131_h112_t19 -1 x_r2_g112 <= 0 ;
1 p_r2_g131_h112_t19 -1 x_r2_g131 -1 x_r2_g112 >= -1 ;
1 p_r2_g133_h114_t19 -1 x_r2_g133 <= 0 ;
1 p_r2_g133_h114_t19 -1 x_r2_g114 <= 0 ;
1 p_r2_g133_h114_t19 -1 x_r2_g133 -1 x_r2_g114 >= -1 ;
1 p_r2_g138_h119_t19 -1 x_r2_g138 <= 0 ;
1 p_r2_g138_h119_t19 -1 x_r2_g119 <= 0 ;
1 p_r2_g138_h119_t19 -1 x_r2_g138 -1 x_r2_g119 >= -1 ;
1 p_r2_g146_h127_t19 -1 x_r2_g146 <= 0 ;
1 p_r2_g146_h127_t19 -1 x_r2_g127 <= 0 ;
1 p_r2_g146_h127_t19 -1 x_r2_g146 -1 x_r2_g127 >= -1 ;
1 p_r2_g151_h132_t19 -1 x_r2_g151 <= 0 ;
1 p_r2_g151_h132_t19 -1 x_r2_g132 <= 0 ;
1 p_r2_g151_h132_t19 -1 x_r2_g151 -1 x_r2_g132 >= -1 ;
1 p_r3_g12_h160_t19 -1 x_r3_g12 <= 0 ;
1 p_r3_g12_h160_t19 -1 x_r3_g160 <= 0 ;
1 p_r3_g12_h160_t19 -1 x_r3_g12 -1 x_r3_g160 >= -1 ;
1 p_r3_g23_h4_t19 -1 x_r3_g23 <= 0 ;
1 p_r3_g23_h4_t19 -1 x_r3_g4 <= 0 ;
1 p_r3_g23_h4_t19 -1 x_r3_g23 -1 x_r3_g4 >= -1 ;
1 p_r3_g31_h12_t19 -1 x_r3_g31 <= 0 ;
1 p_r3_g31_h12_t19 -1 x_r3_g12 <= 0 ;
1 p_r3_g31_h12_t19 -1 x_r3_g31 -1 x_r3_g12 >= -1 ;
1 p_r3_g74_h55_t19 -1 x_r3_g74 <= 0 ;
1 p_r3_g74_h55_t19 -1 x_r3_g55 <= 0 ;
1 p_r3_g74_h55_t19 -1 x_r3_g74 -1 x_r3_g55 >= -1 ;
1 p_r3_g77_h58_t19 -1 x_r3_g77 <= 0 ;
1 p_r3_g77_h58_t19 -1 x_r3_g58 <= 0 ;
1 p_r3_g77_h58_t19 -1 x_r3_g77 -1 x_r3_g58 >= -1 ;
1 p_r3_g82_h63_t19 -1 x_r3_g82 <= 0 ;
1 p_r3_g82_h63_t19 -1 x_r3_g63 <= 0 ;
1 p_r3_g82_h63_t19 -1 x_r3_g82 -1 x_r3_g63 >= -1 ;
1 p_r3_g97_h78_t19 -1 x_r3_g97 <= 0 ;
1 p_r3_g97_h78_t19 -1 x_r3_g78 <= 0 ;
1 p_r3_g97_h78_t19 -1 x_r3_g97 -1 x_r3_g78 >= -1 ;
1 p_r3_g165_h146_t19 -1 x_r3_g165 <= 0 ;
1 p_r3_g165_h146_t19 -1 x_r3_g146 <= 0 ;
1 p_r3_g165_h146_t19 -1 x_r3_g165 -1 x_r3_g146 >= -1 ;
1 d_19 -1 x_r0_g22 -1 x_r0_g23 -1 x_r0_g40 -1 x_r0_g44 -1 x_r0_g46 -2 x_r0_g49 -1 x_r0_g74 -1 x_r0_g77 -1 x_r0_g101 -1 x_r0_g112 -1 x_r0_g117 -1 x_r0_g118 -1 x_r0_g132 -1 x_r0_g136 -2 x_r0_g139 -1 x_r0_g140 -2 x_r0_g144 -1 x_r0_g156 -2 x_r0_g162 -1 x_r1_g15 -2 x_r1_g20 -1 x_r1_g29 -1 x_r1_g38 -1 x_r1_g43 -2 x_r1_g46 -1 x_r1_g58 -1 x_r1_g71 -2 x_r1_g76 -1 x_r1_g77 -1 x_r1_g85 -2 x_r1_g89 -1 x_r1_g99 -1 x_r1_g114 -1 x_r1_g126 -1 x_r1_g128 -1 x_r1_g131 -1 x_r1_g132 -1 x_r1_g157 -1 x_r2_g5 -1 x_r2_g6 -1 x_r2_g7 -1 x_r2_g10 -1 x_r2_g17 -1 x_r2_g27 -1 x_r2_g41 -1 x_r2_g42 -1 x_r2_g47 -1 x_r2_g56 -1 x_r2_g80 -1 x_r2_g85 -1 x_r2_g93 -1 x_r2_g106 -1 x_r2_g111 -1 x_r2_g118 -1 x_r2_g131 -1 x_r2_g132 -1 x_r2_g133 -1 x_r2_g138 -2 x_r2_g139 -2 x_r2_g141 -1 x_r2_g145 -1 x_r2_g146 -2 x_r3_g0 -1 x_r3_g6 -2 x_r3_g21 -2 x_r3_g24 -1 x_r3_g55 -1 x_r3_g58 -1 x_r3_g60 -1 x_r3_g61 -1 x_r3_g68 -1 x_r3_g78 -1 x_r3_g84 -2 x_r3_g99 -1 x_r3_g110 -1 x_r3_g124 -2 x_r3_g125 -1 x_r3_g132 -1 x_r3_g146 -1 x_r3_g159 -1 x_r3_g165 -1 p_r0_g25_h6_t19 -1 p_r0_g35_h16_t19 -1 p_r0_g44_h25_t19 -1 p_r0_g54_h35_t19 -1 p_r0_g66_h47_t19 -1 p_r0_g73_h54_t19 -1 p_r0_g118_h99_t19 -1 p_r0_g132_h113_t19 -1 p_r0_g135_h116_t19 -1 p_r0_g136_h117_t19 -1 p_r1_g16_h164_t19 -1 p_r1_g19_h0_t19 -1 p_r1_g35_h16_t19 -1 p_r1_g38_h19_t19 -1 p_r1_g48_h29_t19 -1 p_r1_g77_h58_t19 -1 p_r1_g92_h73_t19 -1 p_r1_g101_h82_t19 -1 p_r2_g13_h161_t19 -1 p_r2_g27_h8_t19 -1 p_r2_g29_h10_t19 -1 p_r2_g33_h14_t19 -1 p_r2_g48_h29_t19 -1 p_r2_g112_h93_t19 -1 p_r2_g125_h106_t19 -1 p_r2_g131_h112_t19 -1 p_r2_g133_h114_t19 -1 p_r2_g138_h119_t19 -1 p_r2_g146_h127_t19 -1 p_r2_g151_h132_t19 -1 p_r3_g12_h160_t19 -1 p_r3_g23_h4_t19 -1 p_r3_g31_h12_t19 -1 p_r3_g74_h55_t19 -1 p_r3_g77_h58_t19 -1 p_r3_g82_h63_t19 -1 p_r3_g97_h78_t19 -1 p_r3_g165_h146_t19 = -53 ;
1 d_19 -1 u_19 <= 0 ;
-1 d_19 -1 u_19 <= 0 ;
1 u_19 -1 M <= 0 ;
1 u_19 <= 1 ;
1 p_r0_g35_h13_t22 -1 x_r0_g35 <= 0 ;
1 p_r0_g35_h13_t22 -1 x_r0_g13 <= 0 ;
1 p_r0_g35_h13_t22 -1 x_r0_g35 -1 x_r0_g13 >= -1 ;
1 p_r0_g44_h22_t22 -1 x_r0_g44 <= 0 ;
1 p_r0_g44_h22_t22 -1 x_r0_g22 <= 0 ;
1 p_r0_g44_h22_t22 -1 x_r0_g44 -1 x_r0_g22 >= -1 ;
1 p_r0_g47_h25_t22 -1 x_r0_g47 <= 0 ;
1 p_r0_g47_h25_t22 -1 x_r0_g25 <= 0 ;
1 p_r0_g47_h25_t22 -1 x_r0_g47 -1 x_r0_g25 >= -1 ;
1 p_r0_g66_h44_t22 -1 x_r0_g66 <= 0 ;
1 p_r0_g66_h44_t22 -1 x_r0_g44 <= 0 ;
1 p_r0_g66_h44_t22 -1 x_r0_g66 -1 x_r0_g44 >= -1 ;
1 p_r0_g88_h66_t22 -1 x_r0_g88 <= 0 ;
1 p_r0_g88_h66_t22 -1 x_r0_g66 <= 0 ;
1 p_r0_g88_h66_t22 -1 x_r0_g88 -1 x_r0_g66 >= -1 ;
1 p_r0_g95_h73_t22 -1 x_r0_g95 <= 0 ;
1 p_r0_g95_h73_t22 -1 x_r0_g73 <= 0 ;
1 p_r0_g95_h73_t22 -1 x_r0_g95 -1 x_r0_g73 >= -1 ;
1 p_r0_g99_h77_t22 -1 x_r0_g99 <= 0 ;
1 p_r0_g99_h77_t22 -1 x_r0_g77 <= 0 ;
1 p_r0_g99_h77_t22 -1 x_r0_g99 -1 x_r0_g77 >= -1 ;
1 p_r0_g110_h88_t22 -1 x_r0_g110 <= 0 ;
1 p_r0_g110_h88_t22 -1 x_r0_g88 <= 0 ;
1 p_r0_g110_h88_t22 -1 x_r0_g110 -1 x_r0_g88 >= -1 ;
1 p_r0_g112_h90_t22 -1 x_r0_g112 <= 0 ;
1 p_r0_g112_h90_t22 -1 x_r0_g90 <= 0 ;
1 p_r0_g112_h90_t22 -1 x_r0_g112 -1 x_r0_g90 >= -1 ;
1 p_r0_g117_h95_t22 -1 x_r0_g117 <= 0 ;
1 p_r0_g117_h95_t22 -1 x_r0_g95 <= 0 ;
1 p_r0_g117_h95_t22 -1 x_r0_g117 -1 x_r0_g95 >= -1 ;
1 p_r0_g132_h110_t22 -1 x_r0_g132 <= 0 ;
1 p_r0_g132_h110_t22 -1 x_r0_g110 <= 0 ;
1 p_r0_g132_h110_t22 -1 x_r0_g132 -1 x_r0_g110 >= -1 ;
1 p_r0_g135_h113_t22 -1 x_r0_g135 <= 0 ;
1 p_r0_g135_h113_t22 -1 x_r0_g113 <= 0 ;
1 p_r0_g135_h113_t22 -1 x_r0_g135 -1 x_r0_g113 >= -1 ;
1 p_r0_g139_h117_t22 -1 x_r0_g139 <= 0 ;
1 p_r0_g139_h117_t22 -1 x_r0_g117 <= 0 ;
1 p_r0_g139_h117_t22 -1 x_r0_g139 -1 x_r0_g117 >= -1 ;
1 p_r0_g140_h118_t22 -1 x_r0_g140 <= 0 ;
1 p_r0_g140_h118_t22 -1 x_r0_g118 <= 0 ;
1 p_r0_g140_h118_t22 -1 x_r0_g140 -1 x_r0_g118 >= -1 ;
1 p_r0_g162_h140_t22 -1 x_r0_g162 <= 0 ;
1 p_r0_g162_h140_t22 -1 x_r0_g140 <= 0 ;
1 p_r0_g162_h140_t22 -1 x_r0_g162 -1 x_r0_g140 >= -1 ;
1 p_r1_g19_h164_t22 -1 x_r1_g19 <= 0 ;
1 p_r1_g19_h164_t22 -1 x_r1_g164 <= 0 ;
1 p_r1_g19_h164_t22 -1 x_r1_g19 -1 x_r1_g164 >= -1 ;
1 p_r1_g38_h16_t22 -1 x_r1_g38 <= 0 ;
1 p_r1_g38_h16_t22 -1 x_r1_g16 <= 0 ;
1 p_r1_g38_h16_t22 -1 x_r1_g38 -1 x_r1_g16 >= -1 ;
1 p_r1_g41_h19_t22 -1 x_r1_g41 <= 0 ;
1 p_r1_g41_h19_t22 -1 x_r1_g19 <= 0 ;
1 p_r1_g41_h19_t22 -1 x_r1_g41 -1 x_r1_g19 >= -1 ;
1 p_r1_g42_h20_t22 -1 x_r1_g42 <= 0 ;
1 p_r1_g42_h20_t22 -1 x_r1_g20 <= 0 ;
1 p_r1_g42_h20_t22 -1 x_r1_g42 -1 x_r1_g20 >= -1 ;
1 p_r1_g58_h36_t22 -1 x_r1_g58 <= 0 ;
1 p_r1_g58_h36_t22 -1 x_r1_g36 <= 0 ;
1 p_r1_g58_h36_t22 -1 x_r1_g58 -1 x_r1_g36 >= -1 ;
1 p_r1_g99_h77_t22 -1 x_r1_g99 <= 0 ;
1 p_r1_g99_h77_t22 -1 x_r1_g77 <= 0 ;
1 p_r1_g99_h77_t22 -1 x_r1_g99 -1 x_r1_g77 >= -1 ;
1 p_r1_g114_h92_t22 -1 x_r1_g114 <= 0 ;
1 p_r1_g114_h92_t22 -1 x_r1_g92 <= 0 ;
1 p_r1_g114_h92_t22 -1 x_r1_g114 -1 x_r1_g92 >= -1 ;
1 p_r2_g6_h151_t22 -1 x_r2_g6 <= 0 ;
1 p_r2_g6_h151_t22 -1 x_r2_g151 <= 0 ;
1 p_r2_g6_h151_t22 -1 x_r2_g6 -1 x_r2_g151 >= -1 ;
1 p_r2_g27_h5_t22 -1 x_r2_g27 <= 0 ;
1 p_r2_g27_h5_t22 -1 x_r2_g5 <= 0 ;
1 p_r2_g27_h5_t22 -1 x_r2_g27 -1 x_r2_g5 >= -1 ;
1 p_r2_g29_h7_t22 -1 x_r2_g29 <= 0 ;
1 p_r2_g29_h7_t22 -1 x_r2_g7 <= 0 ;
1 p_r2_g29_h7_t22 -1 x_r2_g29 -1 x_r2_g7 >= -1 ;
1 p_r2_g35_h13_t22 -1 x_r2_g35 <= 0 ;
1 p_r2_g35_h13_t22 -1 x_r2_g13 <= 0 ;
1 p_r2_g35_h13_t22 -1 x_r2_g35 -1 x_r2_g13 >= -1 ;
1 p_r2_g56_h34_t22 -1 x_r2_g56 <= 0 ;
1 p_r2_g56_h34_t22 -1 x_r2_g34 <= 0 ;
1 p_r2_g56_h34_t22 -1 x_r2_g56 -1 x_r2_g34 >= -1 ;
1 p_r2_g133_h111_t22 -1 x_r2_g133 <= 0 ;
1 p_r2_g133_h111_t22 -1 x_r2_g111 <= 0 ;
1 p_r2_g133_h111_t22 -1 x_r2_g133 -1 x_r2_g111 >= -1 ;
1 p_r2_g138_h116_t22 -1 x_r2_g138 <= 0 ;
1 p_r2_g138_h116_t22 -1 x_r2_g116 <= 0 ;
1 p_r2_g138_h116_t22 -1 x_r2_g138 -1 x_r2_g116 >= -1 ;
1 p_r2_g141_h119_t22 -1 x_r2_g141 <= 0 ;
1 p_r2_g141_h119_t22 -1 x_r2_g119 <= 0 ;
1 p_r2_g141_h119_t22 -1 x_r2_g141 -1 x_r2_g119 >= -1 ;
1 p_r2_g161_h139_t22 -1 x_r2_g161 <= 0 ;
1 p_r2_g161_h139_t22 -1 x_r2_g139 <= 0 ;
1 p_r2_g161_h139_t22 -1 x_r2_g161 -1 x_r2_g139 >= -1 ;
1 p_r3_g0_h145_t22 -1 x_r3_g0 <= 0 ;
1 p_r3_g0_h145_t22 -1 x_r3_g145 <= 0 ;
1 p_r3_g0_h145_t22 -1 x_r3_g0 -1 x_r3_g145 >= -1 ;
1 p_r3_g53_h31_t22 -1 x_r3_g53 <= 0 ;
1 p_r3_g53_h31_t22 -1 x_r3_g31 <= 0 ;
1 p_r3_g53_h31_t22 -1 x_r3_g53 -1 x_r3_g31 >= -1 ;
1 p_r3_g74_h52_t22 -1 x_r3_g74 <= 0 ;
1 p_r3_g74_h52_t22 -1 x_r3_g52 <= 0 ;
1 p_r3_g74_h52_t22 -1 x_r3_g74 -1 x_r3_g52 >= -1 ;
1 p_r3_g77_h55_t22 -1 x_r3_g77 <= 0 ;
1 p_r3_g77_h55_t22 -1 x_r3_g55 <= 0 ;
1 p_r3_g77_h55_t22 -1 x_r3_g77 -1 x_r3_g55 >= -1 ;
1 p_r3_g82_h60_t22 -1 x_r3_g82 <= 0 ;
1 p_r3_g82_h60_t22 -1 x_r3_g60 <= 0 ;
1 p_r3_g82_h60_t22 -1 x_r3_g82 -1 x_r3_g60 >= -1 ;
1 p_r3_g99_h77_t22 -1 x_r3_g99 <= 0 ;
1 p_r3_g99_h77_t22 -1 x_r3_g77 <= 0 ;
1 p_r3_g99_h77_t22 -1 x_r3_g99 -1 x_r3_g77 >= -1 ;
1 p_r3_g132_h110_t22 -1 x_r3_g132 <= 0 ;
1 p_r3_g132_h110_t22 -1 x_r3_g110 <= 0 ;
1 p_r3_g132_h110_t22 -1 x_r3_g132 -1 x_r3_g110 >= -1 ;
1 p_r3_g133_h111_t22 -1 x_r3_g133 <= 0 ;
1 p_r3_g133_h111_t22 -1 x_r3_g111 <= 0 ;
1 p_r3_g133_h111_t22 -1 x_r3_g133 -1 x_r3_g111 >= -1 ;
1 p_r3_g146_h124_t22 -1 x_r3_g146 <= 0 ;
1 p_r3_g146_h124_t22 -1 x_r3_g124 <= 0 ;
1 p_r3_g146_h124_t22 -1 x_r3_g146 -1 x_r3_g124 >= -1 ;
1 d_22 -1 x_r0_g6 -1 x_r0_g13 -1 x_r0_g16 -1 x_r0_g23 -1 x_r0_g25 -1 x_r0_g40 -1 x_r0_g46 -1 x_r0_g73 -1 x_r0_g74 -1 x_r0_g77 -1 x_r0_g90 -1 x_r0_g101 -1 x_r0_g128 -1 x_r0_g135 -1 x_r0_g136 -1 x_r0_g144 -1 x_r0_g152 -1 x_r0_g156 -2 x_r1_g15 -1 x_r1_g31 -1 x_r1_g33 -1 x_r1_g35 -1 x_r1_g42 -1 x_r1_g43 -1 x_r1_g44 -1 x_r1_g46 -2 x_r1_g48 -1 x_r1_g58 -1 x_r1_g71 -1 x_r1_g73 -1 x_r1_g76 -2 x_r1_g78 -1 x_r1_g85 -2 x_r1_g91 -1 x_r1_g92 -2 x_r1_g101 -1 x_r1_g116 -1 x_r1_g130 -1 x_r1_g131 -1 x_r1_g132 -1 x_r2_g5 -1 x_r2_g6 -1 x_r2_g7 -2 x_r2_g8 -1 x_r2_g13 -1 x_r2_g17 -1 x_r2_g27 -1 x_r2_g41 -2 x_r2_g42 -1 x_r2_g47 -1 x_r2_g48 -1 x_r2_g56 -2 x_r2_g80 -1 x_r2_g85 -1 x_r2_g93 -1 x_r2_g106 -2 x_r2_g112 -1 x_r2_g114 -1 x_r2_g116 -1 x_r2_g118 -1 x_r2_g127 -1 x_r2_g131 -1 x_r2_g132 -1 x_r2_g138 -1 x_r2_g141 -1 x_r2_g145 -1 x_r2_g146 -1 x_r2_g151 -1 x_r3_g0 -2 x_r3_g4 -2 x_r3_g6 -2 x_r3_g21 -2 x_r3_g23 -2 x_r3_g24 -1 x_r3_g31 -1 x_r3_g52 -1 x_r3_g53 -2 x_r3_g54 -2 x_r3_g58 -1 x_r3_g60 -2 x_r3_g61 -1 x_r3_g63 -1 x_r3_g68 -2 x_r3_g84 -2 x_r3_g97 -1 x_r3_g111 -1 x_r3_g112 -1 x_r3_g122 -1 x_r3_g132 -1 x_r3_g145 -1 x_r3_g146 -1 x_r3_g159 -1 x_r3_g160 -2 x_r3_g165 -1 p_r0_g35_h13_t22 -1 p_r0_g44_h22_t22 -1 p_r0_g47_h25_t22 -1 p_r0_g66_h44_t22 -1 p_r0_g88_h66_t22 -1 p_r0_g95_h73_t22 -1 p_r0_g99_h77_t22 -1 p_r0_g110_h88_t22 -1 p_r0_g112_h90_t22 -1 p_r0_g117_h95_t22 -1 p_r0_g132_h110_t22 -1 p_r0_g135_h113_t22 -1 p_r0_g139_h117_t22 -1 p_r0_g140_h118_t22 -1 p_r0_g162_h140_t22 -1 p_r1_g19_h164_t22 -1 p_r1_g38_h16_t22 -1 p_r1_g41_h19_t22 -1 p_r1_g42_h20_t22 -1 p_r1_g58_h36_t22 -1 p_r1_g99_h77_t22 -1 p_r1_g114_h92_t22 -1 p_r2_g6_h151_t22 -1 p_r2_g27_h5_t22 -1 p_r2_g29_h7_t22 -1 p_r2_g35_h13_t22 -1 p_r2_g56_h34_t22 -1 p_r2_g133_h111_t22 -1 p_r2_g138_h116_t22 -1 p_r2_g141_h119_t22 -1 p_r2_g161_h139_t22 -1 p_r3_g0_h145_t22 -1 p_r3_g53_h31_t22 -1 p_r3_g74_h52_t22 -1 p_r3_g77_h55_t22 -1 p_r3_g82_h60_t22 -1 p_r3_g99_h77_t22 -1 p_r3_g132_h110_t22 -1 p_r3_g133_h111_t22 -1 p_r3_g146_h124_t22 = -61 ;
1 d_22 -1 u_22 <= 0 ;
-1 d_22 -1 u_22 <= 0 ;
1 u_22 -1 M <= 0 ;
1 u_22 <= 1 ;
1 p_r0_g6_h139_t34 -1 x_r0_g6 <= 0 ;
1 p_r0_g6_h139_t34 -1 x_r0_g139 <= 0 ;
1 p_r0_g6_h139_t34 -1 x_r0_g6 -1 x_r0_g139 >= -1 ;
1 p_r0_g23_h156_t34 -1 x_r0_g23 <= 0 ;
1 p_r0_g23_h156_t34 -1 x_r0_g156 <= 0 ;
1 p_r0_g23_h156_t34 -1 x_r0_g23 -1 x_r0_g156 >= -1 ;
1 p_r0_g40_h6_t34 -1 x_r0_g40 <= 0 ;
1 p_r0_g40_h6_t34 -1 x_r0_g6 <= 0 ;
1 p_r0_g40_h6_t34 -1 x_r0_g40 -1 x_r0_g6 >= -1 ;
1 p_r0_g47_h13_t34 -1 x_r0_g47 <= 0 ;
1 p_r0_g47_h13_t34 -1 x_r0_g13 <= 0 ;
1 p_r0_g47_h13_t34 -1 x_r0_g47 -1 x_r0_g13 >= -1 ;
1 p_r0_g50_h16_t34 -1 x_r0_g50 <= 0 ;
1 p_r0_g50_h16_t34 -1 x_r0_g16 <= 0 ;
1 p_r0_g50_h16_t34 -1 x_r0_g50 -1 x_r0_g16 >= -1 ;
1 p_r0_g74_h40_t34 -1 x_r0_g74 <= 0 ;
1 p_r0_g74_h40_t34 -1 x_r0_g40 <= 0 ;
1 p_r0_g74_h40_t34 -1 x_r0_g74 -1 x_r0_g40 >= -1 ;
1 p_r0_g88_h54_t34 -1 x_r0_g88 <= 0 ;
1 p_r0_g88_h54_t34 -1 x_r0_g54 <= 0 ;
1 p_r0_g88_h54_t34 -1 x_r0_g88 -1 x_r0_g54 >= -1 ;
1 p_r0_g111_h77_t34 -1 x_r0_g111 <= 0 ;
1 p_r0_g111_h77_t34 -1 x_r0_g77 <= 0 ;
1 p_r0_g111_h77_t34 -1 x_r0_g111 -1 x_r0_g77 >= -1 ;
1 p_r0_g135_h101_t34 -1 x_r0_g135 <= 0 ;
1 p_r0_g135_h101_t34 -1 x_r0_g101 <= 0 ;
1 p_r0_g135_h101_t34 -1 x_r0_g135 -1 x_r0_g101 >= -1 ;
1 p_r0_g144_h110_t34 -1 x_r0_g144 <= 0 ;
1 p_r0_g144_h110_t34 -1 x_r0_g110 <= 0 ;
1 p_r0_g144_h110_t34 -1 x_r0_g144 -1 x_r0_g110 >= -1 ;
1 p_r0_g152_h118_t34 -1 x_r0_g152 <= 0 ;
1 p_r0_g152_h118_t34 -1 x_r0_g118 <= 0 ;
1 p_r0_g152_h118_t34 -1 x_r0_g152 -1 x_r0_g118 >= -1 ;
1 p_r0_g162_h128_t34 -1 x_r0_g162 <= 0 ;
1 p_r0_g162_h128_t34 -1 x_r0_g128 <= 0 ;
1 p_r0_g162_h128_t34 -1 x_r0_g162 -1 x_r0_g128 >= -1 ;
1 p_r1_g31_h164_t34 -1 x_r1_g31 <= 0 ;
1 p_r1_g31_h164_t34 -1 x_r1_g164 <= 0 ;
1 p_r1_g31_h164_t34 -1 x_r1_g31 -1 x_r1_g164 >= -1 ;
1 p_r1_g76_h42_t34 -1 x_r1_g76 <= 0 ;
1 p_r1_g76_h42_t34 -1 x_r1_g42 <= 0 ;
1 p_r1_g76_h42_t34 -1 x_r1_g76 -1 x_r1_g42 >= -1 ;
1 p_r1_g77_h43_t34 -1 x_r1_g77 <= 0 ;
1 p_r1_g77_h43_t34 -1 x_r1_g43 <= 0 ;
1 p_r1_g77_h43_t34 -1 x_r1_g77 -1 x_r1_g43 >= -1 ;
1 p_r1_g78_h44_t34 -1 x_r1_g78 <= 0 ;
1 p_r1_g78_h44_t34 -1 x_r1_g44 <= 0 ;
1 p_r1_g78_h44_t34 -1 x_r1_g78 -1 x_r1_g44 >= -1 ;
1 p_r1_g82_h48_t34 -1 x_r1_g82 <= 0 ;
1 p_r1_g82_h48_t34 -1 x_r1_g48 <= 0 ;
1 p_r1_g82_h48_t34 -1 x_r1_g82 -1 x_r1_g48 >= -1 ;
1 p_r1_g92_h58_t34 -1 x_r1_g92 <= 0 ;
1 p_r1_g92_h58_t34 -1 x_r1_g58 <= 0 ;
1 p_r1_g92_h58_t34 -1 x_r1_g92 -1 x_r1_g58 >= -1 ;
1 p_r1_g116_h82_t34 -1 x_r1_g116 <= 0 ;
1 p_r1_g116_h82_t34 -1 x_r1_g82 <= 0 ;
1 p_r1_g116_h82_t34 -1 x_r1_g116 -1 x_r1_g82 >= -1 ;
1 p_r1_g126_h92_t34 -1 x_r1_g126 <= 0 ;
1 p_r1_g126_h92_t34 -1 x_r1_g92 <= 0 ;
1 p_r1_g126_h92_t34 -1 x_r1_g126 -1 x_r1_g92 >= -1 ;
1 p_r1_g164_h130_t34 -1 x_r1_g164 <= 0 ;
1 p_r1_g164_h130_t34 -1 x_r1_g130 <= 0 ;
1 p_r1_g164_h130_t34 -1 x_r1_g164 -1 x_r1_g130 >= -1 ;
1 p_r2_g5_h138_t34 -1 x_r2_g5 <= 0 ;
1 p_r2_g5_h138_t34 -1 x_r2_g138 <= 0 ;
1 p_r2_g5_h138_t34 -1 x_r2_g5 -1 x_r2_g138 >= -1 ;
1 p_r2_g6_h139_t34 -1 x_r2_g6 <= 0 ;
1 p_r2_g6_h139_t34 -1 x_r2_g139 <= 0 ;
1 p_r2_g6_h139_t34 -1 x_r2_g6 -1 x_r2_g139 >= -1 ;
1 p_r2_g8_h141_t34 -1 x_r2_g8 <= 0 ;
1 p_r2_g8_h141_t34 -1 x_r2_g141 <= 0 ;
1 p_r2_g8_h141_t34 -1 x_r2_g8 -1 x_r2_g141 >= -1 ;
1 p_r2_g13_h146_t34 -1 x_r2_g13 <= 0 ;
1 p_r2_g13_h146_t34 -1 x_r2_g146 <= 0 ;
1 p_r2_g13_h146_t34 -1 x_r2_g13 -1 x_r2_g146 >= -1 ;
1 p_r2_g41_h7_t34 -1 x_r2_g41 <= 0 ;
1 p_r2_g41_h7_t34 -1 x_r2_g7 <= 0 ;
1 p_r2_g41_h7_t34 -1 x_r2_g41 -1 x_r2_g7 >= -1 ;
1 p_r2_g42_h8_t34 -1 x_r2_g42 <= 0 ;
1 p_r2_g42_h8_t34 -1 x_r2_g8 <= 0 ;
1 p_r2_g42_h8_t34 -1 x_r2_g42 -1 x_r2_g8 >= -1 ;
1 p_r2_g47_h13_t34 -1 x_r2_g47 <= 0 ;
1 p_r2_g47_h13_t34 -1 x_r2_g13 <= 0 ;
1 p_r2_g47_h13_t34 -1 x_r2_g47 -1 x_r2_g13 >= -1 ;
1 p_r2_g48_h14_t34 -1 x_r2_g48 <= 0 ;
1 p_r2_g48_h14_t34 -1 x_r2_g14 <= 0 ;
1 p_r2_g48_h14_t34 -1 x_r2_g48 -1 x_r2_g14 >= -1 ;
1 p_r2_g114_h80_t34 -1 x_r2_g114 <= 0 ;
1 p_r2_g114_h80_t34 -1 x_r2_g80 <= 0 ;
1 p_r2_g114_h80_t34 -1 x_r2_g114 -1 x_r2_g80 >= -1 ;
1 p_r2_g119_h85_t34 -1 x_r2_g119 <= 0 ;
1 p_r2_g119_h85_t34 -1 x_r2_g85 <= 0 ;
1 p_r2_g119_h85_t34 -1 x_r2_g119 -1 x_r2_g85 >= -1 ;
1 p_r2_g127_h93_t34 -1 x_r2_g127 <= 0 ;
1 p_r2_g127_h93_t34 -1 x_r2_g93 <= 0 ;
1 p_r2_g127_h93_t34 -1 x_r2_g127 -1 x_r2_g93 >= -1 ;
1 p_r2_g145_h111_t34 -1 x_r2_g145 <= 0 ;
1 p_r2_g145_h111_t34 -1 x_r2_g111 <= 0 ;
1 p_r2_g145_h111_t34 -1 x_r2_g145 -1 x_r2_g111 >= -1 ;
1 p_r2_g146_h112_t34 -1 x_r2_g146 <= 0 ;
1 p_r2_g146_h112_t34 -1 x_r2_g112 <= 0 ;
1 p_r2_g146_h112_t34 -1 x_r2_g146 -1 x_r2_g112 >= -1 ;
1 p_r2_g161_h127_t34 -1 x_r2_g161 <= 0 ;
1 p_r2_g161_h127_t34 -1 x_r2_g127 <= 0 ;
1 p_r2_g161_h127_t34 -1 x_r2_g161 -1 x_r2_g127 >= -1 ;
1 p_r3_g0_h133_t34 -1 x_r3_g0 <= 0 ;
1 p_r3_g0_h133_t34 -1 x_r3_g133 <= 0 ;
1 p_r3_g0_h133_t34 -1 x_r3_g0 -1 x_r3_g133 >= -1 ;
1 p_r3_g6_h139_t34 -1 x_r3_g6 <= 0 ;
1 p_r3_g6_h139_t34 -1 x_r3_g139 <= 0 ;
1 p_r3_g6_h139_t34 -1 x_r3_g6 -1 x_r3_g139 >= -1 ;
1 p_r3_g12_h145_t34 -1 x_r3_g12 <= 0 ;
1 p_r3_g12_h145_t34 -1 x_r3_g145 <= 0 ;
1 p_r3_g12_h145_t34 -1 x_r3_g12 -1 x_r3_g145 >= -1 ;
1 p_r3_g55_h21_t34 -1 x_r3_g55 <= 0 ;
1 p_r3_g55_h21_t34 -1 x_r3_g21 <= 0 ;
1 p_r3_g55_h21_t34 -1 x_r3_g55 -1 x_r3_g21 >= -1 ;
1 p_r3_g58_h24_t34 -1 x_r3_g58 <= 0 ;
1 p_r3_g58_h24_t34 -1 x_r3_g24 <= 0 ;
1 p_r3_g58_h24_t34 -1 x_r3_g58 -1 x_r3_g24 >= -1 ;
1 p_r3_g63_h29_t34 -1 x_r3_g63 <= 0 ;
1 p_r3_g63_h29_t34 -1 x_r3_g29 <= 0 ;
1 p_r3_g63_h29_t34 -1 x_r3_g63 -1 x_r3_g29 >= -1 ;
1 p_r3_g97_h63_t34 -1 x_r3_g97 <= 0 ;
1 p_r3_g97_h63_t34 -1 x_r3_g63 <= 0 ;
1 p_r3_g97_h63_t34 -1 x_r3_g97 -1 x_r3_g63 >= -1 ;
1 p_r3_g111_h77_t34 -1 x_r3_g111 <= 0 ;
1 p_r3_g111_h77_t34 -1 x_r3_g77 <= 0 ;
1 p_r3_g111_h77_t34 -1 x_r3_g111 -1 x_r3_g77 >= -1 ;
1 p_r3_g112_h78_t34 -1 x_r3_g112 <= 0 ;
1 p_r3_g112_h78_t34 -1 x_r3_g78 <= 0 ;
1 p_r3_g112_h78_t34 -1 x_r3_g112 -1 x_r3_g78 >= -1 ;
1 p_r3_g133_h99_t34 -1 x_r3_g133 <= 0 ;
1 p_r3_g133_h99_t34 -1 x_r3_g99 <= 0 ;
1 p_r3_g133_h99_t34 -1 x_r3_g133 -1 x_r3_g99 >= -1 ;
1 p_r3_g145_h111_t34 -1 x_r3_g145 <= 0 ;
1 p_r3_g145_h111_t34 -1 x_r3_g111 <= 0 ;
1 p_r3_g145_h111_t34 -1 x_r3_g145 -1 x_r3_g111 >= -1 ;
1 p_r3_g146_h112_t34 -1 x_r3_g146 <= 0 ;
1 p_r3_g146_h112_t34 -1 x_r3_g112 <= 0 ;
1 p_r3_g146_h112_t34 -1 x_r3_g146 -1 x_r3_g112 >= -1 ;
1 p_r3_g159_h125_t34 -1 x_r3_g159 <= 0 ;
1 p_r3_g159_h125_t34 -1 x_r3_g125 <= 0 ;
1 p_r3_g159_h125_t34 -1 x_r3_g159 -1 x_r3_g125 >= -1 ;
1 d_34 -1 x_r0_g13 -1 x_r0_g16 -1 x_r0_g22 -2 x_r0_g25 -1 x_r0_g46 -1 x_r0_g49 -1 x_r0_g54 -1 x_r0_g66 -1 x_r0_g77 -1 x_r0_g88 -1 x_r0_g99 -1 x_r0_g101 -1 x_r0_g112 -1 x_r0_g117 -1 x_r0_g132 -2 x_r0_g136 -2 x_r0_g140 -1 x_r0_g144 -1 x_r0_g152 -1 x_r0_g156 -1 x_r1_g15 -1 x_r1_g19 -1 x_r1_g28 -1 x_r1_g31 -1 x_r1_g33 -2 x_r1_g35 -1 x_r1_g36 -1 x_r1_g44 -1 x_r1_g46 -1 x_r1_g71 -2 x_r1_g73 -1 x_r1_g78 -1 x_r1_g85 -1 x_r1_g89 -1 x_r1_g91 -1 x_r1_g99 -1 x_r1_g114 -1 x_r1_g126 -1 x_r1_g130 -2 x_r1_g132 -1 x_r1_g157 -1 x_r2_g5 -1 x_r2_g7 -1 x_r2_g17 -2 x_r2_g27 -1 x_r2_g29 -2 x_r2_g34 -1 x_r2_g35 -1 x_r2_g41 -1 x_r2_g48 -1 x_r2_g56 -1 x_r2_g80 -1 x_r2_g106 -1 x_r2_g112 -1 x_r2_g114 -2 x_r2_g116 -1 x_r2_g118 -1 x_r2_g119 -1 x_r2_g131 -1 x_r2_g132 -1 x_r2_g133 -1 x_r2_g138 -1 x_r2_g139 -1 x_r2_g151 -1 x_r2_g161 -2 x_r3_g4 -1 x_r3_g6 -1 x_r3_g12 -1 x_r3_g21 -1 x_r3_g29 -1 x_r3_g31 -2 x_r3_g52 -1 x_r3_g53 -1 x_r3_g54 -1 x_r3_g55 -2 x_r3_g60 -1 x_r3_g61 -2 x_r3_g74 -1 x_r3_g77 -1 x_r3_g84 -1 x_r3_g99 -2 x_r3_g110 -2 x_r3_g132 -1 x_r3_g146 -1 x_r3_g159 -1 x_r3_g160 -1 x_r3_g165 -1 p_r0_g6_h139_t34 -1 p_r0_g23_h156_t34 -1 p_r0_g40_h6_t34 -1 p_r0_g47_h13_t34 -1 p_r0_g50_h16_t34 -1 p_r0_g74_h40_t34 -1 p_r0_g88_h54_t34 -1 p_r0_g111_h77_t34 -1 p_r0_g135_h101_t34 -1 p_r0_g144_h110_t34 -1 p_r0_g152_h118_t34 -1 p_r0_g162_h128_t34 -1 p_r1_g31_h164_t34 -1 p_r1_g76_h42_t34 -1 p_r1_g77_h43_t34 -1 p_r1_g78_h44_t34 -1 p_r1_g82_h48_t34 -1 p_r1_g92_h58_t34 -1 p_r1_g116_h82_t34 -1 p_r1_g126_h92_t34 -1 p_r1_g164_h130_t34 -1 p_r2_g5_h138_t34 -1 p_r2_g6_h139_t34 -1 p_r2_g8_h141_t34 -1 p_r2_g13_h146_t34 -1 p_r2_g41_h7_t34 -1 p_r2_g42_h8_t34 -1 p_r2_g47_h13_t34 -1 p_r2_g48_h14_t34 -1 p_r2_g114_h80_t34 -1 p_r2_g119_h85_t34 -1 p_r2_g127_h93_t34 -1 p_r2_g145_h111_t34 -1 p_r2_g146_h112_t34 -1 p_r2_g161_h127_t34 -1 p_r3_g0_h133_t34 -1 p_r3_g6_h139_t34 -1 p_r3_g12_h145_t34 -1 p_r3_g55_h21_t34 -1 p_r3_g58_h24_t34 -1 p_r3_g63_h29_t34 -1 p_r3_g97_h63_t34 -1 p_r3_g111_h77_t34 -1 p_r3_g112_h78_t34 -1 p_r3_g133_h99_t34 -1 p_r3_g145_h111_t34 -1 p_r3_g146_h112_t34 -1 p_r3_g159_h125_t34 = -78 ;
1 d_34 -1 u_34 <= 0 ;
-1 d_34 -1 u_34 <= 0 ;
1 u_34 -1 M <= 0 ;
1 u_34 <= 2 ;
1 p_r0_g13_h140_t40 -1 x_r0_g13 <= 0 ;
1 p_r0_g13_h140_t40 -1 x_r0_g140 <= 0 ;
1 p_r0_g13_h140_t40 -1 x_r0_g13 -1 x_r0_g140 >= -1 ;
1 p_r0_g25_h152_t40 -1 x_r0_g25 <= 0 ;
1 p_r0_g25_h152_t40 -1 x_r0_g152 <= 0 ;
1 p_r0_g25_h152_t40 -1 x_r0_g25 -1 x_r0_g152 >= -1 ;
1 p_r0_g35_h162_t40 -1 x_r0_g35 <= 0 ;
1 p_r0_g35_h162_t40 -1 x_r0_g162 <= 0 ;
1 p_r0_g35_h162_t40 -1 x_r0_g35 -1 x_r0_g162 >= -1 ;
1 p_r0_g46_h6_t40 -1 x_r0_g46 <= 0 ;
1 p_r0_g46_h6_t40 -1 x_r0_g6 <= 0 ;
1 p_r0_g46_h6_t40 -1 x_r0_g46 -1 x_r0_g6 >= -1 ;
1 p_r0_g90_h50_t40 -1 x_r0_g90 <= 0 ;
1 p_r0_g90_h50_t40 -1 x_r0_g50 <= 0 ;
1 p_r0_g90_h50_t40 -1 x_r0_g90 -1 x_r0_g50 >= -1 ;
1 p_r0_g113_h73_t40 -1 x_r0_g113 <= 0 ;
1 p_r0_g113_h73_t40 -1 x_r0_g73 <= 0 ;
1 p_r0_g113_h73_t40 -1 x_r0_g113 -1 x_r0_g73 >= -1 ;
1 p_r0_g117_h77_t40 -1 x_r0_g117 <= 0 ;
1 p_r0_g117_h77_t40 -1 x_r0_g77 <= 0 ;
1 p_r0_g117_h77_t40 -1 x_r0_g117 -1 x_r0_g77 >= -1 ;
1 p_r0_g128_h88_t40 -1 x_r0_g128 <= 0 ;
1 p_r0_g128_h88_t40 -1 x_r0_g88 <= 0 ;
1 p_r0_g128_h88_t40 -1 x_r0_g128 -1 x_r0_g88 >= -1 ;
1 p_r0_g135_h95_t40 -1 x_r0_g135 <= 0 ;
1 p_r0_g135_h95_t40 -1 x_r0_g95 <= 0 ;
1 p_r0_g135_h95_t40 -1 x_r0_g135 -1 x_r0_g95 >= -1 ;
1 p_r0_g139_h99_t40 -1 x_r0_g139 <= 0 ;
1 p_r0_g139_h99_t40 -1 x_r0_g99 <= 0 ;
1 p_r0_g139_h99_t40 -1 x_r0_g139 -1 x_r0_g99 >= -1 ;
1 p_r0_g152_h112_t40 -1 x_r0_g152 <= 0 ;
1 p_r0_g152_h112_t40 -1 x_r0_g112 <= 0 ;
1 p_r0_g152_h112_t40 -1 x_r0_g152 -1 x_r0_g112 >= -1 ;
1 p_r0_g156_h116_t40 -1 x_r0_g156 <= 0 ;
1 p_r0_g156_h116_t40 -1 x_r0_g116 <= 0 ;
1 p_r0_g156_h116_t40 -1 x_r0_g156 -1 x_r0_g116 >= -1 ;
1 p_r1_g71_h31_t40 -1 x_r1_g71 <= 0 ;
1 p_r1_g71_h31_t40 -1 x_r1_g31 <= 0 ;
1 p_r1_g71_h31_t40 -1 x_r1_g71 -1 x_r1_g31 >= -1 ;
1 p_r1_g73_h33_t40 -1 x_r1_g73 <= 0 ;
1 p_r1_g73_h33_t40 -1 x_r1_g33 <= 0 ;
1 p_r1_g73_h33_t40 -1 x_r1_g73 -1 x_r1_g33 >= -1 ;
1 p_r1_g76_h36_t40 -1 x_r1_g76 <= 0 ;
1 p_r1_g76_h36_t40 -1 x_r1_g36 <= 0 ;
1 p_r1_g76_h36_t40 -1 x_r1_g76 -1 x_r1_g36 >= -1 ;
1 p_r1_g78_h38_t40 -1 x_r1_g78 <= 0 ;
1 p_r1_g78_h38_t40 -1 x_r1_g38 <= 0 ;
1 p_r1_g78_h38_t40 -1 x_r1_g78 -1 x_r1_g38 >= -1 ;
1 p_r1_g82_h42_t40 -1 x_r1_g82 <= 0 ;
1 p_r1_g82_h42_t40 -1 x_r1_g42 <= 0 ;
1 p_r1_g82_h42_t40 -1 x_r1_g82 -1 x_r1_g42 >= -1 ;
1 p_r1_g116_h76_t40 -1 x_r1_g116 <= 0 ;
1 p_r1_g116_h76_t40 -1 x_r1_g76 <= 0 ;
1 p_r1_g116_h76_t40 -1 x_r1_g116 -1 x_r1_g76 >= -1 ;
1 p_r1_g131_h91_t40 -1 x_r1_g131 <= 0 ;
1 p_r1_g131_h91_t40 -1 x_r1_g91 <= 0 ;
1 p_r1_g131_h91_t40 -1 x_r1_g131 -1 x_r1_g91 >= -1 ;
1 p_r1_g132_h92_t40 -1 x_r1_g132 <= 0 ;
1 p_r1_g132_h92_t40 -1 x_r1_g92 <= 0 ;
1 p_r1_g132_h92_t40 -1 x_r1_g132 -1 x_r1_g92 >= -1 ;
1 p_r2_g5_h132_t40 -1 x_r2_g5 <= 0 ;
1 p_r2_g5_h132_t40 -1 x_r2_g132 <= 0 ;
1 p_r2_g5_h132_t40 -1 x_r2_g5 -1 x_r2_g132 >= -1 ;
1 p_r2_g6_h133_t40 -1 x_r2_g6 <= 0 ;
1 p_r2_g6_h133_t40 -1 x_r2_g133 <= 0 ;
1 p_r2_g6_h133_t40 -1 x_r2_g6 -1 x_r2_g133 >= -1 ;
1 p_r2_g14_h141_t40 -1 x_r2_g14 <= 0 ;
1 p_r2_g14_h141_t40 -1 x_r2_g141 <= 0 ;
1 p_r2_g14_h141_t40 -1 x_r2_g14 -1 x_r2_g141 >= -1 ;
1 p_r2_g34_h161_t40 -1 x_r2_g34 <= 0 ;
1 p_r2_g34_h161_t40 -1 x_r2_g161 <= 0 ;
1 p_r2_g34_h161_t40 -1 x_r2_g34 -1 x_r2_g161 >= -1 ;
1 p_r2_g47_h7_t40 -1 x_r2_g47 <= 0 ;
1 p_r2_g47_h7_t40 -1 x_r2_g7 <= 0 ;
1 p_r2_g47_h7_t40 -1 x_r2_g47 -1 x_r2_g7 >= -1 ;
1 p_r2_g48_h8_t40 -1 x_r2_g48 <= 0 ;
1 p_r2_g48_h8_t40 -1 x_r2_g8 <= 0 ;
1 p_r2_g48_h8_t40 -1 x_r2_g48 -1 x_r2_g8 >= -1 ;
1 p_r2_g125_h85_t40 -1 x_r2_g125 <= 0 ;
1 p_r2_g125_h85_t40 -1 x_r2_g85 <= 0 ;
1 p_r2_g125_h85_t40 -1 x_r2_g125 -1 x_r2_g85 >= -1 ;
1 p_r2_g133_h93_t40 -1 x_r2_g133 <= 0 ;
1 p_r2_g133_h93_t40 -1 x_r2_g93 <= 0 ;
1 p_r2_g133_h93_t40 -1 x_r2_g133 -1 x_r2_g93 >= -1 ;
1 p_r2_g146_h106_t40 -1 x_r2_g146 <= 0 ;
1 p_r2_g146_h106_t40 -1 x_r2_g106 <= 0 ;
1 p_r2_g146_h106_t40 -1 x_r2_g146 -1 x_r2_g106 >= -1 ;
1 p_r2_g151_h111_t40 -1 x_r2_g151 <= 0 ;
1 p_r2_g151_h111_t40 -1 x_r2_g111 <= 0 ;
1 p_r2_g151_h111_t40 -1 x_r2_g151 -1 x_r2_g111 >= -1 ;
1 p_r3_g6_h133_t40 -1 x_r3_g6 <= 0 ;
1 p_r3_g6_h133_t40 -1 x_r3_g133 <= 0 ;
1 p_r3_g6_h133_t40 -1 x_r3_g6 -1 x_r3_g133 >= -1 ;
1 p_r3_g12_h139_t40 -1 x_r3_g12 <= 0 ;
1 p_r3_g12_h139_t40 -1 x_r3_g139 <= 0 ;
1 p_r3_g12_h139_t40 -1 x_r3_g12 -1 x_r3_g139 >= -1 ;
1 p_r3_g52_h12_t40 -1 x_r3_g52 <= 0 ;
1 p_r3_g52_h12_t40 -1 x_r3_g12 <= 0 ;
1 p_r3_g52_h12_t40 -1 x_r3_g52 -1 x_r3_g12 >= -1 ;
1 p_r3_g61_h21_t40 -1 x_r3_g61 <= 0 ;
1 p_r3_g61_h21_t40 -1 x_r3_g21 <= 0 ;
1 p_r3_g61_h21_t40 -1 x_r3_g61 -1 x_r3_g21 >= -1 ;
1 p_r3_g63_h23_t40 -1 x_r3_g63 <= 0 ;
1 p_r3_g63_h23_t40 -1 x_r3_g23 <= 0 ;
1 p_r3_g63_h23_t40 -1 x_r3_g63 -1 x_r3_g23 >= -1 ;
1 p_r3_g122_h82_t40 -1 x_r3_g122 <= 0 ;
1 p_r3_g122_h82_t40 -1 x_r3_g82 <= 0 ;
1 p_r3_g122_h82_t40 -1 x_r3_g122 -1 x_r3_g82 >= -1 ;
1 p_r3_g124_h84_t40 -1 x_r3_g124 <= 0 ;
1 p_r3_g124_h84_t40 -1 x_r3_g84 <= 0 ;
1 p_r3_g124_h84_t40 -1 x_r3_g124 -1 x_r3_g84 >= -1 ;
1 p_r3_g139_h99_t40 -1 x_r3_g139 <= 0 ;
1 p_r3_g139_h99_t40 -1 x_r3_g99 <= 0 ;
1 p_r3_g139_h99_t40 -1 x_r3_g139 -1 x_r3_g99 >= -1 ;
1 p_r3_g165_h125_t40 -1 x_r3_g165 <= 0 ;
1 p_r3_g165_h125_t40 -1 x_r3_g125 <= 0 ;
1 p_r3_g165_h125_t40 -1 x_r3_g165 -1 x_r3_g125 >= -1 ;
1 d_40 -1 x_r0_g16 -2 x_r0_g22 -1 x_r0_g23 -1 x_r0_g25 -1 x_r0_g47 -1 x_r0_g54 -1 x_r0_g66 -1 x_r0_g74 -1 x_r0_g77 -1 x_r0_g88 -1 x_r0_g95 -1 x_r0_g99 -1 x_r0_g110 -1 x_r0_g111 -1 x_r0_g117 -1 x_r0_g118 -1 x_r0_g132 -1 x_r0_g139 -1 x_r0_g140 -1 x_r0_g162 -2 x_r1_g0 -1 x_r1_g16 -1 x_r1_g19 -2 x_r1_g28 -2 x_r1_g29 -1 x_r1_g33 -1 x_r1_g36 -2 x_r1_g41 -1 x_r1_g43 -1 x_r1_g44 -1 x_r1_g48 -2 x_r1_g58 -1 x_r1_g73 -1 x_r1_g77 -1 x_r1_g89 -1 x_r1_g101 -1 x_r1_g114 -1 x_r1_g116 -1 x_r1_g126 -2 x_r1_g128 -2 x_r1_g130 -2 x_r1_g164 -1 x_r2_g6 -1 x_r2_g7 -1 x_r2_g10 -1 x_r2_g13 -1 x_r2_g33 -1 x_r2_g34 -1 x_r2_g35 -1 x_r2_g41 -1 x_r2_g42 -1 x_r2_g47 -1 x_r2_g80 -1 x_r2_g112 -1 x_r2_g114 -2 x_r2_g118 -1 x_r2_g125 -2 x_r2_g127 -1 x_r2_g131 -1 x_r2_g138 -1 x_r2_g141 -2 x_r2_g145 -1 x_r2_g161 -2 x_r3_g0 -1 x_r3_g6 -1 x_r3_g21 -1 x_r3_g24 -1 x_r3_g53 -1 x_r3_g54 -2 x_r3_g58 -1 x_r3_g60 -2 x_r3_g68 -1 x_r3_g77 -2 x_r3_g78 -1 x_r3_g97 -1 x_r3_g99 -1 x_r3_g111 -1 x_r3_g122 -1 x_r3_g132 -1 x_r3_g136 -1 x_r3_g145 -2 x_r3_g146 -2 x_r3_g159 -1 x_r3_g165 -1 p_r0_g13_h140_t40 -1 p_r0_g25_h152_t40 -1 p_r0_g35_h162_t40 -1 p_r0_g46_h6_t40 -1 p_r0_g90_h50_t40 -1 p_r0_g113_h73_t40 -1 p_r0_g117_h77_t40 -1 p_r0_g128_h88_t40 -1 p_r0_g135_h95_t40 -1 p_r0_g139_h99_t40 -1 p_r0_g152_h112_t40 -1 p_r0_g156_h116_t40 -1 p_r1_g71_h31_t40 -1 p_r1_g73_h33_t40 -1 p_r1_g76_h36_t40 -1 p_r1_g78_h38_t40 -1 p_r1_g82_h42_t40 -1 p_r1_g116_h76_t40 -1 p_r1_g131_h91_t40 -1 p_r1_g132_h92_t40 -1 p_r2_g5_h132_t40 -1 p_r2_g6_h133_t40 -1 p_r2_g14_h141_t40 -1 p_r2_g34_h161_t40 -1 p_r2_g47_h7_t40 -1 p_r2_g48_h8_t40 -1 p_r2_g125_h85_t40 -1 p_r2_g133_h93_t40 -1 p_r2_g146_h106_t40 -1 p_r2_g151_h111_t40 -1 p_r3_g6_h133_t40 -1 p_r3_g12_h139_t40 -1 p_r3_g52_h12_t40 -1 p_r3_g61_h21_t40 -1 p_r3_g63_h23_t40 -1 p_r3_g122_h82_t40 -1 p_r3_g124_h84_t40 -1 p_r3_g139_h99_t40 -1 p_r3_g165_h125_t40 = -52 ;
1 d_40 -1 u_40 <= 0 ;
-1 d_40 -1 u_40 <= 0 ;
1 u_40 -1 M <= 0 ;
1 u_40 <= 1 ;
1 p_r0_g6_h132_t41 -1 x_r0_g6 <= 0 ;
1 p_r0_g6_h132_t41 -1 x_r0_g132 <= 0 ;
1 p_r0_g6_h132_t41 -1 x_r0_g6 -1 x_r0_g132 >= -1 ;
1 p_r0_g13_h139_t41 -1 x_r0_g13 <= 0 ;
1 p_r0_g13_h139_t41 -1 x_r0_g139 <= 0 ;
1 p_r0_g13_h139_t41 -1 x_r0_g13 -1 x_r0_g139 >= -1 ;
1 p_r0_g47_h6_t41 -1 x_r0_g47 <= 0 ;
1 p_r0_g47_h6_t41 -1 x_r0_g6 <= 0 ;
1 p_r0_g47_h6_t41 -1 x_r0_g47 -1 x_r0_g6 >= -1 ;
1 p_r0_g54_h13_t41 -1 x_r0_g54 <= 0 ;
1 p_r0_g54_h13_t41 -1 x_r0_g13 <= 0 ;
1 p_r0_g54_h13_t41 -1 x_r0_g54 -1 x_r0_g13 >= -1 ;
1 p_r0_g66_h25_t41 -1 x_r0_g66 <= 0 ;
1 p_r0_g66_h25_t41 -1 x_r0_g25 <= 0 ;
1 p_r0_g66_h25_t41 -1 x_r0_g66 -1 x_r0_g25 >= -1 ;
1 p_r0_g88_h47_t41 -1 x_r0_g88 <= 0 ;
1 p_r0_g88_h47_t41 -1 x_r0_g47 <= 0 ;
1 p_r0_g88_h47_t41 -1 x_r0_g88 -1 x_r0_g47 >= -1 ;
1 p_r0_g90_h49_t41 -1 x_r0_g90 <= 0 ;
1 p_r0_g90_h49_t41 -1 x_r0_g49 <= 0 ;
1 p_r0_g90_h49_t41 -1 x_r0_g90 -1 x_r0_g49 >= -1 ;
1 p_r0_g95_h54_t41 -1 x_r0_g95 <= 0 ;
1 p_r0_g95_h54_t41 -1 x_r0_g54 <= 0 ;
1 p_r0_g95_h54_t41 -1 x_r0_g95 -1 x_r0_g54 >= -1 ;
1 p_r0_g118_h77_t41 -1 x_r0_g118 <= 0 ;
1 p_r0_g118_h77_t41 -1 x_r0_g77 <= 0 ;
1 p_r0_g118_h77_t41 -1 x_r0_g118 -1 x_r0_g77 >= -1 ;
1 p_r0_g136_h95_t41 -1 x_r0_g136 <= 0 ;
1 p_r0_g136_h95_t41 -1 x_r0_g95 <= 0 ;
1 p_r0_g136_h95_t41 -1 x_r0_g136 -1 x_r0_g95 >= -1 ;
1 p_r0_g140_h99_t41 -1 x_r0_g140 <= 0 ;
1 p_r0_g140_h99_t41 -1 x_r0_g99 <= 0 ;
1 p_r0_g140_h99_t41 -1 x_r0_g140 -1 x_r0_g99 >= -1 ;
1 p_r0_g152_h111_t41 -1 x_r0_g152 <= 0 ;
1 p_r0_g152_h111_t41 -1 x_r0_g111 <= 0 ;
1 p_r0_g152_h111_t41 -1 x_r0_g152 -1 x_r0_g111 >= -1 ;
1 p_r1_g0_h126_t41 -1 x_r1_g0 <= 0 ;
1 p_r1_g0_h126_t41 -1 x_r1_g126 <= 0 ;
1 p_r1_g0_h126_t41 -1 x_r1_g0 -1 x_r1_g126 >= -1 ;
1 p_r1_g31_h157_t41 -1 x_r1_g31 <= 0 ;
1 p_r1_g31_h157_t41 -1 x_r1_g157 <= 0 ;
1 p_r1_g31_h157_t41 -1 x_r1_g31 -1 x_r1_g157 >= -1 ;
1 p_r1_g38_h164_t41 -1 x_r1_g38 <= 0 ;
1 p_r1_g38_h164_t41 -1 x_r1_g164 <= 0 ;
1 p_r1_g38_h164_t41 -1 x_r1_g38 -1 x_r1_g164 >= -1 ;
1 p_r1_g41_h0_t41 -1 x_r1_g41 <= 0 ;
1 p_r1_g41_h0_t41 -1 x_r1_g0 <= 0 ;
1 p_r1_g41_h0_t41 -1 x_r1_g41 -1 x_r1_g0 >= -1 ;
1 p_r1_g76_h35_t41 -1 x_r1_g76 <= 0 ;
1 p_r1_g76_h35_t41 -1 x_r1_g35 <= 0 ;
1 p_r1_g76_h35_t41 -1 x_r1_g76 -1 x_r1_g35 >= -1 ;
1 p_r1_g77_h36_t41 -1 x_r1_g77 <= 0 ;
1 p_r1_g77_h36_t41 -1 x_r1_g36 <= 0 ;
1 p_r1_g77_h36_t41 -1 x_r1_g77 -1 x_r1_g36 >= -1 ;
1 p_r1_g82_h41_t41 -1 x_r1_g82 <= 0 ;
1 p_r1_g82_h41_t41 -1 x_r1_g41 <= 0 ;
1 p_r1_g82_h41_t41 -1 x_r1_g82 -1 x_r1_g41 >= -1 ;
1 p_r1_g85_h44_t41 -1 x_r1_g85 <= 0 ;
1 p_r1_g85_h44_t41 -1 x_r1_g44 <= 0 ;
1 p_r1_g85_h44_t41 -1 x_r1_g85 -1 x_r1_g44 >= -1 ;
1 p_r1_g89_h48_t41 -1 x_r1_g89 <= 0 ;
1 p_r1_g89_h48_t41 -1 x_r1_g48 <= 0 ;
1 p_r1_g89_h48_t41 -1 x_r1_g89 -1 x_r1_g48 >= -1 ;
1 p_r1_g99_h58_t41 -1 x_r1_g99 <= 0 ;
1 p_r1_g99_h58_t41 -1 x_r1_g58 <= 0 ;
1 p_r1_g99_h58_t41 -1 x_r1_g99 -1 x_r1_g58 >= -1 ;
1 p_r1_g114_h73_t41 -1 x_r1_g114 <= 0 ;
1 p_r1_g114_h73_t41 -1 x_r1_g73 <= 0 ;
1 p_r1_g114_h73_t41 -1 x_r1_g114 -1 x_r1_g73 >= -1 ;
1 p_r1_g126_h85_t41 -1 x_r1_g126 <= 0 ;
1 p_r1_g126_h85_t41 -1 x_r1_g85 <= 0 ;
1 p_r1_g126_h85_t41 -1 x_r1_g126 -1 x_r1_g85 >= -1 ;
1 p_r1_g130_h89_t41 -1 x_r1_g130 <= 0 ;
1 p_r1_g130_h89_t41 -1 x_r1_g89 <= 0 ;
1 p_r1_g130_h89_t41 -1 x_r1_g130 -1 x_r1_g89 >= -1 ;
1 p_r1_g132_h91_t41 -1 x_r1_g132 <= 0 ;
1 p_r1_g132_h91_t41 -1 x_r1_g91 <= 0 ;
1 p_r1_g132_h91_t41 -1 x_r1_g132 -1 x_r1_g91 >= -1 ;
1 p_r1_g157_h116_t41 -1 x_r1_g157 <= 0 ;
1 p_r1_g157_h116_t41 -1 x_r1_g116 <= 0 ;
1 p_r1_g157_h116_t41 -1 x_r1_g157 -1 x_r1_g116 >= -1 ;
1 p_r2_g5_h131_t41 -1 x_r2_g5 <= 0 ;
1 p_r2_g5_h131_t41 -1 x_r2_g131 <= 0 ;
1 p_r2_g5_h131_t41 -1 x_r2_g5 -1 x_r2_g131 >= -1 ;
1 p_r2_g6_h132_t41 -1 x_r2_g6 <= 0 ;
1 p_r2_g6_h132_t41 -1 x_r2_g132 <= 0 ;
1 p_r2_g6_h132_t41 -1 x_r2_g6 -1 x_r2_g132 >= -1 ;
1 p_r2_g7_h133_t41 -1 x_r2_g7 <= 0 ;
1 p_r2_g7_h133_t41 -1 x_r2_g133 <= 0 ;
1 p_r2_g7_h133_t41 -1 x_r2_g7 -1 x_r2_g133 >= -1 ;
1 p_r2_g13_h139_t41 -1 x_r2_g13 <= 0 ;
1 p_r2_g13_h139_t41 -1 x_r2_g139 <= 0 ;
1 p_r2_g13_h139_t41 -1 x_r2_g13 -1 x_r2_g139 >= -1 ;
1 p_r2_g35_h161_t41 -1 x_r2_g35 <= 0 ;
1 p_r2_g35_h161_t41 -1 x_r2_g161 <= 0 ;
1 p_r2_g35_h161_t41 -1 x_r2_g35 -1 x_r2_g161 >= -1 ;
1 p_r2_g47_h6_t41 -1 x_r2_g47 <= 0 ;
1 p_r2_g47_h6_t41 -1 x_r2_g6 <= 0 ;
1 p_r2_g47_h6_t41 -1 x_r2_g47 -1 x_r2_g6 >= -1 ;
1 p_r2_g48_h7_t41 -1 x_r2_g48 <= 0 ;
1 p_r2_g48_h7_t41 -1 x_r2_g7 <= 0 ;
1 p_r2_g48_h7_t41 -1 x_r2_g48 -1 x_r2_g7 >= -1 ;
1 p_r3_g6_h132_t41 -1 x_r3_g6 <= 0 ;
1 p_r3_g6_h132_t41 -1 x_r3_g132 <= 0 ;
1 p_r3_g6_h132_t41 -1 x_r3_g6 -1 x_r3_g132 >= -1 ;
1 p_r3_g53_h12_t41 -1 x_r3_g53 <= 0 ;
1 p_r3_g53_h12_t41 -1 x_r3_g12 <= 0 ;
1 p_r3_g53_h12_t41 -1 x_r3_g53 -1 x_r3_g12 >= -1 ;
1 p_r3_g99_h58_t41 -1 x_r3_g99 <= 0 ;
1 p_r3_g99_h58_t41 -1 x_r3_g58 <= 0 ;
1 p_r3_g99_h58_t41 -1 x_r3_g99 -1 x_r3_g58 >= -1 ;
1 p_r3_g125_h84_t41 -1 x_r3_g125 <= 0 ;
1 p_r3_g125_h84_t41 -1 x_r3_g84 <= 0 ;
1 p_r3_g125_h84_t41 -1 x_r3_g125 -1 x_r3_g84 >= -1 ;
1 p_r3_g165_h124_t41 -1 x_r3_g165 <= 0 ;
1 p_r3_g165_h124_t41 -1 x_r3_g124 <= 0 ;
1 p_r3_g165_h124_t41 -1 x_r3_g165 -1 x_r3_g124 >= -1 ;
1 d_41 -1 x_r0_g16 -1 x_r0_g22 -1 x_r0_g23 -1 x_r0_g25 -1 x_r0_g44 -1 x_r0_g46 -1 x_r0_g77 -1 x_r0_g90 -1 x_r0_g99 -1 x_r0_g101 -1 x_r0_g110 -1 x_r0_g111 -1 x_r0_g116 -1 x_r0_g117 -1 x_r0_g118 -1 x_r0_g139 -1 x_r0_g140 -1 x_r0_g144 -1 x_r0_g156 -1 x_r0_g162 -2 x_r1_g15 -1 x_r1_g16 -1 x_r1_g20 -2 x_r1_g28 -2 x_r1_g29 -1 x_r1_g33 -1 x_r1_g38 -1 x_r1_g42 -1 x_r1_g43 -1 x_r1_g44 -1 x_r1_g46 -1 x_r1_g71 -1 x_r1_g73 -2 x_r1_g78 -1 x_r1_g82 -1 x_r1_g99 -1 x_r1_g114 -1 x_r1_g128 -1 x_r1_g131 -1 x_r1_g164 -1 x_r2_g5 -2 x_r2_g8 -1 x_r2_g10 -1 x_r2_g14 -1 x_r2_g17 -2 x_r2_g27 -1 x_r2_g33 -2 x_r2_g34 -2 x_r2_g41 -2 x_r2_g42 -2 x_r2_g80 -1 x_r2_g85 -1 x_r2_g93 -1 x_r2_g106 -1 x_r2_g111 -1 x_r2_g112 -2 x_r2_g116 -2 x_r2_g119 -2 x_r2_g127 -1 x_r2_g131 -1 x_r2_g139 -1 x_r2_g145 -2 x_r2_g146 -2 x_r2_g151 -1 x_r2_g161 -1 x_r3_g0 -1 x_r3_g4 -1 x_r3_g6 -1 x_r3_g12 -1 x_r3_g21 -1 x_r3_g23 -1 x_r3_g24 -1 x_r3_g53 -1 x_r3_g54 -1 x_r3_g58 -1 x_r3_g60 -1 x_r3_g61 -1 x_r3_g63 -1 x_r3_g68 -2 x_r3_g77 -2 x_r3_g78 -2 x_r3_g82 -1 x_r3_g84 -1 x_r3_g97 -1 x_r3_g99 -1 x_r3_g110 -2 x_r3_g122 -1 x_r3_g124 -1 x_r3_g125 -2 x_r3_g139 -1 x_r3_g145 -1 x_r3_g146 -1 x_r3_g159 -1 x_r3_g160 -1 x_r3_g165 -1 p_r0_g6_h132_t41 -1 p_r0_g13_h139_t41 -1 p_r0_g47_h6_t41 -1 p_r0_g54_h13_t41 -1 p_r0_g66_h25_t41 -1 p_r0_g88_h47_t41 -1 p_r0_g90_h49_t41 -1 p_r0_g95_h54_t41 -1 p_r0_g118_h77_t41 -1 p_r0_g136_h95_t41 -1 p_r0_g140_h99_t41 -1 p_r0_g152_h111_t41 -1 p_r1_g0_h126_t41 -1 p_r1_g31_h157_t41 -1 p_r1_g38_h164_t41 -1 p_r1_g41_h0_t41 -1 p_r1_g76_h35_t41 -1 p_r1_g77_h36_t41 -1 p_r1_g82_h41_t41 -1 p_r1_g85_h44_t41 -1 p_r1_g89_h48_t41 -1 p_r1_g99_h58_t41 -1 p_r1_g114_h73_t41 -1 p_r1_g126_h85_t41 -1 p_r1_g130_h89_t41 -1 p_r1_g132_h91_t41 -1 p_r1_g157_h116_t41 -1 p_r2_g5_h131_t41 -1 p_r2_g6_h132_t41 -1 p_r2_g7_h133_t41 -1 p_r2_g13_h139_t41 -1 p_r2_g35_h161_t41 -1 p_r2_g47_h6_t41 -1 p_r2_g48_h7_t41 -1 p_r3_g6_h132_t41 -1 p_r3_g53_h12_t41 -1 p_r3_g99_h58_t41 -1 p_r3_g125_h84_t41 -1 p_r3_g165_h124_t41 = -80 ;
1 d_41 -1 u_41 <= 0 ;
-1 d_41 -1 u_41 <= 0 ;
1 u_41 -1 M <= 0 ;
1 u_41 <= 2 ;
1 p_r0_g77_h35_t42 -1 x_r0_g77 <= 0 ;
1 p_r0_g77_h35_t42 -1 x_r0_g35 <= 0 ;
1 p_r0_g77_h35_t42 -1 x_r0_g77 -1 x_r0_g35 >= -1 ;
1 p_r0_g88_h46_t42 -1 x_r0_g88 <= 0 ;
1 p_r0_g88_h46_t42 -1 x_r0_g46 <= 0 ;
1 p_r0_g88_h46_t42 -1 x_r0_g88 -1 x_r0_g46 >= -1 ;
1 p_r0_g116_h74_t42 -1 x_r0_g116 <= 0 ;
1 p_r0_g116_h74_t42 -1 x_r0_g74 <= 0 ;
1 p_r0_g116_h74_t42 -1 x_r0_g116 -1 x_r0_g74 >= -1 ;
1 p_r0_g132_h90_t42 -1 x_r0_g132 <= 0 ;
1 p_r0_g132_h90_t42 -1 x_r0_g90 <= 0 ;
1 p_r0_g132_h90_t42 -1 x_r0_g132 -1 x_r0_g90 >= -1 ;
1 p_r0_g152_h110_t42 -1 x_r0_g152 <= 0 ;
1 p_r0_g152_h110_t42 -1 x_r0_g110 <= 0 ;
1 p_r0_g152_h110_t42 -1 x_r0_g152 -1 x_r0_g110 >= -1 ;
1 p_r1_g42_h0_t42 -1 x_r1_g42 <= 0 ;
1 p_r1_g42_h0_t42 -1 x_r1_g0 <= 0 ;
1 p_r1_g42_h0_t42 -1 x_r1_g42 -1 x_r1_g0 >= -1 ;
1 p_r1_g58_h16_t42 -1 x_r1_g58 <= 0 ;
1 p_r1_g58_h16_t42 -1 x_r1_g16 <= 0 ;
1 p_r1_g58_h16_t42 -1 x_r1_g58 -1 x_r1_g16 >= -1 ;
1 p_r1_g71_h29_t42 -1 x_r1_g71 <= 0 ;
1 p_r1_g71_h29_t42 -1 x_r1_g29 <= 0 ;
1 p_r1_g71_h29_t42 -1 x_r1_g71 -1 x_r1_g29 >= -1 ;
1 p_r1_g73_h31_t42 -1 x_r1_g73 <= 0 ;
1 p_r1_g73_h31_t42 -1 x_r1_g31 <= 0 ;
1 p_r1_g73_h31_t42 -1 x_r1_g73 -1 x_r1_g31 >= -1 ;
1 p_r1_g77_h35_t42 -1 x_r1_g77 <= 0 ;
1 p_r1_g77_h35_t42 -1 x_r1_g35 <= 0 ;
1 p_r1_g77_h35_t42 -1 x_r1_g77 -1 x_r1_g35 >= -1 ;
1 p_r1_g78_h36_t42 -1 x_r1_g78 <= 0 ;
1 p_r1_g78_h36_t42 -1 x_r1_g36 <= 0 ;
1 p_r1_g78_h36_t42 -1 x_r1_g78 -1 x_r1_g36 >= -1 ;
1 p_r1_g85_h43_t42 -1 x_r1_g85 <= 0 ;
1 p_r1_g85_h43_t42 -1 x_r1_g43 <= 0 ;
1 p_r1_g85_h43_t42 -1 x_r1_g85 -1 x_r1_g43 >= -1 ;
1 p_r1_g131_h89_t42 -1 x_r1_g131 <= 0 ;
1 p_r1_g131_h89_t42 -1 x_r1_g89 <= 0 ;
1 p_r1_g131_h89_t42 -1 x_r1_g131 -1 x_r1_g89 >= -1 ;
1 p_r2_g6_h131_t42 -1 x_r2_g6 <= 0 ;
1 p_r2_g6_h131_t42 -1 x_r2_g131 <= 0 ;
1 p_r2_g6_h131_t42 -1 x_r2_g6 -1 x_r2_g131 >= -1 ;
1 p_r2_g7_h132_t42 -1 x_r2_g7 <= 0 ;
1 p_r2_g7_h132_t42 -1 x_r2_g132 <= 0 ;
1 p_r2_g7_h132_t42 -1 x_r2_g7 -1 x_r2_g132 >= -1 ;
1 p_r2_g8_h133_t42 -1 x_r2_g8 <= 0 ;
1 p_r2_g8_h133_t42 -1 x_r2_g133 <= 0 ;
1 p_r2_g8_h133_t42 -1 x_r2_g8 -1 x_r2_g133 >= -1 ;
1 p_r2_g13_h138_t42 -1 x_r2_g13 <= 0 ;
1 p_r2_g13_h138_t42 -1 x_r2_g138 <= 0 ;
1 p_r2_g13_h138_t42 -1 x_r2_g13 -1 x_r2_g138 >= -1 ;
1 p_r2_g14_h139_t42 -1 x_r2_g14 <= 0 ;
1 p_r2_g14_h139_t42 -1 x_r2_g139 <= 0 ;
1 p_r2_g14_h139_t42 -1 x_r2_g14 -1 x_r2_g139 >= -1 ;
1 p_r2_g47_h5_t42 -1 x_r2_g47 <= 0 ;
1 p_r2_g47_h5_t42 -1 x_r2_g5 <= 0 ;
1 p_r2_g47_h5_t42 -1 x_r2_g47 -1 x_r2_g5 >= -1 ;
1 p_r2_g48_h6_t42 -1 x_r2_g48 <= 0 ;
1 p_r2_g48_h6_t42 -1 x_r2_g6 <= 0 ;
1 p_r2_g48_h6_t42 -1 x_r2_g48 -1 x_r2_g6 >= -1 ;
1 p_r2_g56_h14_t42 -1 x_r2_g56 <= 0 ;
1 p_r2_g56_h14_t42 -1 x_r2_g14 <= 0 ;
1 p_r2_g56_h14_t42 -1 x_r2_g56 -1 x_r2_g14 >= -1 ;
1 p_r2_g127_h85_t42 -1 x_r2_g127 <= 0 ;
1 p_r2_g127_h85_t42 -1 x_r2_g85 <= 0 ;
1 p_r2_g127_h85_t42 -1 x_r2_g127 -1 x_r2_g85 >= -1 ;
1 p_r2_g161_h119_t42 -1 x_r2_g161 <= 0 ;
1 p_r2_g161_h119_t42 -1 x_r2_g119 <= 0 ;
1 p_r2_g161_h119_t42 -1 x_r2_g161 -1 x_r2_g119 >= -1 ;
1 p_r3_g0_h125_t42 -1 x_r3_g0 <= 0 ;
1 p_r3_g0_h125_t42 -1 x_r3_g125 <= 0 ;
1 p_r3_g0_h125_t42 -1 x_r3_g0 -1 x_r3_g125 >= -1 ;
1 p_r3_g21_h146_t42 -1 x_r3_g21 <= 0 ;
1 p_r3_g21_h146_t42 -1 x_r3_g146 <= 0 ;
1 p_r3_g21_h146_t42 -1 x_r3_g21 -1 x_r3_g146 >= -1 ;
1 p_r3_g54_h12_t42 -1 x_r3_g54 <= 0 ;
1 p_r3_g54_h12_t42 -1 x_r3_g12 <= 0 ;
1 p_r3_g54_h12_t42 -1 x_r3_g54 -1 x_r3_g12 >= -1 ;
1 p_r3_g63_h21_t42 -1 x_r3_g63 <= 0 ;
1 p_r3_g63_h21_t42 -1 x_r3_g21 <= 0 ;
1 p_r3_g63_h21_t42 -1 x_r3_g63 -1 x_r3_g21 >= -1 ;
1 p_r3_g97_h55_t42 -1 x_r3_g97 <= 0 ;
1 p_r3_g97_h55_t42 -1 x_r3_g55 <= 0 ;
1 p_r3_g97_h55_t42 -1 x_r3_g97 -1 x_r3_g55 >= -1 ;
1 p_r3_g110_h68_t42 -1 x_r3_g110 <= 0 ;
1 p_r3_g110_h68_t42 -1 x_r3_g68 <= 0 ;
1 p_r3_g110_h68_t42 -1 x_r3_g110 -1 x_r3_g68 >= -1 ;
1 p_r3_g124_h82_t42 -1 x_r3_g124 <= 0 ;
1 p_r3_g124_h82_t42 -1 x_r3_g82 <= 0 ;
1 p_r3_g124_h82_t42 -1 x_r3_g124 -1 x_r3_g82 >= -1 ;
1 p_r3_g139_h97_t42 -1 x_r3_g139 <= 0 ;
1 p_r3_g139_h97_t42 -1 x_r3_g97 <= 0 ;
1 p_r3_g139_h97_t42 -1 x_r3_g139 -1 x_r3_g97 >= -1 ;
1 d_42 -2 x_r0_g6 -1 x_r0_g13 -1 x_r0_g16 -1 x_r0_g23 -1 x_r0_g25 -1 x_r0_g35 -1 x_r0_g40 -1 x_r0_g47 -1 x_r0_g49 -1 x_r0_g54 -1 x_r0_g77 -1 x_r0_g90 -1 x_r0_g95 -2 x_r0_g101 -1 x_r0_g110 -1 x_r0_g112 -1 x_r0_g113 -1 x_r0_g116 -1 x_r0_g117 -1 x_r0_g118 -1 x_r0_g128 -1 x_r0_g132 -1 x_r0_g136 -1 x_r0_g139 -2 x_r0_g140 -2 x_r0_g144 -2 x_r0_g162 -2 x_r1_g15 -1 x_r1_g16 -1 x_r1_g20 -1 x_r1_g28 -1 x_r1_g29 -1 x_r1_g31 -1 x_r1_g35 -2 x_r1_g38 -1 x_r1_g41 -1 x_r1_g42 -1 x_r1_g43 -1 x_r1_g46 -1 x_r1_g48 -1 x_r1_g58 -1 x_r1_g71 -1 x_r1_g73 -1 x_r1_g77 -2 x_r1_g82 -1 x_r1_g85 -1 x_r1_g91 -2 x_r1_g99 -1 x_r1_g114 -2 x_r1_g126 -1 x_r1_g128 -1 x_r1_g130 -1 x_r1_g132 -2 x_r1_g157 -1 x_r1_g164 -1 x_r2_g5 -1 x_r2_g7 -1 x_r2_g27 -2 x_r2_g33 -1 x_r2_g35 -1 x_r2_g41 -1 x_r2_g42 -1 x_r2_g48 -1 x_r2_g56 -1 x_r2_g80 -1 x_r2_g85 -2 x_r2_g106 -1 x_r2_g111 -2 x_r2_g116 -1 x_r2_g118 -2 x_r2_g125 -1 x_r2_g132 -1 x_r2_g145 -2 x_r2_g146 -1 x_r2_g151 -2 x_r3_g4 -1 x_r3_g12 -2 x_r3_g23 -2 x_r3_g24 -1 x_r3_g29 -1 x_r3_g52 -1 x_r3_g55 -1 x_r3_g60 -1 x_r3_g61 -1 x_r3_g68 -1 x_r3_g74 -1 x_r3_g77 -1 x_r3_g78 -1 x_r3_g82 -1 x_r3_g112 -1 x_r3_g122 -1 x_r3_g124 -1 x_r3_g125 -1 x_r3_g133 -1 x_r3_g136 -1 x_r3_g145 -1 x_r3_g160 -2 x_r3_g165 -1 p_r0_g77_h35_t42 -1 p_r0_g88_h46_t42 -1 p_r0_g116_h74_t42 -1 p_r0_g132_h90_t42 -1 p_r0_g152_h110_t42 -1 p_r1_g42_h0_t42 -1 p_r1_g58_h16_t42 -1 p_r1_g71_h29_t42 -1 p_r1_g73_h31_t42 -1 p_r1_g77_h35_t42 -1 p_r1_g78_h36_t42 -1 p_r1_g85_h43_t42 -1 p_r1_g131_h89_t42 -1 p_r2_g6_h131_t42 -1 p_r2_g7_h132_t42 -1 p_r2_g8_h133_t42 -1 p_r2_g13_h138_t42 -1 p_r2_g14_h139_t42 -1 p_r2_g47_h5_t42 -1 p_r2_g48_h6_t42 -1 p_r2_g56_h14_t42 -1 p_r2_g127_h85_t42 -1 p_r2_g161_h119_t42 -1 p_r3_g0_h125_t42 -1 p_r3_g21_h146_t42 -1 p_r3_g54_h12_t42 -1 p_r3_g63_h21_t42 -1 p_r3_g97_h55_t42 -1 p_r3_g110_h68_t42 -1 p_r3_g124_h82_t42 -1 p_r3_g139_h97_t42 = -75 ;
1 d_42 -1 u_42 <= 0 ;
-1 d_42 -1 u_42 <= 0 ;
1 u_42 -1 M <= 0 ;
1 u_42 <= 1 ;
1 p_r0_g16_h140_t43 -1 x_r0_g16 <= 0 ;
1 p_r0_g16_h140_t43 -1 x_r0_g140 <= 0 ;
1 p_r0_g16_h140_t43 -1 x_r0_g16 -1 x_r0_g140 >= -1 ;
1 p_r0_g49_h6_t43 -1 x_r0_g49 <= 0 ;
1 p_r0_g49_h6_t43 -1 x_r0_g6 <= 0 ;
1 p_r0_g49_h6_t43 -1 x_r0_g49 -1 x_r0_g6 >= -1 ;
1 p_r0_g66_h23_t43 -1 x_r0_g66 <= 0 ;
1 p_r0_g66_h23_t43 -1 x_r0_g23 <= 0 ;
1 p_r0_g66_h23_t43 -1 x_r0_g66 -1 x_r0_g23 >= -1 ;
1 p_r0_g90_h47_t43 -1 x_r0_g90 <= 0 ;
1 p_r0_g90_h47_t43 -1 x_r0_g47 <= 0 ;
1 p_r0_g90_h47_t43 -1 x_r0_g90 -1 x_r0_g47 >= -1 ;
1 p_r0_g116_h73_t43 -1 x_r0_g116 <= 0 ;
1 p_r0_g116_h73_t43 -1 x_r0_g73 <= 0 ;
1 p_r0_g116_h73_t43 -1 x_r0_g116 -1 x_r0_g73 >= -1 ;
1 p_r0_g117_h74_t43 -1 x_r0_g117 <= 0 ;
1 p_r0_g117_h74_t43 -1 x_r0_g74 <= 0 ;
1 p_r0_g117_h74_t43 -1 x_r0_g117 -1 x_r0_g74 >= -1 ;
1 p_r0_g144_h101_t43 -1 x_r0_g144 <= 0 ;
1 p_r0_g144_h101_t43 -1 x_r0_g101 <= 0 ;
1 p_r0_g144_h101_t43 -1 x_r0_g144 -1 x_r0_g101 >= -1 ;
1 p_r0_g156_h113_t43 -1 x_r0_g156 <= 0 ;
1 p_r0_g156_h113_t43 -1 x_r0_g113 <= 0 ;
1 p_r0_g156_h113_t43 -1 x_r0_g156 -1 x_r0_g113 >= -1 ;
1 p_r1_g33_h157_t43 -1 x_r1_g33 <= 0 ;
1 p_r1_g33_h157_t43 -1 x_r1_g157 <= 0 ;
1 p_r1_g33_h157_t43 -1 x_r1_g33 -1 x_r1_g157 >= -1 ;
1 p_r1_g43_h0_t43 -1 x_r1_g43 <= 0 ;
1 p_r1_g43_h0_t43 -1 x_r1_g0 <= 0 ;
1 p_r1_g43_h0_t43 -1 x_r1_g43 -1 x_r1_g0 >= -1 ;
1 p_r1_g58_h15_t43 -1 x_r1_g58 <= 0 ;
1 p_r1_g58_h15_t43 -1 x_r1_g15 <= 0 ;
1 p_r1_g58_h15_t43 -1 x_r1_g58 -1 x_r1_g15 >= -1 ;
1 p_r1_g71_h28_t43 -1 x_r1_g71 <= 0 ;
1 p_r1_g71_h28_t43 -1 x_r1_g28 <= 0 ;
1 p_r1_g71_h28_t43 -1 x_r1_g71 -1 x_r1_g28 >= -1 ;
1 p_r1_g76_h33_t43 -1 x_r1_g76 <= 0 ;
1 p_r1_g76_h33_t43 -1 x_r1_g33 <= 0 ;
1 p_r1_g76_h33_t43 -1 x_r1_g76 -1 x_r1_g33 >= -1 ;
1 p_r1_g78_h35_t43 -1 x_r1_g78 <= 0 ;
1 p_r1_g78_h35_t43 -1 x_r1_g35 <= 0 ;
1 p_r1_g78_h35_t43 -1 x_r1_g78 -1 x_r1_g35 >= -1 ;
1 p_r1_g85_h42_t43 -1 x_r1_g85 <= 0 ;
1 p_r1_g85_h42_t43 -1 x_r1_g42 <= 0 ;
1 p_r1_g85_h42_t43 -1 x_r1_g85 -1 x_r1_g42 >= -1 ;
1 p_r1_g89_h46_t43 -1 x_r1_g89 <= 0 ;
1 p_r1_g89_h46_t43 -1 x_r1_g46 <= 0 ;
1 p_r1_g89_h46_t43 -1 x_r1_g89 -1 x_r1_g46 >= -1 ;
1 p_r1_g91_h48_t43 -1 x_r1_g91 <= 0 ;
1 p_r1_g91_h48_t43 -1 x_r1_g48 <= 0 ;
1 p_r1_g91_h48_t43 -1 x_r1_g91 -1 x_r1_g48 >= -1 ;
1 p_r1_g101_h58_t43 -1 x_r1_g101 <= 0 ;
1 p_r1_g101_h58_t43 -1 x_r1_g58 <= 0 ;
1 p_r1_g101_h58_t43 -1 x_r1_g101 -1 x_r1_g58 >= -1 ;
1 p_r1_g114_h71_t43 -1 x_r1_g114 <= 0 ;
1 p_r1_g114_h71_t43 -1 x_r1_g71 <= 0 ;
1 p_r1_g114_h71_t43 -1 x_r1_g114 -1 x_r1_g71 >= -1 ;
1 p_r1_g116_h73_t43 -1 x_r1_g116 <= 0 ;
1 p_r1_g116_h73_t43 -1 x_r1_g73 <= 0 ;
1 p_r1_g116_h73_t43 -1 x_r1_g116 -1 x_r1_g73 >= -1 ;
1 p_r1_g128_h85_t43 -1 x_r1_g128 <= 0 ;
1 p_r1_g128_h85_t43 -1 x_r1_g85 <= 0 ;
1 p_r1_g128_h85_t43 -1 x_r1_g128 -1 x_r1_g85 >= -1 ;
1 p_r1_g132_h89_t43 -1 x_r1_g132 <= 0 ;
1 p_r1_g132_h89_t43 -1 x_r1_g89 <= 0 ;
1 p_r1_g132_h89_t43 -1 x_r1_g132 -1 x_r1_g89 >= -1 ;
1 p_r1_g157_h114_t43 -1 x_r1_g157 <= 0 ;
1 p_r1_g157_h114_t43 -1 x_r1_g114 <= 0 ;
1 p_r1_g157_h114_t43 -1 x_r1_g157 -1 x_r1_g114 >= -1 ;
1 p_r2_g7_h131_t43 -1 x_r2_g7 <= 0 ;
1 p_r2_g7_h131_t43 -1 x_r2_g131 <= 0 ;
1 p_r2_g7_h131_t43 -1 x_r2_g7 -1 x_r2_g131 >= -1 ;
1 p_r2_g8_h132_t43 -1 x_r2_g8 <= 0 ;
1 p_r2_g8_h132_t43 -1 x_r2_g132 <= 0 ;
1 p_r2_g8_h132_t43 -1 x_r2_g8 -1 x_r2_g132 >= -1 ;
1 p_r2_g14_h138_t43 -1 x_r2_g14 <= 0 ;
1 p_r2_g14_h138_t43 -1 x_r2_g138 <= 0 ;
1 p_r2_g14_h138_t43 -1 x_r2_g14 -1 x_r2_g138 >= -1 ;
1 p_r2_g17_h141_t43 -1 x_r2_g17 <= 0 ;
1 p_r2_g17_h141_t43 -1 x_r2_g141 <= 0 ;
1 p_r2_g17_h141_t43 -1 x_r2_g17 -1 x_r2_g141 >= -1 ;
1 p_r2_g27_h151_t43 -1 x_r2_g27 <= 0 ;
1 p_r2_g27_h151_t43 -1 x_r2_g151 <= 0 ;
1 p_r2_g27_h151_t43 -1 x_r2_g27 -1 x_r2_g151 >= -1 ;
1 p_r2_g48_h5_t43 -1 x_r2_g48 <= 0 ;
1 p_r2_g48_h5_t43 -1 x_r2_g5 <= 0 ;
1 p_r2_g48_h5_t43 -1 x_r2_g48 -1 x_r2_g5 >= -1 ;
1 p_r2_g56_h13_t43 -1 x_r2_g56 <= 0 ;
1 p_r2_g56_h13_t43 -1 x_r2_g13 <= 0 ;
1 p_r2_g56_h13_t43 -1 x_r2_g56 -1 x_r2_g13 >= -1 ;
1 p_r2_g85_h42_t43 -1 x_r2_g85 <= 0 ;
1 p_r2_g85_h42_t43 -1 x_r2_g42 <= 0 ;
1 p_r2_g85_h42_t43 -1 x_r2_g85 -1 x_r2_g42 >= -1 ;
1 p_r2_g161_h118_t43 -1 x_r2_g161 <= 0 ;
1 p_r2_g161_h118_t43 -1 x_r2_g118 <= 0 ;
1 p_r2_g161_h118_t43 -1 x_r2_g161 -1 x_r2_g118 >= -1 ;
1 p_r3_g0_h124_t43 -1 x_r3_g0 <= 0 ;
1 p_r3_g0_h124_t43 -1 x_r3_g124 <= 0 ;
1 p_r3_g0_h124_t43 -1 x_r3_g0 -1 x_r3_g124 >= -1 ;
1 p_r3_g12_h136_t43 -1 x_r3_g12 <= 0 ;
1 p_r3_g12_h136_t43 -1 x_r3_g136 <= 0 ;
1 p_r3_g12_h136_t43 -1 x_r3_g12 -1 x_r3_g136 >= -1 ;
1 p_r3_g21_h145_t43 -1 x_r3_g21 <= 0 ;
1 p_r3_g21_h145_t43 -1 x_r3_g145 <= 0 ;
1 p_r3_g21_h145_t43 -1 x_r3_g21 -1 x_r3_g145 >= -1 ;
1 p_r3_g55_h12_t43 -1 x_r3_g55 <= 0 ;
1 p_r3_g55_h12_t43 -1 x_r3_g12 <= 0 ;
1 p_r3_g55_h12_t43 -1 x_r3_g55 -1 x_r3_g12 >= -1 ;
1 p_r3_g74_h31_t43 -1 x_r3_g74 <= 0 ;
1 p_r3_g74_h31_t43 -1 x_r3_g31 <= 0 ;
1 p_r3_g74_h31_t43 -1 x_r3_g74 -1 x_r3_g31 >= -1 ;
1 p_r3_g97_h54_t43 -1 x_r3_g97 <= 0 ;
1 p_r3_g97_h54_t43 -1 x_r3_g54 <= 0 ;
1 p_r3_g97_h54_t43 -1 x_r3_g97 -1 x_r3_g54 >= -1 ;
1 p_r3_g111_h68_t43 -1 x_r3_g111 <= 0 ;
1 p_r3_g111_h68_t43 -1 x_r3_g68 <= 0 ;
1 p_r3_g111_h68_t43 -1 x_r3_g111 -1 x_r3_g68 >= -1 ;
1 p_r3_g125_h82_t43 -1 x_r3_g125 <= 0 ;
1 p_r3_g125_h82_t43 -1 x_r3_g82 <= 0 ;
1 p_r3_g125_h82_t43 -1 x_r3_g125 -1 x_r3_g82 >= -1 ;
1 p_r3_g165_h122_t43 -1 x_r3_g165 <= 0 ;
1 p_r3_g165_h122_t43 -1 x_r3_g122 <= 0 ;
1 p_r3_g165_h122_t43 -1 x_r3_g165 -1 x_r3_g122 >= -1 ;
1 d_43 -1 x_r0_g13 -1 x_r0_g16 -2 x_r0_g22 -2 x_r0_g25 -1 x_r0_g35 -1 x_r0_g46 -1 x_r0_g50 -1 x_r0_g54 -1 x_r0_g73 -2 x_r0_g77 -2 x_r0_g88 -1 x_r0_g95 -1 x_r0_g99 -1 x_r0_g101 -1 x_r0_g110 -1 x_r0_g111 -1 x_r0_g112 -1 x_r0_g113 -1 x_r0_g116 -1 x_r0_g117 -1 x_r0_g135 -1 x_r0_g136 -1 x_r0_g139 -1 x_r0_g144 -2 x_r0_g162 -1 x_r1_g0 -1 x_r1_g16 -1 x_r1_g19 -1 x_r1_g31 -1 x_r1_g35 -2 x_r1_g36 -1 x_r1_g38 -1 x_r1_g41 -1 x_r1_g42 -2 x_r1_g44 -1 x_r1_g46 -1 x_r1_g76 -1 x_r1_g82 -1 x_r1_g92 -1 x_r1_g99 -1 x_r1_g116 -1 x_r1_g130 -1 x_r1_g131 -1 x_r1_g164 -1 x_r2_g5 -2 x_r2_g6 -1 x_r2_g10 -1 x_r2_g13 -1 x_r2_g17 -1 x_r2_g29 -1 x_r2_g33 -1 x_r2_g34 -1 x_r2_g35 -1 x_r2_g41 -2 x_r2_g47 -1 x_r2_g85 -1 x_r2_g93 -1 x_r2_g106 -1 x_r2_g111 -1 x_r2_g114 -1 x_r2_g118 -2 x_r2_g125 -1 x_r2_g133 -1 x_r2_g141 -2 x_r2_g145 -1 x_r3_g0 -2 x_r3_g4 -1 x_r3_g6 -1 x_r3_g23 -1 x_r3_g24 -1 x_r3_g52 -1 x_r3_g55 -1 x_r3_g60 -1 x_r3_g61 -2 x_r3_g63 -1 x_r3_g82 -2 x_r3_g84 -1 x_r3_g97 -1 x_r3_g99 -1 x_r3_g111 -1 x_r3_g124 -1 x_r3_g125 -2 x_r3_g132 -1 x_r3_g133 -1 x_r3_g146 -1 x_r3_g160 -1 x_r3_g165 -1 p_r0_g16_h140_t43 -1 p_r0_g49_h6_t43 -1 p_r0_g66_h23_t43 -1 p_r0_g90_h47_t43 -1 p_r0_g116_h73_t43 -1 p_r0_g117_h74_t43 -1 p_r0_g144_h101_t43 -1 p_r0_g156_h113_t43 -1 p_r1_g33_h157_t43 -1 p_r1_g43_h0_t43 -1 p_r1_g58_h15_t43 -1 p_r1_g71_h28_t43 -1 p_r1_g76_h33_t43 -1 p_r1_g78_h35_t43 -1 p_r1_g85_h42_t43 -1 p_r1_g89_h46_t43 -1 p_r1_g91_h48_t43 -1 p_r1_g101_h58_t43 -1 p_r1_g114_h71_t43 -1 p_r1_g116_h73_t43 -1 p_r1_g128_h85_t43 -1 p_r1_g132_h89_t43 -1 p_r1_g157_h114_t43 -1 p_r2_g7_h131_t43 -1 p_r2_g8_h132_t43 -1 p_r2_g14_h138_t43 -1 p_r2_g17_h141_t43 -1 p_r2_g27_h151_t43 -1 p_r2_g48_h5_t43 -1 p_r2_g56_h13_t43 -1 p_r2_g85_h42_t43 -1 p_r2_g161_h118_t43 -1 p_r3_g0_h124_t43 -1 p_r3_g12_h136_t43 -1 p_r3_g21_h145_t43 -1 p_r3_g55_h12_t43 -1 p_r3_g74_h31_t43 -1 p_r3_g97_h54_t43 -1 p_r3_g111_h68_t43 -1 p_r3_g125_h82_t43 -1 p_r3_g165_h122_t43 = -51 ;
1 d_43 -1 u_43 <= 0 ;
-1 d_43 -1 u_43 <= 0 ;
1 u_43 -1 M <= 0 ;
1 u_43 <= 1 ;
1 p_r0_g6_h128_t45 -1 x_r0_g6 <= 0 ;
1 p_r0_g6_h128_t45 -1 x_r0_g128 <= 0 ;
1 p_r0_g6_h128_t45 -1 x_r0_g6 -1 x_r0_g128 >= -1 ;
1 p_r0_g13_h135_t45 -1 x_r0_g13 <= 0 ;
1 p_r0_g13_h135_t45 -1 x_r0_g135 <= 0 ;
1 p_r0_g13_h135_t45 -1 x_r0_g13 -1 x_r0_g135 >= -1 ;
1 p_r0_g22_h144_t45 -1 x_r0_g22 <= 0 ;
1 p_r0_g22_h144_t45 -1 x_r0_g144 <= 0 ;
1 p_r0_g22_h144_t45 -1 x_r0_g22 -1 x_r0_g144 >= -1 ;
1 p_r0_g40_h162_t45 -1 x_r0_g40 <= 0 ;
1 p_r0_g40_h162_t45 -1 x_r0_g162 <= 0 ;
1 p_r0_g40_h162_t45 -1 x_r0_g40 -1 x_r0_g162 >= -1 ;
1 p_r0_g95_h50_t45 -1 x_r0_g95 <= 0 ;
1 p_r0_g95_h50_t45 -1 x_r0_g50 <= 0 ;
1 p_r0_g95_h50_t45 -1 x_r0_g95 -1 x_r0_g50 >= -1 ;
1 p_r0_g99_h54_t45 -1 x_r0_g99 <= 0 ;
1 p_r0_g99_h54_t45 -1 x_r0_g54 <= 0 ;
1 p_r0_g99_h54_t45 -1 x_r0_g99 -1 x_r0_g54 >= -1 ;
1 p_r0_g111_h66_t45 -1 x_r0_g111 <= 0 ;
1 p_r0_g111_h66_t45 -1 x_r0_g66 <= 0 ;
1 p_r0_g111_h66_t45 -1 x_r0_g111 -1 x_r0_g66 >= -1 ;
1 p_r0_g118_h73_t45 -1 x_r0_g118 <= 0 ;
1 p_r0_g118_h73_t45 -1 x_r0_g73 <= 0 ;
1 p_r0_g118_h73_t45 -1 x_r0_g118 -1 x_r0_g73 >= -1 ;
1 p_r0_g135_h90_t45 -1 x_r0_g135 <= 0 ;
1 p_r0_g135_h90_t45 -1 x_r0_g90 <= 0 ;
1 p_r0_g135_h90_t45 -1 x_r0_g135 -1 x_r0_g90 >= -1 ;
1 p_r0_g140_h95_t45 -1 x_r0_g140 <= 0 ;
1 p_r0_g140_h95_t45 -1 x_r0_g95 <= 0 ;
1 p_r0_g140_h95_t45 -1 x_r0_g140 -1 x_r0_g95 >= -1 ;
1 p_r0_g144_h99_t45 -1 x_r0_g144 <= 0 ;
1 p_r0_g144_h99_t45 -1 x_r0_g99 <= 0 ;
1 p_r0_g144_h99_t45 -1 x_r0_g144 -1 x_r0_g99 >= -1 ;
1 p_r0_g156_h111_t45 -1 x_r0_g156 <= 0 ;
1 p_r0_g156_h111_t45 -1 x_r0_g111 <= 0 ;
1 p_r0_g156_h111_t45 -1 x_r0_g156 -1 x_r0_g111 >= -1 ;
1 p_r0_g162_h117_t45 -1 x_r0_g162 <= 0 ;
1 p_r0_g162_h117_t45 -1 x_r0_g117 <= 0 ;
1 p_r0_g162_h117_t45 -1 x_r0_g162 -1 x_r0_g117 >= -1 ;
1 p_r1_g35_h157_t45 -1 x_r1_g35 <= 0 ;
1 p_r1_g35_h157_t45 -1 x_r1_g157 <= 0 ;
1 p_r1_g35_h157_t45 -1 x_r1_g35 -1 x_r1_g157 >= -1 ;
1 p_r1_g42_h164_t45 -1 x_r1_g42 <= 0 ;
1 p_r1_g42_h164_t45 -1 x_r1_g164 <= 0 ;
1 p_r1_g42_h164_t45 -1 x_r1_g42 -1 x_r1_g164 >= -1 ;
1 p_r1_g73_h28_t45 -1 x_r1_g73 <= 0 ;
1 p_r1_g73_h28_t45 -1 x_r1_g28 <= 0 ;
1 p_r1_g73_h28_t45 -1 x_r1_g73 -1 x_r1_g28 >= -1 ;
1 p_r1_g76_h31_t45 -1 x_r1_g76 <= 0 ;
1 p_r1_g76_h31_t45 -1 x_r1_g31 <= 0 ;
1 p_r1_g76_h31_t45 -1 x_r1_g76 -1 x_r1_g31 >= -1 ;
1 p_r1_g78_h33_t45 -1 x_r1_g78 <= 0 ;
1 p_r1_g78_h33_t45 -1 x_r1_g33 <= 0 ;
1 p_r1_g78_h33_t45 -1 x_r1_g78 -1 x_r1_g33 >= -1 ;
1 p_r1_g89_h44_t45 -1 x_r1_g89 <= 0 ;
1 p_r1_g89_h44_t45 -1 x_r1_g44 <= 0 ;
1 p_r1_g89_h44_t45 -1 x_r1_g89 -1 x_r1_g44 >= -1 ;
1 p_r1_g91_h46_t45 -1 x_r1_g91 <= 0 ;
1 p_r1_g91_h46_t45 -1 x_r1_g46 <= 0 ;
1 p_r1_g91_h46_t45 -1 x_r1_g91 -1 x_r1_g46 >= -1 ;
1 p_r1_g116_h71_t45 -1 x_r1_g116 <= 0 ;
1 p_r1_g116_h71_t45 -1 x_r1_g71 <= 0 ;
1 p_r1_g116_h71_t45 -1 x_r1_g116 -1 x_r1_g71 >= -1 ;
1 p_r1_g130_h85_t45 -1 x_r1_g130 <= 0 ;
1 p_r1_g130_h85_t45 -1 x_r1_g85 <= 0 ;
1 p_r1_g130_h85_t45 -1 x_r1_g130 -1 x_r1_g85 >= -1 ;
1 p_r2_g5_h127_t45 -1 x_r2_g5 <= 0 ;
1 p_r2_g5_h127_t45 -1 x_r2_g127 <= 0 ;
1 p_r2_g5_h127_t45 -1 x_r2_g5 -1 x_r2_g127 >= -1 ;
1 p_r2_g10_h132_t45 -1 x_r2_g10 <= 0 ;
1 p_r2_g10_h132_t45 -1 x_r2_g132 <= 0 ;
1 p_r2_g10_h132_t45 -1 x_r2_g10 -1 x_r2_g132 >= -1 ;
1 p_r2_g17_h139_t45 -1 x_r2_g17 <= 0 ;
1 p_r2_g17_h139_t45 -1 x_r2_g139 <= 0 ;
1 p_r2_g17_h139_t45 -1 x_r2_g17 -1 x_r2_g139 >= -1 ;
1 p_r2_g29_h151_t45 -1 x_r2_g29 <= 0 ;
1 p_r2_g29_h151_t45 -1 x_r2_g151 <= 0 ;
1 p_r2_g29_h151_t45 -1 x_r2_g29 -1 x_r2_g151 >= -1 ;
1 p_r2_g80_h35_t45 -1 x_r2_g80 <= 0 ;
1 p_r2_g80_h35_t45 -1 x_r2_g35 <= 0 ;
1 p_r2_g80_h35_t45 -1 x_r2_g80 -1 x_r2_g35 >= -1 ;
1 p_r2_g93_h48_t45 -1 x_r2_g93 <= 0 ;
1 p_r2_g93_h48_t45 -1 x_r2_g48 <= 0 ;
1 p_r2_g93_h48_t45 -1 x_r2_g93 -1 x_r2_g48 >= -1 ;
1 p_r2_g125_h80_t45 -1 x_r2_g125 <= 0 ;
1 p_r2_g125_h80_t45 -1 x_r2_g80 <= 0 ;
1 p_r2_g125_h80_t45 -1 x_r2_g125 -1 x_r2_g80 >= -1 ;
1 p_r2_g138_h93_t45 -1 x_r2_g138 <= 0 ;
1 p_r2_g138_h93_t45 -1 x_r2_g93 <= 0 ;
1 p_r2_g138_h93_t45 -1 x_r2_g138 -1 x_r2_g93 >= -1 ;
1 p_r2_g151_h106_t45 -1 x_r2_g151 <= 0 ;
1 p_r2_g151_h106_t45 -1 x_r2_g106 <= 0 ;
1 p_r2_g151_h106_t45 -1 x_r2_g151 -1 x_r2_g106 >= -1 ;
1 p_r2_g161_h116_t45 -1 x_r2_g161 <= 0 ;
1 p_r2_g161_h116_t45 -1 x_r2_g116 <= 0 ;
1 p_r2_g161_h116_t45 -1 x_r2_g161 -1 x_r2_g116 >= -1 ;
1 p_r3_g0_h122_t45 -1 x_r3_g0 <= 0 ;
1 p_r3_g0_h122_t45 -1 x_r3_g122 <= 0 ;
1 p_r3_g0_h122_t45 -1 x_r3_g0 -1 x_r3_g122 >= -1 ;
1 p_r3_g23_h145_t45 -1 x_r3_g23 <= 0 ;
1 p_r3_g23_h145_t45 -1 x_r3_g145 <= 0 ;
1 p_r3_g23_h145_t45 -1 x_r3_g23 -1 x_r3_g145 >= -1 ;
1 p_r3_g24_h146_t45 -1 x_r3_g24 <= 0 ;
1 p_r3_g24_h146_t45 -1 x_r3_g146 <= 0 ;
1 p_r3_g24_h146_t45 -1 x_r3_g24 -1 x_r3_g146 >= -1 ;
1 p_r3_g68_h23_t45 -1 x_r3_g68 <= 0 ;
1 p_r3_g68_h23_t45 -1 x_r3_g23 <= 0 ;
1 p_r3_g68_h23_t45 -1 x_r3_g68 -1 x_r3_g23 >= -1 ;
1 p_r3_g74_h29_t45 -1 x_r3_g74 <= 0 ;
1 p_r3_g74_h29_t45 -1 x_r3_g29 <= 0 ;
1 p_r3_g74_h29_t45 -1 x_r3_g74 -1 x_r3_g29 >= -1 ;
1 p_r3_g97_h52_t45 -1 x_r3_g97 <= 0 ;
1 p_r3_g97_h52_t45 -1 x_r3_g52 <= 0 ;
1 p_r3_g97_h52_t45 -1 x_r3_g97 -1 x_r3_g52 >= -1 ;
1 p_r3_g99_h54_t45 -1 x_r3_g99 <= 0 ;
1 p_r3_g99_h54_t45 -1 x_r3_g54 <= 0 ;
1 p_r3_g99_h54_t45 -1 x_r3_g99 -1 x_r3_g54 >= -1 ;
1 p_r3_g122_h77_t45 -1 x_r3_g122 <= 0 ;
1 p_r3_g122_h77_t45 -1 x_r3_g77 <= 0 ;
1 p_r3_g122_h77_t45 -1 x_r3_g122 -1 x_r3_g77 >= -1 ;
1 d_45 -1 x_r0_g6 -1 x_r0_g13 -1 x_r0_g22 -1 x_r0_g23 -1 x_r0_g25 -1 x_r0_g35 -1 x_r0_g50 -1 x_r0_g74 -1 x_r0_g77 -1 x_r0_g88 -1 x_r0_g90 -1 x_r0_g101 -2 x_r0_g110 -2 x_r0_g112 -2 x_r0_g113 -1 x_r0_g118 -1 x_r0_g136 -1 x_r0_g152 -1 x_r0_g156 -1 x_r1_g16 -2 x_r1_g19 -1 x_r1_g20 -1 x_r1_g33 -1 x_r1_g35 -1 x_r1_g36 -1 x_r1_g38 -1 x_r1_g41 -1 x_r1_g42 -1 x_r1_g43 -1 x_r1_g44 -1 x_r1_g46 -1 x_r1_g48 -1 x_r1_g58 -1 x_r1_g71 -1 x_r1_g77 -1 x_r1_g78 -2 x_r1_g82 -1 x_r1_g85 -2 x_r1_g101 -2 x_r1_g114 -1 x_r1_g126 -2 x_r1_g132 -1 x_r1_g157 -1 x_r1_g164 -1 x_r2_g6 -1 x_r2_g7 -1 x_r2_g8 -1 x_r2_g13 -1 x_r2_g14 -1 x_r2_g29 -1 x_r2_g33 -1 x_r2_g35 -2 x_r2_g41 -1 x_r2_g42 -1 x_r2_g56 -1 x_r2_g85 -1 x_r2_g106 -1 x_r2_g112 -1 x_r2_g118 -1 x_r2_g119 -1 x_r2_g127 -1 x_r2_g131 -1 x_r2_g132 -1 x_r2_g139 -1 x_r2_g146 -1 x_r2_g161 -1 x_r3_g0 -1 x_r3_g4 -1 x_r3_g6 -1 x_r3_g12 -2 x_r3_g21 -1 x_r3_g29 -1 x_r3_g31 -2 x_r3_g53 -1 x_r3_g54 -1 x_r3_g58 -1 x_r3_g61 -2 x_r3_g63 -1 x_r3_g74 -1 x_r3_g77 -1 x_r3_g78 -2 x_r3_g82 -2 x_r3_g84 -1 x_r3_g97 -1 x_r3_g99 -1 x_r3_g110 -1 x_r3_g111 -1 x_r3_g124 -1 x_r3_g125 -2 x_r3_g139 -1 x_r3_g159 -1 x_r3_g160 -1 x_r3_g165 -1 p_r0_g6_h128_t45 -1 p_r0_g13_h135_t45 -1 p_r0_g22_h144_t45 -1 p_r0_g40_h162_t45 -1 p_r0_g95_h50_t45 -1 p_r0_g99_h54_t45 -1 p_r0_g111_h66_t45 -1 p_r0_g118_h73_t45 -1 p_r0_g135_h90_t45 -1 p_r0_g140_h95_t45 -1 p_r0_g144_h99_t45 -1 p_r0_g156_h111_t45 -1 p_r0_g162_h117_t45 -1 p_r1_g35_h157_t45 -1 p_r1_g42_h164_t45 -1 p_r1_g73_h28_t45 -1 p_r1_g76_h31_t45 -1 p_r1_g78_h33_t45 -1 p_r1_g89_h44_t45 -1 p_r1_g91_h46_t45 -1 p_r1_g116_h71_t45 -1 p_r1_g130_h85_t45 -1 p_r2_g5_h127_t45 -1 p_r2_g10_h132_t45 -1 p_r2_g17_h139_t45 -1 p_r2_g29_h151_t45 -1 p_r2_g80_h35_t45 -1 p_r2_g93_h48_t45 -1 p_r2_g125_h80_t45 -1 p_r2_g138_h93_t45 -1 p_r2_g151_h106_t45 -1 p_r2_g161_h116_t45 -1 p_r3_g0_h122_t45 -1 p_r3_g23_h145_t45 -1 p_r3_g24_h146_t45 -1 p_r3_g68_h23_t45 -1 p_r3_g74_h29_t45 -1 p_r3_g97_h52_t45 -1 p_r3_g99_h54_t45 -1 p_r3_g122_h77_t45 = -64 ;
1 d_45 -1 u_45 <= 0 ;
-1 d_45 -1 u_45 <= 0 ;
1 u_45 -1 M <= 0 ;
1 u_45 <= 0 ;
1 p_r0_g23_h144_t46 -1 x_r0_g23 <= 0 ;
1 p_r0_g23_h144_t46 -1 x_r0_g144 <= 0 ;
1 p_r0_g23_h144_t46 -1 x_r0_g23 -1 x_r0_g144 >= -1 ;
1 p_r0_g35_h156_t46 -1 x_r0_g35 <= 0 ;
1 p_r0_g35_h156_t46 -1 x_r0_g156 <= 0 ;
1 p_r0_g35_h156_t46 -1 x_r0_g35 -1 x_r0_g156 >= -1 ;
1 p_r0_g90_h44_t46 -1 x_r0_g90 <= 0 ;
1 p_r0_g90_h44_t46 -1 x_r0_g44 <= 0 ;
1 p_r0_g90_h44_t46 -1 x_r0_g90 -1 x_r0_g44 >= -1 ;
1 p_r0_g95_h49_t46 -1 x_r0_g95 <= 0 ;
1 p_r0_g95_h49_t46 -1 x_r0_g49 <= 0 ;
1 p_r0_g95_h49_t46 -1 x_r0_g95 -1 x_r0_g49 >= -1 ;
1 p_r0_g112_h66_t46 -1 x_r0_g112 <= 0 ;
1 p_r0_g112_h66_t46 -1 x_r0_g66 <= 0 ;
1 p_r0_g112_h66_t46 -1 x_r0_g112 -1 x_r0_g66 >= -1 ;
1 p_r0_g136_h90_t46 -1 x_r0_g136 <= 0 ;
1 p_r0_g136_h90_t46 -1 x_r0_g90 <= 0 ;
1 p_r0_g136_h90_t46 -1 x_r0_g136 -1 x_r0_g90 >= -1 ;
1 p_r0_g156_h110_t46 -1 x_r0_g156 <= 0 ;
1 p_r0_g156_h110_t46 -1 x_r0_g110 <= 0 ;
1 p_r0_g156_h110_t46 -1 x_r0_g156 -1 x_r0_g110 >= -1 ;
1 p_r0_g162_h116_t46 -1 x_r0_g162 <= 0 ;
1 p_r0_g162_h116_t46 -1 x_r0_g116 <= 0 ;
1 p_r0_g162_h116_t46 -1 x_r0_g162 -1 x_r0_g116 >= -1 ;
1 p_r1_g36_h157_t46 -1 x_r1_g36 <= 0 ;
1 p_r1_g36_h157_t46 -1 x_r1_g157 <= 0 ;
1 p_r1_g36_h157_t46 -1 x_r1_g36 -1 x_r1_g157 >= -1 ;
1 p_r1_g43_h164_t46 -1 x_r1_g43 <= 0 ;
1 p_r1_g43_h164_t46 -1 x_r1_g164 <= 0 ;
1 p_r1_g43_h164_t46 -1 x_r1_g43 -1 x_r1_g164 >= -1 ;
1 p_r1_g46_h0_t46 -1 x_r1_g46 <= 0 ;
1 p_r1_g46_h0_t46 -1 x_r1_g0 <= 0 ;
1 p_r1_g46_h0_t46 -1 x_r1_g46 -1 x_r1_g0 >= -1 ;
1 p_r1_g77_h31_t46 -1 x_r1_g77 <= 0 ;
1 p_r1_g77_h31_t46 -1 x_r1_g31 <= 0 ;
1 p_r1_g77_h31_t46 -1 x_r1_g77 -1 x_r1_g31 >= -1 ;
1 p_r1_g82_h36_t46 -1 x_r1_g82 <= 0 ;
1 p_r1_g82_h36_t46 -1 x_r1_g36 <= 0 ;
1 p_r1_g82_h36_t46 -1 x_r1_g82 -1 x_r1_g36 >= -1 ;
1 p_r1_g89_h43_t46 -1 x_r1_g89 <= 0 ;
1 p_r1_g89_h43_t46 -1 x_r1_g43 <= 0 ;
1 p_r1_g89_h43_t46 -1 x_r1_g89 -1 x_r1_g43 >= -1 ;
1 p_r1_g92_h46_t46 -1 x_r1_g92 <= 0 ;
1 p_r1_g92_h46_t46 -1 x_r1_g46 <= 0 ;
1 p_r1_g92_h46_t46 -1 x_r1_g92 -1 x_r1_g46 >= -1 ;
1 p_r1_g128_h82_t46 -1 x_r1_g128 <= 0 ;
1 p_r1_g128_h82_t46 -1 x_r1_g82 <= 0 ;
1 p_r1_g128_h82_t46 -1 x_r1_g128 -1 x_r1_g82 >= -1 ;
1 p_r1_g131_h85_t46 -1 x_r1_g131 <= 0 ;
1 p_r1_g131_h85_t46 -1 x_r1_g85 <= 0 ;
1 p_r1_g131_h85_t46 -1 x_r1_g131 -1 x_r1_g85 >= -1 ;
1 p_r2_g6_h127_t46 -1 x_r2_g6 <= 0 ;
1 p_r2_g6_h127_t46 -1 x_r2_g127 <= 0 ;
1 p_r2_g6_h127_t46 -1 x_r2_g6 -1 x_r2_g127 >= -1 ;
1 p_r2_g10_h131_t46 -1 x_r2_g10 <= 0 ;
1 p_r2_g10_h131_t46 -1 x_r2_g131 <= 0 ;
1 p_r2_g10_h131_t46 -1 x_r2_g10 -1 x_r2_g131 >= -1 ;
1 p_r2_g17_h138_t46 -1 x_r2_g17 <= 0 ;
1 p_r2_g17_h138_t46 -1 x_r2_g138 <= 0 ;
1 p_r2_g17_h138_t46 -1 x_r2_g17 -1 x_r2_g138 >= -1 ;
1 p_r2_g56_h10_t46 -1 x_r2_g56 <= 0 ;
1 p_r2_g56_h10_t46 -1 x_r2_g10 <= 0 ;
1 p_r2_g56_h10_t46 -1 x_r2_g56 -1 x_r2_g10 >= -1 ;
1 p_r2_g80_h34_t46 -1 x_r2_g80 <= 0 ;
1 p_r2_g80_h34_t46 -1 x_r2_g34 <= 0 ;
1 p_r2_g80_h34_t46 -1 x_r2_g80 -1 x_r2_g34 >= -1 ;
1 p_r2_g93_h47_t46 -1 x_r2_g93 <= 0 ;
1 p_r2_g93_h47_t46 -1 x_r2_g47 <= 0 ;
1 p_r2_g93_h47_t46 -1 x_r2_g93 -1 x_r2_g47 >= -1 ;
1 p_r2_g131_h85_t46 -1 x_r2_g131 <= 0 ;
1 p_r2_g131_h85_t46 -1 x_r2_g85 <= 0 ;
1 p_r2_g131_h85_t46 -1 x_r2_g131 -1 x_r2_g85 >= -1 ;
1 p_r2_g139_h93_t46 -1 x_r2_g139 <= 0 ;
1 p_r2_g139_h93_t46 -1 x_r2_g93 <= 0 ;
1 p_r2_g139_h93_t46 -1 x_r2_g139 -1 x_r2_g93 >= -1 ;
1 p_r3_g4_h125_t46 -1 x_r3_g4 <= 0 ;
1 p_r3_g4_h125_t46 -1 x_r3_g125 <= 0 ;
1 p_r3_g4_h125_t46 -1 x_r3_g4 -1 x_r3_g125 >= -1 ;
1 p_r3_g12_h133_t46 -1 x_r3_g12 <= 0 ;
1 p_r3_g12_h133_t46 -1 x_r3_g133 <= 0 ;
1 p_r3_g12_h133_t46 -1 x_r3_g12 -1 x_r3_g133 >= -1 ;
1 p_r3_g24_h145_t46 -1 x_r3_g24 <= 0 ;
1 p_r3_g24_h145_t46 -1 x_r3_g145 <= 0 ;
1 p_r3_g24_h145_t46 -1 x_r3_g24 -1 x_r3_g145 >= -1 ;
1 p_r3_g52_h6_t46 -1 x_r3_g52 <= 0 ;
1 p_r3_g52_h6_t46 -1 x_r3_g6 <= 0 ;
1 p_r3_g52_h6_t46 -1 x_r3_g52 -1 x_r3_g6 >= -1 ;
1 p_r3_g58_h12_t46 -1 x_r3_g58 <= 0 ;
1 p_r3_g58_h12_t46 -1 x_r3_g12 <= 0 ;
1 p_r3_g58_h12_t46 -1 x_r3_g58 -1 x_r3_g12 >= -1 ;
1 p_r3_g77_h31_t46 -1 x_r3_g77 <= 0 ;
1 p_r3_g77_h31_t46 -1 x_r3_g31 <= 0 ;
1 p_r3_g77_h31_t46 -1 x_r3_g77 -1 x_r3_g31 >= -1 ;
1 p_r3_g99_h53_t46 -1 x_r3_g99 <= 0 ;
1 p_r3_g99_h53_t46 -1 x_r3_g53 <= 0 ;
1 p_r3_g99_h53_t46 -1 x_r3_g99 -1 x_r3_g53 >= -1 ;
1 p_r3_g124_h78_t46 -1 x_r3_g124 <= 0 ;
1 p_r3_g124_h78_t46 -1 x_r3_g78 <= 0 ;
1 p_r3_g124_h78_t46 -1 x_r3_g124 -1 x_r3_g78 >= -1 ;
1 p_r3_g145_h99_t46 -1 x_r3_g145 <= 0 ;
1 p_r3_g145_h99_t46 -1 x_r3_g99 <= 0 ;
1 p_r3_g145_h99_t46 -1 x_r3_g145 -1 x_r3_g99 >= -1 ;
1 d_46 -2 x_r0_g6 -1 x_r0_g13 -2 x_r0_g16 -2 x_r0_g22 -1 x_r0_g25 -1 x_r0_g44 -1 x_r0_g49 -1 x_r0_g54 -1 x_r0_g66 -1 x_r0_g73 -1 x_r0_g74 -1 x_r0_g77 -1 x_r0_g88 -1 x_r0_g101 -2 x_r0_g111 -1 x_r0_g112 -2 x_r0_g113 -1 x_r0_g116 -1 x_r0_g117 -1 x_r0_g128 -1 x_r0_g132 -1 x_r0_g135 -1 x_r0_g136 -1 x_r0_g140 -1 x_r0_g144 -1 x_r0_g152 -1 x_r1_g16 -2 x_r1_g19 -2 x_r1_g20 -2 x_r1_g33 -2 x_r1_g35 -2 x_r1_g38 -1 x_r1_g41 -2 x_r1_g42 -1 x_r1_g44 -2 x_r1_g73 -1 x_r1_g77 -2 x_r1_g78 -1 x_r1_g85 -1 x_r1_g92 -1 x_r1_g99 -2 x_r1_g114 -1 x_r1_g116 -1 x_r1_g126 -1 x_r1_g130 -1 x_r1_g131 -1 x_r1_g132 -1 x_r2_g5 -1 x_r2_g7 -1 x_r2_g8 -1 x_r2_g13 -1 x_r2_g14 -1 x_r2_g17 -1 x_r2_g27 -2 x_r2_g29 -1 x_r2_g41 -1 x_r2_g42 -1 x_r2_g47 -1 x_r2_g48 -1 x_r2_g56 -1 x_r2_g80 -1 x_r2_g85 -2 x_r2_g106 -2 x_r2_g111 -1 x_r2_g112 -2 x_r2_g114 -1 x_r2_g119 -1 x_r2_g125 -1 x_r2_g132 -1 x_r2_g133 -1 x_r2_g139 -1 x_r2_g141 -1 x_r2_g146 -2 x_r2_g151 -1 x_r2_g161 -1 x_r3_g0 -1 x_r3_g6 -1 x_r3_g21 -1 x_r3_g23 -1 x_r3_g29 -1 x_r3_g52 -1 x_r3_g54 -1 x_r3_g55 -1 x_r3_g60 -1 x_r3_g63 -1 x_r3_g68 -1 x_r3_g74 -1 x_r3_g77 -1 x_r3_g78 -2 x_r3_g82 -1 x_r3_g84 -1 x_r3_g97 -1 x_r3_g111 -1 x_r3_g112 -2 x_r3_g122 -1 x_r3_g132 -1 x_r3_g139 -1 x_r3_g159 -1 x_r3_g160 -1 x_r3_g165 -1 p_r0_g23_h144_t46 -1 p_r0_g35_h156_t46 -1 p_r0_g90_h44_t46 -1 p_r0_g95_h49_t46 -1 p_r0_g112_h66_t46 -1 p_r0_g136_h90_t46 -1 p_r0_g156_h110_t46 -1 p_r0_g162_h116_t46 -1 p_r1_g36_h157_t46 -1 p_r1_g43_h164_t46 -1 p_r1_g46_h0_t46 -1 p_r1_g77_h31_t46 -1 p_r1_g82_h36_t46 -1 p_r1_g89_h43_t46 -1 p_r1_g92_h46_t46 -1 p_r1_g128_h82_t46 -1 p_r1_g131_h85_t46 -1 p_r2_g6_h127_t46 -1 p_r2_g10_h131_t46 -1 p_r2_g17_h138_t46 -1 p_r2_g56_h10_t46 -1 p_r2_g80_h34_t46 -1 p_r2_g93_h47_t46 -1 p_r2_g131_h85_t46 -1 p_r2_g139_h93_t46 -1 p_r3_g4_h125_t46 -1 p_r3_g12_h133_t46 -1 p_r3_g24_h145_t46 -1 p_r3_g52_h6_t46 -1 p_r3_g58_h12_t46 -1 p_r3_g77_h31_t46 -1 p_r3_g99_h53_t46 -1 p_r3_g124_h78_t46 -1 p_r3_g145_h99_t46 = -71 ;
1 d_46 -1 u_46 <= 0 ;
-1 d_46 -1 u_46 <= 0 ;
1 u_46 -1 M <= 0 ;
1 u_46 <= 0 ;
1 p_r0_g16_h136_t47 -1 x_r0_g16 <= 0 ;
1 p_r0_g16_h136_t47 -1 x_r0_g136 <= 0 ;
1 p_r0_g16_h136_t47 -1 x_r0_g16 -1 x_r0_g136 >= -1 ;
1 p_r0_g101_h54_t47 -1 x_r0_g101 <= 0 ;
1 p_r0_g101_h54_t47 -1 x_r0_g54 <= 0 ;
1 p_r0_g101_h54_t47 -1 x_r0_g101 -1 x_r0_g54 >= -1 ;
1 p_r0_g113_h66_t47 -1 x_r0_g113 <= 0 ;
1 p_r0_g113_h66_t47 -1 x_r0_g66 <= 0 ;
1 p_r0_g113_h66_t47 -1 x_r0_g113 -1 x_r0_g66 >= -1 ;
1 p_r0_g135_h88_t47 -1 x_r0_g135 <= 0 ;
1 p_r0_g135_h88_t47 -1 x_r0_g88 <= 0 ;
1 p_r0_g135_h88_t47 -1 x_r0_g135 -1 x_r0_g88 >= -1 ;
1 p_r1_g44_h164_t47 -1 x_r1_g44 <= 0 ;
1 p_r1_g44_h164_t47 -1 x_r1_g164 <= 0 ;
1 p_r1_g44_h164_t47 -1 x_r1_g44 -1 x_r1_g164 >= -1 ;
1 p_r1_g76_h29_t47 -1 x_r1_g76 <= 0 ;
1 p_r1_g76_h29_t47 -1 x_r1_g29 <= 0 ;
1 p_r1_g76_h29_t47 -1 x_r1_g76 -1 x_r1_g29 >= -1 ;
1 p_r1_g78_h31_t47 -1 x_r1_g78 <= 0 ;
1 p_r1_g78_h31_t47 -1 x_r1_g31 <= 0 ;
1 p_r1_g78_h31_t47 -1 x_r1_g78 -1 x_r1_g31 >= -1 ;
1 p_r1_g82_h35_t47 -1 x_r1_g82 <= 0 ;
1 p_r1_g82_h35_t47 -1 x_r1_g35 <= 0 ;
1 p_r1_g82_h35_t47 -1 x_r1_g82 -1 x_r1_g35 >= -1 ;
1 p_r1_g85_h38_t47 -1 x_r1_g85 <= 0 ;
1 p_r1_g85_h38_t47 -1 x_r1_g38 <= 0 ;
1 p_r1_g85_h38_t47 -1 x_r1_g85 -1 x_r1_g38 >= -1 ;
1 p_r1_g89_h42_t47 -1 x_r1_g89 <= 0 ;
1 p_r1_g89_h42_t47 -1 x_r1_g42 <= 0 ;
1 p_r1_g89_h42_t47 -1 x_r1_g89 -1 x_r1_g42 >= -1 ;
1 p_r1_g91_h44_t47 -1 x_r1_g91 <= 0 ;
1 p_r1_g91_h44_t47 -1 x_r1_g44 <= 0 ;
1 p_r1_g91_h44_t47 -1 x_r1_g91 -1 x_r1_g44 >= -1 ;
1 p_r1_g132_h85_t47 -1 x_r1_g132 <= 0 ;
1 p_r1_g132_h85_t47 -1 x_r1_g85 <= 0 ;
1 p_r1_g132_h85_t47 -1 x_r1_g132 -1 x_r1_g85 >= -1 ;
1 p_r2_g5_h125_t47 -1 x_r2_g5 <= 0 ;
1 p_r2_g5_h125_t47 -1 x_r2_g125 <= 0 ;
1 p_r2_g5_h125_t47 -1 x_r2_g5 -1 x_r2_g125 >= -1 ;
1 p_r2_g7_h127_t47 -1 x_r2_g7 <= 0 ;
1 p_r2_g7_h127_t47 -1 x_r2_g127 <= 0 ;
1 p_r2_g7_h127_t47 -1 x_r2_g7 -1 x_r2_g127 >= -1 ;
1 p_r2_g13_h133_t47 -1 x_r2_g13 <= 0 ;
1 p_r2_g13_h133_t47 -1 x_r2_g133 <= 0 ;
1 p_r2_g13_h133_t47 -1 x_r2_g13 -1 x_r2_g133 >= -1 ;
1 p_r2_g41_h161_t47 -1 x_r2_g41 <= 0 ;
1 p_r2_g41_h161_t47 -1 x_r2_g161 <= 0 ;
1 p_r2_g41_h161_t47 -1 x_r2_g41 -1 x_r2_g161 >= -1 ;
1 p_r2_g80_h33_t47 -1 x_r2_g80 <= 0 ;
1 p_r2_g80_h33_t47 -1 x_r2_g33 <= 0 ;
1 p_r2_g80_h33_t47 -1 x_r2_g80 -1 x_r2_g33 >= -1 ;
1 p_r2_g127_h80_t47 -1 x_r2_g127 <= 0 ;
1 p_r2_g127_h80_t47 -1 x_r2_g80 <= 0 ;
1 p_r2_g127_h80_t47 -1 x_r2_g127 -1 x_r2_g80 >= -1 ;
1 p_r2_g132_h85_t47 -1 x_r2_g132 <= 0 ;
1 p_r2_g132_h85_t47 -1 x_r2_g85 <= 0 ;
1 p_r2_g132_h85_t47 -1 x_r2_g132 -1 x_r2_g85 >= -1 ;
1 p_r2_g161_h114_t47 -1 x_r2_g161 <= 0 ;
1 p_r2_g161_h114_t47 -1 x_r2_g114 <= 0 ;
1 p_r2_g161_h114_t47 -1 x_r2_g161 -1 x_r2_g114 >= -1 ;
1 p_r3_g4_h124_t47 -1 x_r3_g4 <= 0 ;
1 p_r3_g4_h124_t47 -1 x_r3_g124 <= 0 ;
1 p_r3_g4_h124_t47 -1 x_r3_g4 -1 x_r3_g124 >= -1 ;
1 p_r3_g12_h132_t47 -1 x_r3_g12 <= 0 ;
1 p_r3_g12_h132_t47 -1 x_r3_g132 <= 0 ;
1 p_r3_g12_h132_t47 -1 x_r3_g12 -1 x_r3_g132 >= -1 ;
1 p_r3_g53_h6_t47 -1 x_r3_g53 <= 0 ;
1 p_r3_g53_h6_t47 -1 x_r3_g6 <= 0 ;
1 p_r3_g53_h6_t47 -1 x_r3_g53 -1 x_r3_g6 >= -1 ;
1 p_r3_g68_h21_t47 -1 x_r3_g68 <= 0 ;
1 p_r3_g68_h21_t47 -1 x_r3_g21 <= 0 ;
1 p_r3_g68_h21_t47 -1 x_r3_g68 -1 x_r3_g21 >= -1 ;
1 p_r3_g78_h31_t47 -1 x_r3_g78 <= 0 ;
1 p_r3_g78_h31_t47 -1 x_r3_g31 <= 0 ;
1 p_r3_g78_h31_t47 -1 x_r3_g78 -1 x_r3_g31 >= -1 ;
1 p_r3_g99_h52_t47 -1 x_r3_g99 <= 0 ;
1 p_r3_g99_h52_t47 -1 x_r3_g52 <= 0 ;
1 p_r3_g99_h52_t47 -1 x_r3_g99 -1 x_r3_g52 >= -1 ;
1 p_r3_g110_h63_t47 -1 x_r3_g110 <= 0 ;
1 p_r3_g110_h63_t47 -1 x_r3_g63 <= 0 ;
1 p_r3_g110_h63_t47 -1 x_r3_g110 -1 x_r3_g63 >= -1 ;
1 p_r3_g124_h77_t47 -1 x_r3_g124 <= 0 ;
1 p_r3_g124_h77_t47 -1 x_r3_g77 <= 0 ;
1 p_r3_g124_h77_t47 -1 x_r3_g124 -1 x_r3_g77 >= -1 ;
1 p_r3_g125_h78_t47 -1 x_r3_g125 <= 0 ;
1 p_r3_g125_h78_t47 -1 x_r3_g78 <= 0 ;
1 p_r3_g125_h78_t47 -1 x_r3_g125 -1 x_r3_g78 >= -1 ;
1 p_r3_g146_h99_t47 -1 x_r3_g146 <= 0 ;
1 p_r3_g146_h99_t47 -1 x_r3_g99 <= 0 ;
1 p_r3_g146_h99_t47 -1 x_r3_g146 -1 x_r3_g99 >= -1 ;
1 p_r3_g159_h112_t47 -1 x_r3_g159 <= 0 ;
1 p_r3_g159_h112_t47 -1 x_r3_g112 <= 0 ;
1 p_r3_g159_h112_t47 -1 x_r3_g159 -1 x_r3_g112 >= -1 ;
1 d_47 -1 x_r0_g6 -1 x_r0_g16 -1 x_r0_g22 -2 x_r0_g23 -1 x_r0_g35 -1 x_r0_g40 -1 x_r0_g50 -1 x_r0_g54 -1 x_r0_g66 -1 x_r0_g73 -1 x_r0_g77 -2 x_r0_g90 -2 x_r0_g95 -2 x_r0_g99 -2 x_r0_g110 -1 x_r0_g111 -2 x_r0_g112 -1 x_r0_g113 -1 x_r0_g116 -1 x_r0_g117 -1 x_r0_g118 -1 x_r0_g132 -1 x_r0_g135 -1 x_r0_g139 -1 x_r0_g140 -1 x_r0_g156 -1 x_r0_g162 -1 x_r1_g15 -1 x_r1_g19 -1 x_r1_g20 -1 x_r1_g33 -1 x_r1_g35 -1 x_r1_g36 -1 x_r1_g41 -2 x_r1_g43 -1 x_r1_g46 -2 x_r1_g48 -1 x_r1_g58 -1 x_r1_g73 -1 x_r1_g76 -1 x_r1_g77 -1 x_r1_g91 -1 x_r1_g99 -2 x_r1_g116 -1 x_r1_g126 -1 x_r1_g128 -1 x_r1_g130 -2 x_r1_g131 -1 x_r1_g157 -1 x_r2_g6 -1 x_r2_g8 -1 x_r2_g10 -1 x_r2_g13 -2 x_r2_g14 -2 x_r2_g17 -1 x_r2_g27 -1 x_r2_g33 -1 x_r2_g35 -2 x_r2_g47 -1 x_r2_g48 -2 x_r2_g93 -1 x_r2_g106 -2 x_r2_g111 -1 x_r2_g112 -1 x_r2_g116 -1 x_r2_g118 -1 x_r2_g125 -1 x_r2_g133 -1 x_r2_g138 -2 x_r2_g141 -2 x_r2_g145 -1 x_r2_g146 -2 x_r2_g151 -1 x_r3_g0 -1 x_r3_g12 -1 x_r3_g23 -1 x_r3_g24 -2 x_r3_g29 -1 x_r3_g31 -1 x_r3_g52 -1 x_r3_g55 -1 x_r3_g60 -1 x_r3_g61 -1 x_r3_g74 -1 x_r3_g77 -1 x_r3_g82 -1 x_r3_g84 -1 x_r3_g97 -1 x_r3_g112 -2 x_r3_g122 -1 x_r3_g125 -2 x_r3_g133 -1 x_r3_g136 -1 x_r3_g139 -1 x_r3_g145 -1 x_r3_g146 -1 x_r3_g159 -1 x_r3_g160 -2 x_r3_g165 -1 p_r0_g16_h136_t47 -1 p_r0_g101_h54_t47 -1 p_r0_g113_h66_t47 -1 p_r0_g135_h88_t47 -1 p_r1_g44_h164_t47 -1 p_r1_g76_h29_t47 -1 p_r1_g78_h31_t47 -1 p_r1_g82_h35_t47 -1 p_r1_g85_h38_t47 -1 p_r1_g89_h42_t47 -1 p_r1_g91_h44_t47 -1 p_r1_g132_h85_t47 -1 p_r2_g5_h125_t47 -1 p_r2_g7_h127_t47 -1 p_r2_g13_h133_t47 -1 p_r2_g41_h161_t47 -1 p_r2_g80_h33_t47 -1 p_r2_g127_h80_t47 -1 p_r2_g132_h85_t47 -1 p_r2_g161_h114_t47 -1 p_r3_g4_h124_t47 -1 p_r3_g12_h132_t47 -1 p_r3_g53_h6_t47 -1 p_r3_g68_h21_t47 -1 p_r3_g78_h31_t47 -1 p_r3_g99_h52_t47 -1 p_r3_g110_h63_t47 -1 p_r3_g124_h77_t47 -1 p_r3_g125_h78_t47 -1 p_r3_g146_h99_t47 -1 p_r3_g159_h112_t47 = -57 ;
1 d_47 -1 u_47 <= 0 ;
-1 d_47 -1 u_47 <= 0 ;
1 u_47 -1 M <= 0 ;
1 u_47 <= 1 ;
1 p_r0_g22_h140_t49 -1 x_r0_g22 <= 0 ;
1 p_r0_g22_h140_t49 -1 x_r0_g140 <= 0 ;
1 p_r0_g22_h140_t49 -1 x_r0_g22 -1 x_r0_g140 >= -1 ;
1 p_r0_g44_h162_t49 -1 x_r0_g44 <= 0 ;
1 p_r0_g44_h162_t49 -1 x_r0_g162 <= 0 ;
1 p_r0_g44_h162_t49 -1 x_r0_g44 -1 x_r0_g162 >= -1 ;
1 p_r0_g74_h25_t49 -1 x_r0_g74 <= 0 ;
1 p_r0_g74_h25_t49 -1 x_r0_g25 <= 0 ;
1 p_r0_g74_h25_t49 -1 x_r0_g74 -1 x_r0_g25 >= -1 ;
1 p_r0_g95_h46_t49 -1 x_r0_g95 <= 0 ;
1 p_r0_g95_h46_t49 -1 x_r0_g46 <= 0 ;
1 p_r0_g95_h46_t49 -1 x_r0_g95 -1 x_r0_g46 >= -1 ;
1 p_r0_g99_h50_t49 -1 x_r0_g99 <= 0 ;
1 p_r0_g99_h50_t49 -1 x_r0_g50 <= 0 ;
1 p_r0_g99_h50_t49 -1 x_r0_g99 -1 x_r0_g50 >= -1 ;
1 p_r0_g139_h90_t49 -1 x_r0_g139 <= 0 ;
1 p_r0_g139_h90_t49 -1 x_r0_g90 <= 0 ;
1 p_r0_g139_h90_t49 -1 x_r0_g139 -1 x_r0_g90 >= -1 ;
1 p_r0_g144_h95_t49 -1 x_r0_g144 <= 0 ;
1 p_r0_g144_h95_t49 -1 x_r0_g95 <= 0 ;
1 p_r0_g144_h95_t49 -1 x_r0_g144 -1 x_r0_g95 >= -1 ;
1 p_r0_g162_h113_t49 -1 x_r0_g162 <= 0 ;
1 p_r0_g162_h113_t49 -1 x_r0_g113 <= 0 ;
1 p_r0_g162_h113_t49 -1 x_r0_g162 -1 x_r0_g113 >= -1 ;
1 p_r1_g46_h164_t49 -1 x_r1_g46 <= 0 ;
1 p_r1_g46_h164_t49 -1 x_r1_g164 <= 0 ;
1 p_r1_g46_h164_t49 -1 x_r1_g46 -1 x_r1_g164 >= -1 ;
1 p_r1_g77_h28_t49 -1 x_r1_g77 <= 0 ;
1 p_r1_g77_h28_t49 -1 x_r1_g28 <= 0 ;
1 p_r1_g77_h28_t49 -1 x_r1_g77 -1 x_r1_g28 >= -1 ;
1 p_r1_g78_h29_t49 -1 x_r1_g78 <= 0 ;
1 p_r1_g78_h29_t49 -1 x_r1_g29 <= 0 ;
1 p_r1_g78_h29_t49 -1 x_r1_g78 -1 x_r1_g29 >= -1 ;
1 p_r1_g82_h33_t49 -1 x_r1_g82 <= 0 ;
1 p_r1_g82_h33_t49 -1 x_r1_g33 <= 0 ;
1 p_r1_g82_h33_t49 -1 x_r1_g82 -1 x_r1_g33 >= -1 ;
1 p_r1_g85_h36_t49 -1 x_r1_g85 <= 0 ;
1 p_r1_g85_h36_t49 -1 x_r1_g36 <= 0 ;
1 p_r1_g85_h36_t49 -1 x_r1_g85 -1 x_r1_g36 >= -1 ;
1 p_r1_g91_h42_t49 -1 x_r1_g91 <= 0 ;
1 p_r1_g91_h42_t49 -1 x_r1_g42 <= 0 ;
1 p_r1_g91_h42_t49 -1 x_r1_g91 -1 x_r1_g42 >= -1 ;
1 p_r1_g92_h43_t49 -1 x_r1_g92 <= 0 ;
1 p_r1_g92_h43_t49 -1 x_r1_g43 <= 0 ;
1 p_r1_g92_h43_t49 -1 x_r1_g92 -1 x_r1_g43 >= -1 ;
1 p_r1_g126_h77_t49 -1 x_r1_g126 <= 0 ;
1 p_r1_g126_h77_t49 -1 x_r1_g77 <= 0 ;
1 p_r1_g126_h77_t49 -1 x_r1_g126 -1 x_r1_g77 >= -1 ;
1 p_r1_g131_h82_t49 -1 x_r1_g131 <= 0 ;
1 p_r1_g131_h82_t49 -1 x_r1_g82 <= 0 ;
1 p_r1_g131_h82_t49 -1 x_r1_g131 -1 x_r1_g82 >= -1 ;
1 p_r2_g7_h125_t49 -1 x_r2_g7 <= 0 ;
1 p_r2_g7_h125_t49 -1 x_r2_g125 <= 0 ;
1 p_r2_g7_h125_t49 -1 x_r2_g7 -1 x_r2_g125 >= -1 ;
1 p_r2_g13_h131_t49 -1 x_r2_g13 <= 0 ;
1 p_r2_g13_h131_t49 -1 x_r2_g131 <= 0 ;
1 p_r2_g13_h131_t49 -1 x_r2_g13 -1 x_r2_g131 >= -1 ;
1 p_r2_g14_h132_t49 -1 x_r2_g14 <= 0 ;
1 p_r2_g14_h132_t49 -1 x_r2_g132 <= 0 ;
1 p_r2_g14_h132_t49 -1 x_r2_g14 -1 x_r2_g132 >= -1 ;
1 p_r2_g27_h145_t49 -1 x_r2_g27 <= 0 ;
1 p_r2_g27_h145_t49 -1 x_r2_g145 <= 0 ;
1 p_r2_g27_h145_t49 -1 x_r2_g27 -1 x_r2_g145 >= -1 ;
1 p_r2_g33_h151_t49 -1 x_r2_g33 <= 0 ;
1 p_r2_g33_h151_t49 -1 x_r2_g151 <= 0 ;
1 p_r2_g33_h151_t49 -1 x_r2_g33 -1 x_r2_g151 >= -1 ;
1 p_r2_g56_h7_t49 -1 x_r2_g56 <= 0 ;
1 p_r2_g56_h7_t49 -1 x_r2_g7 <= 0 ;
1 p_r2_g56_h7_t49 -1 x_r2_g56 -1 x_r2_g7 >= -1 ;
1 p_r2_g161_h112_t49 -1 x_r2_g161 <= 0 ;
1 p_r2_g161_h112_t49 -1 x_r2_g112 <= 0 ;
1 p_r2_g161_h112_t49 -1 x_r2_g161 -1 x_r2_g112 >= -1 ;
1 p_r3_g4_h122_t49 -1 x_r3_g4 <= 0 ;
1 p_r3_g4_h122_t49 -1 x_r3_g122 <= 0 ;
1 p_r3_g4_h122_t49 -1 x_r3_g4 -1 x_r3_g122 >= -1 ;
1 p_r3_g6_h124_t49 -1 x_r3_g6 <= 0 ;
1 p_r3_g6_h124_t49 -1 x_r3_g124 <= 0 ;
1 p_r3_g6_h124_t49 -1 x_r3_g6 -1 x_r3_g124 >= -1 ;
1 p_r3_g21_h139_t49 -1 x_r3_g21 <= 0 ;
1 p_r3_g21_h139_t49 -1 x_r3_g139 <= 0 ;
1 p_r3_g21_h139_t49 -1 x_r3_g21 -1 x_r3_g139 >= -1 ;
1 p_r3_g53_h4_t49 -1 x_r3_g53 <= 0 ;
1 p_r3_g53_h4_t49 -1 x_r3_g4 <= 0 ;
1 p_r3_g53_h4_t49 -1 x_r3_g53 -1 x_r3_g4 >= -1 ;
1 p_r3_g55_h6_t49 -1 x_r3_g55 <= 0 ;
1 p_r3_g55_h6_t49 -1 x_r3_g6 <= 0 ;
1 p_r3_g55_h6_t49 -1 x_r3_g55 -1 x_r3_g6 >= -1 ;
1 p_r3_g61_h12_t49 -1 x_r3_g61 <= 0 ;
1 p_r3_g61_h12_t49 -1 x_r3_g12 <= 0 ;
1 p_r3_g61_h12_t49 -1 x_r3_g61 -1 x_r3_g12 >= -1 ;
1 p_r3_g78_h29_t49 -1 x_r3_g78 <= 0 ;
1 p_r3_g78_h29_t49 -1 x_r3_g29 <= 0 ;
1 p_r3_g78_h29_t49 -1 x_r3_g78 -1 x_r3_g29 >= -1 ;
1 p_r3_g110_h61_t49 -1 x_r3_g110 <= 0 ;
1 p_r3_g110_h61_t49 -1 x_r3_g61 <= 0 ;
1 p_r3_g110_h61_t49 -1 x_r3_g110 -1 x_r3_g61 >= -1 ;
1 p_r3_g112_h63_t49 -1 x_r3_g112 <= 0 ;
1 p_r3_g112_h63_t49 -1 x_r3_g63 <= 0 ;
1 p_r3_g112_h63_t49 -1 x_r3_g112 -1 x_r3_g63 >= -1 ;
1 p_r3_g133_h84_t49 -1 x_r3_g133 <= 0 ;
1 p_r3_g133_h84_t49 -1 x_r3_g84 <= 0 ;
1 p_r3_g133_h84_t49 -1 x_r3_g133 -1 x_r3_g84 >= -1 ;
1 p_r3_g146_h97_t49 -1 x_r3_g146 <= 0 ;
1 p_r3_g146_h97_t49 -1 x_r3_g97 <= 0 ;
1 p_r3_g146_h97_t49 -1 x_r3_g146 -1 x_r3_g97 >= -1 ;
1 p_r3_g159_h110_t49 -1 x_r3_g159 <= 0 ;
1 p_r3_g159_h110_t49 -1 x_r3_g110 <= 0 ;
1 p_r3_g159_h110_t49 -1 x_r3_g159 -1 x_r3_g110 >= -1 ;
1 p_r3_g160_h111_t49 -1 x_r3_g160 <= 0 ;
1 p_r3_g160_h111_t49 -1 x_r3_g111 <= 0 ;
1 p_r3_g160_h111_t49 -1 x_r3_g160 -1 x_r3_g111 >= -1 ;
1 d_49 -1 x_r0_g6 -2 x_r0_g13 -1 x_r0_g16 -1 x_r0_g25 -1 x_r0_g40 -1 x_r0_g47 -1 x_r0_g49 -2 x_r0_g54 -1 x_r0_g73 -1 x_r0_g74 -1 x_r0_g77 -1 x_r0_g88 -1 x_r0_g101 -1 x_r0_g110 -2 x_r0_g111 -1 x_r0_g112 -2 x_r0_g116 -1 x_r0_g117 -1 x_r0_g132 -2 x_r0_g152 -1 x_r0_g156 -1 x_r1_g0 -1 x_r1_g15 -1 x_r1_g16 -1 x_r1_g19 -2 x_r1_g20 -1 x_r1_g28 -1 x_r1_g31 -1 x_r1_g35 -1 x_r1_g36 -2 x_r1_g38 -2 x_r1_g41 -1 x_r1_g42 -1 x_r1_g46 -1 x_r1_g48 -1 x_r1_g58 -1 x_r1_g76 -1 x_r1_g78 -2 x_r1_g89 -1 x_r1_g91 -1 x_r1_g92 -2 x_r1_g114 -2 x_r1_g128 -1 x_r1_g130 -2 x_r1_g157 -1 x_r1_g164 -1 x_r2_g8 -1 x_r2_g10 -1 x_r2_g14 -1 x_r2_g29 -1 x_r2_g33 -2 x_r2_g34 -1 x_r2_g35 -1 x_r2_g41 -1 x_r2_g42 -1 x_r2_g47 -1 x_r2_g56 -2 x_r2_g80 -1 x_r2_g85 -1 x_r2_g111 -1 x_r2_g112 -2 x_r2_g114 -1 x_r2_g116 -1 x_r2_g118 -1 x_r2_g119 -1 x_r2_g127 -1 x_r2_g131 -1 x_r2_g132 -1 x_r2_g138 -2 x_r2_g139 -1 x_r2_g146 -1 x_r2_g151 -1 x_r2_g161 -2 x_r3_g0 -1 x_r3_g24 -2 x_r3_g31 -1 x_r3_g54 -1 x_r3_g58 -1 x_r3_g68 -1 x_r3_g74 -1 x_r3_g77 -1 x_r3_g78 -1 x_r3_g99 -1 x_r3_g111 -1 x_r3_g124 -1 x_r3_g125 -1 x_r3_g132 -1 x_r3_g136 -1 x_r3_g145 -1 x_r3_g146 -1 x_r3_g159 -1 x_r3_g165 -1 p_r0_g22_h140_t49 -1 p_r0_g44_h162_t49 -1 p_r0_g74_h25_t49 -1 p_r0_g95_h46_t49 -1 p_r0_g99_h50_t49 -1 p_r0_g139_h90_t49 -1 p_r0_g144_h95_t49 -1 p_r0_g162_h113_t49 -1 p_r1_g46_h164_t49 -1 p_r1_g77_h28_t49 -1 p_r1_g78_h29_t49 -1 p_r1_g82_h33_t49 -1 p_r1_g85_h36_t49 -1 p_r1_g91_h42_t49 -1 p_r1_g92_h43_t49 -1 p_r1_g126_h77_t49 -1 p_r1_g131_h82_t49 -1 p_r2_g7_h125_t49 -1 p_r2_g13_h131_t49 -1 p_r2_g14_h132_t49 -1 p_r2_g27_h145_t49 -1 p_r2_g33_h151_t49 -1 p_r2_g56_h7_t49 -1 p_r2_g161_h112_t49 -1 p_r3_g4_h122_t49 -1 p_r3_g6_h124_t49 -1 p_r3_g21_h139_t49 -1 p_r3_g53_h4_t49 -1 p_r3_g55_h6_t49 -1 p_r3_g61_h12_t49 -1 p_r3_g78_h29_t49 -1 p_r3_g110_h61_t49 -1 p_r3_g112_h63_t49 -1 p_r3_g133_h84_t49 -1 p_r3_g146_h97_t49 -1 p_r3_g159_h110_t49 -1 p_r3_g160_h111_t49 = -85 ;
1 d_49 -1 u_49 <= 0 ;
-1 d_49 -1 u_49 <= 0 ;
1 u_49 -1 M <= 0 ;
1 u_49 <= 3 ;
1 p_r0_g6_h113_t60 -1 x_r0_g6 <= 0 ;
1 p_r0_g6_h113_t60 -1 x_r0_g113 <= 0 ;
1 p_r0_g6_h113_t60 -1 x_r0_g6 -1 x_r0_g113 >= -1 ;
1 p_r0_g25_h132_t60 -1 x_r0_g25 <= 0 ;
1 p_r0_g25_h132_t60 -1 x_r0_g132 <= 0 ;
1 p_r0_g25_h132_t60 -1 x_r0_g25 -1 x_r0_g132 >= -1 ;
1 p_r0_g49_h156_t60 -1 x_r0_g49 <= 0 ;
1 p_r0_g49_h156_t60 -1 x_r0_g156 <= 0 ;
1 p_r0_g49_h156_t60 -1 x_r0_g49 -1 x_r0_g156 >= -1 ;
1 p_r0_g66_h6_t60 -1 x_r0_g66 <= 0 ;
1 p_r0_g66_h6_t60 -1 x_r0_g6 <= 0 ;
1 p_r0_g66_h6_t60 -1 x_r0_g66 -1 x_r0_g6 >= -1 ;
1 p_r0_g73_h13_t60 -1 x_r0_g73 <= 0 ;
1 p_r0_g73_h13_t60 -1 x_r0_g13 <= 0 ;
1 p_r0_g73_h13_t60 -1 x_r0_g73 -1 x_r0_g13 >= -1 ;
1 p_r0_g95_h35_t60 -1 x_r0_g95 <= 0 ;
1 p_r0_g95_h35_t60 -1 x_r0_g35 <= 0 ;
1 p_r0_g95_h35_t60 -1 x_r0_g95 -1 x_r0_g35 >= -1 ;
1 p_r0_g110_h50_t60 -1 x_r0_g110 <= 0 ;
1 p_r0_g110_h50_t60 -1 x_r0_g50 <= 0 ;
1 p_r0_g110_h50_t60 -1 x_r0_g110 -1 x_r0_g50 >= -1 ;
1 p_r1_g19_h126_t60 -1 x_r1_g19 <= 0 ;
1 p_r1_g19_h126_t60 -1 x_r1_g126 <= 0 ;
1 p_r1_g19_h126_t60 -1 x_r1_g19 -1 x_r1_g126 >= -1 ;
1 p_r1_g76_h16_t60 -1 x_r1_g76 <= 0 ;
1 p_r1_g76_h16_t60 -1 x_r1_g16 <= 0 ;
1 p_r1_g76_h16_t60 -1 x_r1_g76 -1 x_r1_g16 >= -1 ;
1 p_r1_g89_h29_t60 -1 x_r1_g89 <= 0 ;
1 p_r1_g89_h29_t60 -1 x_r1_g29 <= 0 ;
1 p_r1_g89_h29_t60 -1 x_r1_g89 -1 x_r1_g29 >= -1 ;
1 p_r1_g91_h31_t60 -1 x_r1_g91 <= 0 ;
1 p_r1_g91_h31_t60 -1 x_r1_g31 <= 0 ;
1 p_r1_g91_h31_t60 -1 x_r1_g91 -1 x_r1_g31 >= -1 ;
1 p_r1_g101_h41_t60 -1 x_r1_g101 <= 0 ;
1 p_r1_g101_h41_t60 -1 x_r1_g41 <= 0 ;
1 p_r1_g101_h41_t60 -1 x_r1_g101 -1 x_r1_g41 >= -1 ;
1 p_r1_g131_h71_t60 -1 x_r1_g131 <= 0 ;
1 p_r1_g131_h71_t60 -1 x_r1_g71 <= 0 ;
1 p_r1_g131_h71_t60 -1 x_r1_g131 -1 x_r1_g71 >= -1 ;
1 p_r2_g5_h112_t60 -1 x_r2_g5 <= 0 ;
1 p_r2_g5_h112_t60 -1 x_r2_g112 <= 0 ;
1 p_r2_g5_h112_t60 -1 x_r2_g5 -1 x_r2_g112 >= -1 ;
1 p_r2_g7_h114_t60 -1 x_r2_g7 <= 0 ;
1 p_r2_g7_h114_t60 -1 x_r2_g114 <= 0 ;
1 p_r2_g7_h114_t60 -1 x_r2_g7 -1 x_r2_g114 >= -1 ;
1 p_r2_g34_h141_t60 -1 x_r2_g34 <= 0 ;
1 p_r2_g34_h141_t60 -1 x_r2_g141 <= 0 ;
1 p_r2_g34_h141_t60 -1 x_r2_g34 -1 x_r2_g141 >= -1 ;
1 p_r2_g93_h33_t60 -1 x_r2_g93 <= 0 ;
1 p_r2_g93_h33_t60 -1 x_r2_g33 <= 0 ;
1 p_r2_g93_h33_t60 -1 x_r2_g93 -1 x_r2_g33 >= -1 ;
1 p_r2_g116_h56_t60 -1 x_r2_g116 <= 0 ;
1 p_r2_g116_h56_t60 -1 x_r2_g56 <= 0 ;
1 p_r2_g116_h56_t60 -1 x_r2_g116 -1 x_r2_g56 >= -1 ;
1 p_r2_g145_h85_t60 -1 x_r2_g145 <= 0 ;
1 p_r2_g145_h85_t60 -1 x_r2_g85 <= 0 ;
1 p_r2_g145_h85_t60 -1 x_r2_g145 -1 x_r2_g85 >= -1 ;
1 p_r3_g4_h111_t60 -1 x_r3_g4 <= 0 ;
1 p_r3_g4_h111_t60 -1 x_r3_g111 <= 0 ;
1 p_r3_g4_h111_t60 -1 x_r3_g4 -1 x_r3_g111 >= -1 ;
1 p_r3_g29_h136_t60 -1 x_r3_g29 <= 0 ;
1 p_r3_g29_h136_t60 -1 x_r3_g136 <= 0 ;
1 p_r3_g29_h136_t60 -1 x_r3_g29 -1 x_r3_g136 >= -1 ;
1 p_r3_g52_h159_t60 -1 x_r3_g52 <= 0 ;
1 p_r3_g52_h159_t60 -1 x_r3_g159 <= 0 ;
1 p_r3_g52_h159_t60 -1 x_r3_g52 -1 x_r3_g159 >= -1 ;
1 p_r3_g53_h160_t60 -1 x_r3_g53 <= 0 ;
1 p_r3_g53_h160_t60 -1 x_r3_g160 <= 0 ;
1 p_r3_g53_h160_t60 -1 x_r3_g53 -1 x_r3_g160 >= -1 ;
1 p_r3_g58_h165_t60 -1 x_r3_g58 <= 0 ;
1 p_r3_g58_h165_t60 -1 x_r3_g165 <= 0 ;
1 p_r3_g58_h165_t60 -1 x_r3_g58 -1 x_r3_g165 >= -1 ;
1 p_r3_g60_h0_t60 -1 x_r3_g60 <= 0 ;
1 p_r3_g60_h0_t60 -1 x_r3_g0 <= 0 ;
1 p_r3_g60_h0_t60 -1 x_r3_g60 -1 x_r3_g0 >= -1 ;
1 p_r3_g84_h24_t60 -1 x_r3_g84 <= 0 ;
1 p_r3_g84_h24_t60 -1 x_r3_g24 <= 0 ;
1 p_r3_g84_h24_t60 -1 x_r3_g84 -1 x_r3_g24 >= -1 ;
1 p_r3_g112_h52_t60 -1 x_r3_g112 <= 0 ;
1 p_r3_g112_h52_t60 -1 x_r3_g52 <= 0 ;
1 p_r3_g112_h52_t60 -1 x_r3_g112 -1 x_r3_g52 >= -1 ;
1 p_r3_g159_h99_t60 -1 x_r3_g159 <= 0 ;
1 p_r3_g159_h99_t60 -1 x_r3_g99 <= 0 ;
1 p_r3_g159_h99_t60 -1 x_r3_g159 -1 x_r3_g99 >= -1 ;
1 d_60 -1 x_r0_g13 -1 x_r0_g16 -1 x_r0_g35 -1 x_r0_g40 -1 x_r0_g44 -1 x_r0_g46 -1 x_r0_g50 -1 x_r0_g66 -1 x_r0_g74 -1 x_r0_g77 -1 x_r0_g90 -1 x_r0_g95 -1 x_r0_g99 -1 x_r0_g110 -1 x_r0_g111 -2 x_r0_g112 -2 x_r0_g118 -1 x_r0_g128 -1 x_r0_g144 -1 x_r0_g152 -2 x_r0_g162 -1 x_r1_g0 -1 x_r1_g16 -1 x_r1_g19 -2 x_r1_g20 -1 x_r1_g28 -1 x_r1_g31 -1 x_r1_g33 -1 x_r1_g35 -1 x_r1_g36 -1 x_r1_g38 -1 x_r1_g43 -2 x_r1_g48 -1 x_r1_g71 -2 x_r1_g78 -1 x_r1_g92 -2 x_r1_g99 -1 x_r1_g116 -1 x_r1_g126 -1 x_r1_g128 -1 x_r1_g130 -1 x_r1_g164 -1 x_r2_g5 -1 x_r2_g6 -2 x_r2_g8 -1 x_r2_g13 -2 x_r2_g14 -2 x_r2_g27 -1 x_r2_g29 -1 x_r2_g33 -1 x_r2_g34 -2 x_r2_g41 -1 x_r2_g42 -1 x_r2_g56 -2 x_r2_g80 -1 x_r2_g85 -1 x_r2_g93 -1 x_r2_g106 -1 x_r2_g111 -1 x_r2_g118 -2 x_r2_g125 -1 x_r2_g127 -1 x_r2_g132 -1 x_r2_g133 -2 x_r2_g138 -2 x_r2_g146 -1 x_r2_g161 -1 x_r3_g6 -1 x_r3_g12 -2 x_r3_g21 -1 x_r3_g23 -1 x_r3_g29 -1 x_r3_g31 -1 x_r3_g55 -1 x_r3_g58 -1 x_r3_g61 -1 x_r3_g63 -2 x_r3_g68 -1 x_r3_g74 -2 x_r3_g77 -2 x_r3_g78 -2 x_r3_g82 -1 x_r3_g84 -1 x_r3_g97 -1 x_r3_g99 -1 x_r3_g112 -1 x_r3_g122 -1 x_r3_g124 -2 x_r3_g125 -1 x_r3_g133 -1 x_r3_g136 -1 x_r3_g139 -1 x_r3_g145 -2 x_r3_g146 -1 p_r0_g6_h113_t60 -1 p_r0_g25_h132_t60 -1 p_r0_g49_h156_t60 -1 p_r0_g66_h6_t60 -1 p_r0_g73_h13_t60 -1 p_r0_g95_h35_t60 -1 p_r0_g110_h50_t60 -1 p_r1_g19_h126_t60 -1 p_r1_g76_h16_t60 -1 p_r1_g89_h29_t60 -1 p_r1_g91_h31_t60 -1 p_r1_g101_h41_t60 -1 p_r1_g131_h71_t60 -1 p_r2_g5_h112_t60 -1 p_r2_g7_h114_t60 -1 p_r2_g34_h141_t60 -1 p_r2_g93_h33_t60 -1 p_r2_g116_h56_t60 -1 p_r2_g145_h85_t60 -1 p_r3_g4_h111_t60 -1 p_r3_g29_h136_t60 -1 p_r3_g52_h159_t60 -1 p_r3_g53_h160_t60 -1 p_r3_g58_h165_t60 -1 p_r3_g60_h0_t60 -1 p_r3_g84_h24_t60 -1 p_r3_g112_h52_t60 -1 p_r3_g159_h99_t60 = -62 ;
1 d_60 -1 u_60 <= 0 ;
-1 d_60 -1 u_60 <= 0 ;
1 u_60 -1 M <= 0 ;
1 u_60 <= 0 ;
1 p_r0_g13_h116_t64 -1 x_r0_g13 <= 0 ;
1 p_r0_g13_h116_t64 -1 x_r0_g116 <= 0 ;
1 p_r0_g13_h116_t64 -1 x_r0_g13 -1 x_r0_g116 >= -1 ;
1 p_r0_g25_h128_t64 -1 x_r0_g25 <= 0 ;
1 p_r0_g25_h128_t64 -1 x_r0_g128 <= 0 ;
1 p_r0_g25_h128_t64 -1 x_r0_g25 -1 x_r0_g128 >= -1 ;
1 p_r0_g49_h152_t64 -1 x_r0_g49 <= 0 ;
1 p_r0_g49_h152_t64 -1 x_r0_g152 <= 0 ;
1 p_r0_g49_h152_t64 -1 x_r0_g49 -1 x_r0_g152 >= -1 ;
1 p_r0_g77_h13_t64 -1 x_r0_g77 <= 0 ;
1 p_r0_g77_h13_t64 -1 x_r0_g13 <= 0 ;
1 p_r0_g77_h13_t64 -1 x_r0_g77 -1 x_r0_g13 >= -1 ;
1 p_r0_g99_h35_t64 -1 x_r0_g99 <= 0 ;
1 p_r0_g99_h35_t64 -1 x_r0_g35 <= 0 ;
1 p_r0_g99_h35_t64 -1 x_r0_g99 -1 x_r0_g35 >= -1 ;
1 p_r0_g110_h46_t64 -1 x_r0_g110 <= 0 ;
1 p_r0_g110_h46_t64 -1 x_r0_g46 <= 0 ;
1 p_r0_g110_h46_t64 -1 x_r0_g110 -1 x_r0_g46 >= -1 ;
1 p_r0_g111_h47_t64 -1 x_r0_g111 <= 0 ;
1 p_r0_g111_h47_t64 -1 x_r0_g47 <= 0 ;
1 p_r0_g111_h47_t64 -1 x_r0_g111 -1 x_r0_g47 >= -1 ;
1 p_r0_g113_h49_t64 -1 x_r0_g113 <= 0 ;
1 p_r0_g113_h49_t64 -1 x_r0_g49 <= 0 ;
1 p_r0_g113_h49_t64 -1 x_r0_g113 -1 x_r0_g49 >= -1 ;
1 p_r0_g118_h54_t64 -1 x_r0_g118 <= 0 ;
1 p_r0_g118_h54_t64 -1 x_r0_g54 <= 0 ;
1 p_r0_g118_h54_t64 -1 x_r0_g118 -1 x_r0_g54 >= -1 ;
1 p_r0_g152_h88_t64 -1 x_r0_g152 <= 0 ;
1 p_r0_g152_h88_t64 -1 x_r0_g88 <= 0 ;
1 p_r0_g152_h88_t64 -1 x_r0_g152 -1 x_r0_g88 >= -1 ;
1 p_r1_g28_h131_t64 -1 x_r1_g28 <= 0 ;
1 p_r1_g28_h131_t64 -1 x_r1_g131 <= 0 ;
1 p_r1_g28_h131_t64 -1 x_r1_g28 -1 x_r1_g131 >= -1 ;
1 p_r1_g29_h132_t64 -1 x_r1_g29 <= 0 ;
1 p_r1_g29_h132_t64 -1 x_r1_g132 <= 0 ;
1 p_r1_g29_h132_t64 -1 x_r1_g29 -1 x_r1_g132 >= -1 ;
1 p_r1_g92_h28_t64 -1 x_r1_g92 <= 0 ;
1 p_r1_g92_h28_t64 -1 x_r1_g28 <= 0 ;
1 p_r1_g92_h28_t64 -1 x_r1_g92 -1 x_r1_g28 >= -1 ;
1 p_r1_g99_h35_t64 -1 x_r1_g99 <= 0 ;
1 p_r1_g99_h35_t64 -1 x_r1_g35 <= 0 ;
1 p_r1_g99_h35_t64 -1 x_r1_g99 -1 x_r1_g35 >= -1 ;
1 p_r2_g8_h111_t64 -1 x_r2_g8 <= 0 ;
1 p_r2_g8_h111_t64 -1 x_r2_g111 <= 0 ;
1 p_r2_g8_h111_t64 -1 x_r2_g8 -1 x_r2_g111 >= -1 ;
1 p_r2_g13_h116_t64 -1 x_r2_g13 <= 0 ;
1 p_r2_g13_h116_t64 -1 x_r2_g116 <= 0 ;
1 p_r2_g13_h116_t64 -1 x_r2_g13 -1 x_r2_g116 >= -1 ;
1 p_r2_g29_h132_t64 -1 x_r2_g29 <= 0 ;
1 p_r2_g29_h132_t64 -1 x_r2_g132 <= 0 ;
1 p_r2_g29_h132_t64 -1 x_r2_g29 -1 x_r2_g132 >= -1 ;
1 p_r2_g35_h138_t64 -1 x_r2_g35 <= 0 ;
1 p_r2_g35_h138_t64 -1 x_r2_g138 <= 0 ;
1 p_r2_g35_h138_t64 -1 x_r2_g35 -1 x_r2_g138 >= -1 ;
1 p_r2_g42_h145_t64 -1 x_r2_g42 <= 0 ;
1 p_r2_g42_h145_t64 -1 x_r2_g145 <= 0 ;
1 p_r2_g42_h145_t64 -1 x_r2_g42 -1 x_r2_g145 >= -1 ;
1 p_r2_g48_h151_t64 -1 x_r2_g48 <= 0 ;
1 p_r2_g48_h151_t64 -1 x_r2_g151 <= 0 ;
1 p_r2_g48_h151_t64 -1 x_r2_g48 -1 x_r2_g151 >= -1 ;
1 p_r2_g93_h29_t64 -1 x_r2_g93 <= 0 ;
1 p_r2_g93_h29_t64 -1 x_r2_g29 <= 0 ;
1 p_r2_g93_h29_t64 -1 x_r2_g93 -1 x_r2_g29 >= -1 ;
1 p_r2_g106_h42_t64 -1 x_r2_g106 <= 0 ;
1 p_r2_g106_h42_t64 -1 x_r2_g42 <= 0 ;
1 p_r2_g106_h42_t64 -1 x_r2_g106 -1 x_r2_g42 >= -1 ;
1 p_r2_g111_h47_t64 -1 x_r2_g111 <= 0 ;
1 p_r2_g111_h47_t64 -1 x_r2_g47 <= 0 ;
1 p_r2_g111_h47_t64 -1 x_r2_g111 -1 x_r2_g47 >= -1 ;
1 p_r2_g112_h48_t64 -1 x_r2_g112 <= 0 ;
1 p_r2_g112_h48_t64 -1 x_r2_g48 <= 0 ;
1 p_r2_g112_h48_t64 -1 x_r2_g112 -1 x_r2_g48 >= -1 ;
1 p_r3_g21_h124_t64 -1 x_r3_g21 <= 0 ;
1 p_r3_g21_h124_t64 -1 x_r3_g124 <= 0 ;
1 p_r3_g21_h124_t64 -1 x_r3_g21 -1 x_r3_g124 >= -1 ;
1 p_r3_g29_h132_t64 -1 x_r3_g29 <= 0 ;
1 p_r3_g29_h132_t64 -1 x_r3_g132 <= 0 ;
1 p_r3_g29_h132_t64 -1 x_r3_g29 -1 x_r3_g132 >= -1 ;
1 p_r3_g68_h4_t64 -1 x_r3_g68 <= 0 ;
1 p_r3_g68_h4_t64 -1 x_r3_g4 <= 0 ;
1 p_r3_g68_h4_t64 -1 x_r3_g68 -1 x_r3_g4 >= -1 ;
1 p_r3_g122_h58_t64 -1 x_r3_g122 <= 0 ;
1 p_r3_g122_h58_t64 -1 x_r3_g58 <= 0 ;
1 p_r3_g122_h58_t64 -1 x_r3_g122 -1 x_r3_g58 >= -1 ;
1 p_r3_g124_h60_t64 -1 x_r3_g124 <= 0 ;
1 p_r3_g124_h60_t64 -1 x_r3_g60 <= 0 ;
1 p_r3_g124_h60_t64 -1 x_r3_g124 -1 x_r3_g60 >= -1 ;
1 p_r3_g125_h61_t64 -1 x_r3_g125 <= 0 ;
1 p_r3_g125_h61_t64 -1 x_r3_g61 <= 0 ;
1 p_r3_g125_h61_t64 -1 x_r3_g125 -1 x_r3_g61 >= -1 ;
1 p_r3_g132_h68_t64 -1 x_r3_g132 <= 0 ;
1 p_r3_g132_h68_t64 -1 x_r3_g68 <= 0 ;
1 p_r3_g132_h68_t64 -1 x_r3_g132 -1 x_r3_g68 >= -1 ;
1 p_r3_g146_h82_t64 -1 x_r3_g146 <= 0 ;
1 p_r3_g146_h82_t64 -1 x_r3_g82 <= 0 ;
1 p_r3_g146_h82_t64 -1 x_r3_g146 -1 x_r3_g82 >= -1 ;
1 d_64 -1 x_r0_g6 -1 x_r0_g16 -1 x_r0_g22 -1 x_r0_g23 -1 x_r0_g40 -1 x_r0_g46 -1 x_r0_g54 -1 x_r0_g73 -1 x_r0_g95 -1 x_r0_g99 -2 x_r0_g101 -1 x_r0_g110 -1 x_r0_g112 -1 x_r0_g116 -1 x_r0_g117 -1 x_r0_g118 -1 x_r0_g132 -1 x_r0_g139 -1 x_r0_g140 -2 x_r0_g162 -2 x_r1_g0 -1 x_r1_g15 -2 x_r1_g16 -2 x_r1_g20 -1 x_r1_g31 -1 x_r1_g35 -1 x_r1_g36 -1 x_r1_g38 -2 x_r1_g43 -1 x_r1_g44 -1 x_r1_g48 -1 x_r1_g76 -1 x_r1_g77 -2 x_r1_g82 -2 x_r1_g91 -1 x_r1_g92 -1 x_r1_g99 -1 x_r1_g101 -1 x_r1_g114 -1 x_r1_g126 -1 x_r1_g128 -2 x_r1_g130 -1 x_r1_g132 -1 x_r1_g164 -1 x_r2_g7 -2 x_r2_g10 -1 x_r2_g14 -1 x_r2_g17 -1 x_r2_g27 -1 x_r2_g33 -2 x_r2_g34 -1 x_r2_g41 -1 x_r2_g47 -1 x_r2_g56 -1 x_r2_g85 -1 x_r2_g93 -1 x_r2_g125 -1 x_r2_g127 -1 x_r2_g131 -1 x_r2_g132 -1 x_r2_g133 -1 x_r2_g138 -1 x_r2_g139 -2 x_r2_g146 -1 x_r2_g151 -1 x_r2_g161 -1 x_r3_g12 -1 x_r3_g24 -1 x_r3_g31 -1 x_r3_g54 -1 x_r3_g55 -1 x_r3_g60 -2 x_r3_g63 -1 x_r3_g74 -1 x_r3_g77 -1 x_r3_g78 -1 x_r3_g82 -2 x_r3_g84 -1 x_r3_g99 -1 x_r3_g110 -2 x_r3_g111 -1 x_r3_g112 -1 x_r3_g122 -1 x_r3_g125 -1 x_r3_g133 -2 x_r3_g139 -1 x_r3_g145 -1 x_r3_g146 -1 x_r3_g165 -1 p_r0_g13_h116_t64 -1 p_r0_g25_h128_t64 -1 p_r0_g49_h152_t64 -1 p_r0_g77_h13_t64 -1 p_r0_g99_h35_t64 -1 p_r0_g110_h46_t64 -1 p_r0_g111_h47_t64 -1 p_r0_g113_h49_t64 -1 p_r0_g118_h54_t64 -1 p_r0_g152_h88_t64 -1 p_r1_g28_h131_t64 -1 p_r1_g29_h132_t64 -1 p_r1_g92_h28_t64 -1 p_r1_g99_h35_t64 -1 p_r2_g8_h111_t64 -1 p_r2_g13_h116_t64 -1 p_r2_g29_h132_t64 -1 p_r2_g35_h138_t64 -1 p_r2_g42_h145_t64 -1 p_r2_g48_h151_t64 -1 p_r2_g93_h29_t64 -1 p_r2_g106_h42_t64 -1 p_r2_g111_h47_t64 -1 p_r2_g112_h48_t64 -1 p_r3_g21_h124_t64 -1 p_r3_g29_h132_t64 -1 p_r3_g68_h4_t64 -1 p_r3_g122_h58_t64 -1 p_r3_g124_h60_t64 -1 p_r3_g125_h61_t64 -1 p_r3_g132_h68_t64 -1 p_r3_g146_h82_t64 = -69 ;
1 d_64 -1 u_64 <= 0 ;
-1 d_64 -1 u_64 <= 0 ;
1 u_64 -1 M <= 0 ;
1 u_64 <= 1 ;
1 p_r0_g16_h117_t66 -1 x_r0_g16 <= 0 ;
1 p_r0_g16_h117_t66 -1 x_r0_g117 <= 0 ;
1 p_r0_g16_h117_t66 -1 x_r0_g16 -1 x_r0_g117 >= -1 ;
1 p_r0_g35_h136_t66 -1 x_r0_g35 <= 0 ;
1 p_r0_g35_h136_t66 -1 x_r0_g136 <= 0 ;
1 p_r0_g35_h136_t66 -1 x_r0_g35 -1 x_r0_g136 >= -1 ;
1 p_r0_g88_h22_t66 -1 x_r0_g88 <= 0 ;
1 p_r0_g88_h22_t66 -1 x_r0_g22 <= 0 ;
1 p_r0_g88_h22_t66 -1 x_r0_g88 -1 x_r0_g22 >= -1 ;
1 p_r0_g101_h35_t66 -1 x_r0_g101 <= 0 ;
1 p_r0_g101_h35_t66 -1 x_r0_g35 <= 0 ;
1 p_r0_g101_h35_t66 -1 x_r0_g101 -1 x_r0_g35 >= -1 ;
1 p_r0_g110_h44_t66 -1 x_r0_g110 <= 0 ;
1 p_r0_g110_h44_t66 -1 x_r0_g44 <= 0 ;
1 p_r0_g110_h44_t66 -1 x_r0_g110 -1 x_r0_g44 >= -1 ;
1 p_r0_g112_h46_t66 -1 x_r0_g112 <= 0 ;
1 p_r0_g112_h46_t66 -1 x_r0_g46 <= 0 ;
1 p_r0_g112_h46_t66 -1 x_r0_g112 -1 x_r0_g46 >= -1 ;
1 p_r0_g113_h47_t66 -1 x_r0_g113 <= 0 ;
1 p_r0_g113_h47_t66 -1 x_r0_g47 <= 0 ;
1 p_r0_g113_h47_t66 -1 x_r0_g113 -1 x_r0_g47 >= -1 ;
1 p_r0_g116_h50_t66 -1 x_r0_g116 <= 0 ;
1 p_r0_g116_h50_t66 -1 x_r0_g50 <= 0 ;
1 p_r0_g116_h50_t66 -1 x_r0_g116 -1 x_r0_g50 >= -1 ;
1 p_r0_g132_h66_t66 -1 x_r0_g132 <= 0 ;
1 p_r0_g132_h66_t66 -1 x_r0_g66 <= 0 ;
1 p_r0_g132_h66_t66 -1 x_r0_g132 -1 x_r0_g66 >= -1 ;
1 p_r0_g139_h73_t66 -1 x_r0_g139 <= 0 ;
1 p_r0_g139_h73_t66 -1 x_r0_g73 <= 0 ;
1 p_r0_g139_h73_t66 -1 x_r0_g139 -1 x_r0_g73 >= -1 ;
1 p_r0_g140_h74_t66 -1 x_r0_g140 <= 0 ;
1 p_r0_g140_h74_t66 -1 x_r0_g74 <= 0 ;
1 p_r0_g140_h74_t66 -1 x_r0_g140 -1 x_r0_g74 >= -1 ;
1 p_r0_g156_h90_t66 -1 x_r0_g156 <= 0 ;
1 p_r0_g156_h90_t66 -1 x_r0_g90 <= 0 ;
1 p_r0_g156_h90_t66 -1 x_r0_g156 -1 x_r0_g90 >= -1 ;
1 p_r1_g0_h101_t66 -1 x_r1_g0 <= 0 ;
1 p_r1_g0_h101_t66 -1 x_r1_g101 <= 0 ;
1 p_r1_g0_h101_t66 -1 x_r1_g0 -1 x_r1_g101 >= -1 ;
1 p_r1_g15_h116_t66 -1 x_r1_g15 <= 0 ;
1 p_r1_g15_h116_t66 -1 x_r1_g116 <= 0 ;
1 p_r1_g15_h116_t66 -1 x_r1_g15 -1 x_r1_g116 >= -1 ;
1 p_r1_g29_h130_t66 -1 x_r1_g29 <= 0 ;
1 p_r1_g29_h130_t66 -1 x_r1_g130 <= 0 ;
1 p_r1_g29_h130_t66 -1 x_r1_g29 -1 x_r1_g130 >= -1 ;
1 p_r1_g31_h132_t66 -1 x_r1_g31 <= 0 ;
1 p_r1_g31_h132_t66 -1 x_r1_g132 <= 0 ;
1 p_r1_g31_h132_t66 -1 x_r1_g31 -1 x_r1_g132 >= -1 ;
1 p_r1_g82_h16_t66 -1 x_r1_g82 <= 0 ;
1 p_r1_g82_h16_t66 -1 x_r1_g16 <= 0 ;
1 p_r1_g82_h16_t66 -1 x_r1_g82 -1 x_r1_g16 >= -1 ;
1 p_r1_g85_h19_t66 -1 x_r1_g85 <= 0 ;
1 p_r1_g85_h19_t66 -1 x_r1_g19 <= 0 ;
1 p_r1_g85_h19_t66 -1 x_r1_g85 -1 x_r1_g19 >= -1 ;
1 p_r1_g99_h33_t66 -1 x_r1_g99 <= 0 ;
1 p_r1_g99_h33_t66 -1 x_r1_g33 <= 0 ;
1 p_r1_g99_h33_t66 -1 x_r1_g99 -1 x_r1_g33 >= -1 ;
1 p_r1_g101_h35_t66 -1 x_r1_g101 <= 0 ;
1 p_r1_g101_h35_t66 -1 x_r1_g35 <= 0 ;
1 p_r1_g101_h35_t66 -1 x_r1_g101 -1 x_r1_g35 >= -1 ;
1 p_r1_g114_h48_t66 -1 x_r1_g114 <= 0 ;
1 p_r1_g114_h48_t66 -1 x_r1_g48 <= 0 ;
1 p_r1_g114_h48_t66 -1 x_r1_g114 -1 x_r1_g48 >= -1 ;
1 p_r1_g157_h91_t66 -1 x_r1_g157 <= 0 ;
1 p_r1_g157_h91_t66 -1 x_r1_g91 <= 0 ;
1 p_r1_g157_h91_t66 -1 x_r1_g157 -1 x_r1_g91 >= -1 ;
1 p_r2_g5_h106_t66 -1 x_r2_g5 <= 0 ;
1 p_r2_g5_h106_t66 -1 x_r2_g106 <= 0 ;
1 p_r2_g5_h106_t66 -1 x_r2_g5 -1 x_r2_g106 >= -1 ;
1 p_r2_g10_h111_t66 -1 x_r2_g10 <= 0 ;
1 p_r2_g10_h111_t66 -1 x_r2_g111 <= 0 ;
1 p_r2_g10_h111_t66 -1 x_r2_g10 -1 x_r2_g111 >= -1 ;
1 p_r2_g13_h114_t66 -1 x_r2_g13 <= 0 ;
1 p_r2_g13_h114_t66 -1 x_r2_g114 <= 0 ;
1 p_r2_g13_h114_t66 -1 x_r2_g13 -1 x_r2_g114 >= -1 ;
1 p_r2_g17_h118_t66 -1 x_r2_g17 <= 0 ;
1 p_r2_g17_h118_t66 -1 x_r2_g118 <= 0 ;
1 p_r2_g17_h118_t66 -1 x_r2_g17 -1 x_r2_g118 >= -1 ;
1 p_r2_g80_h14_t66 -1 x_r2_g80 <= 0 ;
1 p_r2_g80_h14_t66 -1 x_r2_g14 <= 0 ;
1 p_r2_g80_h14_t66 -1 x_r2_g80 -1 x_r2_g14 >= -1 ;
1 p_r2_g93_h27_t66 -1 x_r2_g93 <= 0 ;
1 p_r2_g93_h27_t66 -1 x_r2_g27 <= 0 ;
1 p_r2_g93_h27_t66 -1 x_r2_g93 -1 x_r2_g27 >= -1 ;
1 p_r2_g114_h48_t66 -1 x_r2_g114 <= 0 ;
1 p_r2_g114_h48_t66 -1 x_r2_g48 <= 0 ;
1 p_r2_g114_h48_t66 -1 x_r2_g114 -1 x_r2_g48 >= -1 ;
1 p_r2_g146_h80_t66 -1 x_r2_g146 <= 0 ;
1 p_r2_g146_h80_t66 -1 x_r2_g80 <= 0 ;
1 p_r2_g146_h80_t66 -1 x_r2_g146 -1 x_r2_g80 >= -1 ;
1 p_r2_g151_h85_t66 -1 x_r2_g151 <= 0 ;
1 p_r2_g151_h85_t66 -1 x_r2_g85 <= 0 ;
1 p_r2_g151_h85_t66 -1 x_r2_g151 -1 x_r2_g85 >= -1 ;
1 p_r3_g21_h122_t66 -1 x_r3_g21 <= 0 ;
1 p_r3_g21_h122_t66 -1 x_r3_g122 <= 0 ;
1 p_r3_g21_h122_t66 -1 x_r3_g21 -1 x_r3_g122 >= -1 ;
1 p_r3_g23_h124_t66 -1 x_r3_g23 <= 0 ;
1 p_r3_g23_h124_t66 -1 x_r3_g124 <= 0 ;
1 p_r3_g23_h124_t66 -1 x_r3_g23 -1 x_r3_g124 >= -1 ;
1 p_r3_g24_h125_t66 -1 x_r3_g24 <= 0 ;
1 p_r3_g24_h125_t66 -1 x_r3_g125 <= 0 ;
1 p_r3_g24_h125_t66 -1 x_r3_g24 -1 x_r3_g125 >= -1 ;
1 p_r3_g31_h132_t66 -1 x_r3_g31 <= 0 ;
1 p_r3_g31_h132_t66 -1 x_r3_g132 <= 0 ;
1 p_r3_g31_h132_t66 -1 x_r3_g31 -1 x_r3_g132 >= -1 ;
1 p_r3_g58_h159_t66 -1 x_r3_g58 <= 0 ;
1 p_r3_g58_h159_t66 -1 x_r3_g159 <= 0 ;
1 p_r3_g58_h159_t66 -1 x_r3_g58 -1 x_r3_g159 >= -1 ;
1 p_r3_g78_h12_t66 -1 x_r3_g78 <= 0 ;
1 p_r3_g78_h12_t66 -1 x_r3_g12 <= 0 ;
1 p_r3_g78_h12_t66 -1 x_r3_g78 -1 x_r3_g12 >= -1 ;
1 p_r3_g97_h31_t66 -1 x_r3_g97 <= 0 ;
1 p_r3_g97_h31_t66 -1 x_r3_g31 <= 0 ;
1 p_r3_g97_h31_t66 -1 x_r3_g97 -1 x_r3_g31 >= -1 ;
1 p_r3_g124_h58_t66 -1 x_r3_g124 <= 0 ;
1 p_r3_g124_h58_t66 -1 x_r3_g58 <= 0 ;
1 p_r3_g124_h58_t66 -1 x_r3_g124 -1 x_r3_g58 >= -1 ;
1 p_r3_g165_h99_t66 -1 x_r3_g165 <= 0 ;
1 p_r3_g165_h99_t66 -1 x_r3_g99 <= 0 ;
1 p_r3_g165_h99_t66 -1 x_r3_g165 -1 x_r3_g99 >= -1 ;
1 d_66 -1 x_r0_g22 -1 x_r0_g25 -1 x_r0_g40 -1 x_r0_g50 -2 x_r0_g54 -1 x_r0_g73 -2 x_r0_g77 -1 x_r0_g99 -1 x_r0_g111 -1 x_r0_g112 -1 x_r0_g113 -1 x_r0_g116 -1 x_r0_g117 -1 x_r0_g118 -1 x_r0_g128 -1 x_r0_g135 -1 x_r0_g136 -1 x_r0_g139 -1 x_r0_g144 -1 x_r0_g152 -1 x_r0_g156 -1 x_r1_g0 -1 x_r1_g15 -1 x_r1_g29 -1 x_r1_g41 -1 x_r1_g42 -1 x_r1_g43 -1 x_r1_g46 -2 x_r1_g58 -1 x_r1_g76 -1 x_r1_g77 -1 x_r1_g89 -1 x_r1_g92 -2 x_r1_g128 -1 x_r1_g130 -1 x_r1_g131 -1 x_r1_g132 -1 x_r1_g157 -1 x_r1_g164 -1 x_r2_g8 -1 x_r2_g14 -1 x_r2_g17 -1 x_r2_g27 -1 x_r2_g29 -1 x_r2_g33 -2 x_r2_g35 -2 x_r2_g47 -2 x_r2_g56 -1 x_r2_g112 -1 x_r2_g119 -2 x_r2_g127 -2 x_r2_g131 -1 x_r2_g132 -1 x_r2_g141 -1 x_r2_g161 -1 x_r3_g0 -1 x_r3_g23 -1 x_r3_g52 -2 x_r3_g53 -2 x_r3_g61 -1 x_r3_g63 -2 x_r3_g68 -2 x_r3_g74 -1 x_r3_g77 -1 x_r3_g78 -1 x_r3_g82 -1 x_r3_g84 -1 x_r3_g97 -1 x_r3_g110 -1 x_r3_g111 -1 x_r3_g112 -1 x_r3_g125 -1 x_r3_g132 -1 x_r3_g133 -1 x_r3_g139 -2 x_r3_g146 -2 x_r3_g160 -1 p_r0_g16_h117_t66 -1 p_r0_g35_h136_t66 -1 p_r0_g88_h22_t66 -1 p_r0_g101_h35_t66 -1 p_r0_g110_h44_t66 -1 p_r0_g112_h46_t66 -1 p_r0_g113_h47_t66 -1 p_r0_g116_h50_t66 -1 p_r0_g132_h66_t66 -1 p_r0_g139_h73_t66 -1 p_r0_g140_h74_t66 -1 p_r0_g156_h90_t66 -1 p_r1_g0_h101_t66 -1 p_r1_g15_h116_t66 -1 p_r1_g29_h130_t66 -1 p_r1_g31_h132_t66 -1 p_r1_g82_h16_t66 -1 p_r1_g85_h19_t66 -1 p_r1_g99_h33_t66 -1 p_r1_g101_h35_t66 -1 p_r1_g114_h48_t66 -1 p_r1_g157_h91_t66 -1 p_r2_g5_h106_t66 -1 p_r2_g10_h111_t66 -1 p_r2_g13_h114_t66 -1 p_r2_g17_h118_t66 -1 p_r2_g80_h14_t66 -1 p_r2_g93_h27_t66 -1 p_r2_g114_h48_t66 -1 p_r2_g146_h80_t66 -1 p_r2_g151_h85_t66 -1 p_r3_g21_h122_t66 -1 p_r3_g23_h124_t66 -1 p_r3_g24_h125_t66 -1 p_r3_g31_h132_t66 -1 p_r3_g58_h159_t66 -1 p_r3_g78_h12_t66 -1 p_r3_g97_h31_t66 -1 p_r3_g124_h58_t66 -1 p_r3_g165_h99_t66 = -61 ;
1 d_66 -1 u_66 <= 0 ;
-1 d_66 -1 u_66 <= 0 ;
1 u_66 -1 M <= 0 ;
1 u_66 <= 1 ;
1 p_r0_g13_h113_t67 -1 x_r0_g13 <= 0 ;
1 p_r0_g13_h113_t67 -1 x_r0_g113 <= 0 ;
1 p_r0_g13_h113_t67 -1 x_r0_g13 -1 x_r0_g113 >= -1 ;
1 p_r0_g16_h116_t67 -1 x_r0_g16 <= 0 ;
1 p_r0_g16_h116_t67 -1 x_r0_g116 <= 0 ;
1 p_r0_g16_h116_t67 -1 x_r0_g16 -1 x_r0_g116 >= -1 ;
1 p_r0_g35_h135_t67 -1 x_r0_g35 <= 0 ;
1 p_r0_g35_h135_t67 -1 x_r0_g135 <= 0 ;
1 p_r0_g35_h135_t67 -1 x_r0_g35 -1 x_r0_g135 >= -1 ;
1 p_r0_g40_h140_t67 -1 x_r0_g40 <= 0 ;
1 p_r0_g40_h140_t67 -1 x_r0_g140 <= 0 ;
1 p_r0_g40_h140_t67 -1 x_r0_g40 -1 x_r0_g140 >= -1 ;
1 p_r0_g44_h144_t67 -1 x_r0_g44 <= 0 ;
1 p_r0_g44_h144_t67 -1 x_r0_g144 <= 0 ;
1 p_r0_g44_h144_t67 -1 x_r0_g44 -1 x_r0_g144 >= -1 ;
1 p_r0_g73_h6_t67 -1 x_r0_g73 <= 0 ;
1 p_r0_g73_h6_t67 -1 x_r0_g6 <= 0 ;
1 p_r0_g73_h6_t67 -1 x_r0_g73 -1 x_r0_g6 >= -1 ;
1 p_r0_g90_h23_t67 -1 x_r0_g90 <= 0 ;
1 p_r0_g90_h23_t67 -1 x_r0_g23 <= 0 ;
1 p_r0_g90_h23_t67 -1 x_r0_g90 -1 x_r0_g23 >= -1 ;
1 p_r0_g111_h44_t67 -1 x_r0_g111 <= 0 ;
1 p_r0_g111_h44_t67 -1 x_r0_g44 <= 0 ;
1 p_r0_g111_h44_t67 -1 x_r0_g111 -1 x_r0_g44 >= -1 ;
1 p_r0_g113_h46_t67 -1 x_r0_g113 <= 0 ;
1 p_r0_g113_h46_t67 -1 x_r0_g46 <= 0 ;
1 p_r0_g113_h46_t67 -1 x_r0_g113 -1 x_r0_g46 >= -1 ;
1 p_r0_g116_h49_t67 -1 x_r0_g116 <= 0 ;
1 p_r0_g116_h49_t67 -1 x_r0_g49 <= 0 ;
1 p_r0_g116_h49_t67 -1 x_r0_g116 -1 x_r0_g49 >= -1 ;
1 p_r0_g117_h50_t67 -1 x_r0_g117 <= 0 ;
1 p_r0_g117_h50_t67 -1 x_r0_g50 <= 0 ;
1 p_r0_g117_h50_t67 -1 x_r0_g117 -1 x_r0_g50 >= -1 ;
1 p_r0_g140_h73_t67 -1 x_r0_g140 <= 0 ;
1 p_r0_g140_h73_t67 -1 x_r0_g73 <= 0 ;
1 p_r0_g140_h73_t67 -1 x_r0_g140 -1 x_r0_g73 >= -1 ;
1 p_r0_g144_h77_t67 -1 x_r0_g144 <= 0 ;
1 p_r0_g144_h77_t67 -1 x_r0_g77 <= 0 ;
1 p_r0_g144_h77_t67 -1 x_r0_g144 -1 x_r0_g77 >= -1 ;
1 p_r0_g162_h95_t67 -1 x_r0_g162 <= 0 ;
1 p_r0_g162_h95_t67 -1 x_r0_g95 <= 0 ;
1 p_r0_g162_h95_t67 -1 x_r0_g162 -1 x_r0_g95 >= -1 ;
1 p_r1_g16_h116_t67 -1 x_r1_g16 <= 0 ;
1 p_r1_g16_h116_t67 -1 x_r1_g116 <= 0 ;
1 p_r1_g16_h116_t67 -1 x_r1_g16 -1 x_r1_g116 >= -1 ;
1 p_r1_g28_h128_t67 -1 x_r1_g28 <= 0 ;
1 p_r1_g28_h128_t67 -1 x_r1_g128 <= 0 ;
1 p_r1_g28_h128_t67 -1 x_r1_g28 -1 x_r1_g128 >= -1 ;
1 p_r1_g31_h131_t67 -1 x_r1_g31 <= 0 ;
1 p_r1_g31_h131_t67 -1 x_r1_g131 <= 0 ;
1 p_r1_g31_h131_t67 -1 x_r1_g31 -1 x_r1_g131 >= -1 ;
1 p_r1_g82_h15_t67 -1 x_r1_g82 <= 0 ;
1 p_r1_g82_h15_t67 -1 x_r1_g15 <= 0 ;
1 p_r1_g82_h15_t67 -1 x_r1_g82 -1 x_r1_g15 >= -1 ;
1 p_r2_g6_h106_t67 -1 x_r2_g6 <= 0 ;
1 p_r2_g6_h106_t67 -1 x_r2_g106 <= 0 ;
1 p_r2_g6_h106_t67 -1 x_r2_g6 -1 x_r2_g106 >= -1 ;
1 p_r2_g14_h114_t67 -1 x_r2_g14 <= 0 ;
1 p_r2_g14_h114_t67 -1 x_r2_g114 <= 0 ;
1 p_r2_g14_h114_t67 -1 x_r2_g14 -1 x_r2_g114 >= -1 ;
1 p_r2_g27_h127_t67 -1 x_r2_g27 <= 0 ;
1 p_r2_g27_h127_t67 -1 x_r2_g127 <= 0 ;
1 p_r2_g27_h127_t67 -1 x_r2_g27 -1 x_r2_g127 >= -1 ;
1 p_r2_g33_h133_t67 -1 x_r2_g33 <= 0 ;
1 p_r2_g33_h133_t67 -1 x_r2_g133 <= 0 ;
1 p_r2_g33_h133_t67 -1 x_r2_g33 -1 x_r2_g133 >= -1 ;
1 p_r2_g41_h141_t67 -1 x_r2_g41 <= 0 ;
1 p_r2_g41_h141_t67 -1 x_r2_g141 <= 0 ;
1 p_r2_g41_h141_t67 -1 x_r2_g41 -1 x_r2_g141 >= -1 ;
1 p_r2_g80_h13_t67 -1 x_r2_g80 <= 0 ;
1 p_r2_g80_h13_t67 -1 x_r2_g13 <= 0 ;
1 p_r2_g80_h13_t67 -1 x_r2_g80 -1 x_r2_g13 >= -1 ;
1 p_r2_g114_h47_t67 -1 x_r2_g114 <= 0 ;
1 p_r2_g114_h47_t67 -1 x_r2_g47 <= 0 ;
1 p_r2_g114_h47_t67 -1 x_r2_g114 -1 x_r2_g47 >= -1 ;
1 p_r3_g12_h112_t67 -1 x_r3_g12 <= 0 ;
1 p_r3_g12_h112_t67 -1 x_r3_g112 <= 0 ;
1 p_r3_g12_h112_t67 -1 x_r3_g12 -1 x_r3_g112 >= -1 ;
1 p_r3_g24_h124_t67 -1 x_r3_g24 <= 0 ;
1 p_r3_g24_h124_t67 -1 x_r3_g124 <= 0 ;
1 p_r3_g24_h124_t67 -1 x_r3_g24 -1 x_r3_g124 >= -1 ;
1 p_r3_g60_h160_t67 -1 x_r3_g60 <= 0 ;
1 p_r3_g60_h160_t67 -1 x_r3_g160 <= 0 ;
1 p_r3_g60_h160_t67 -1 x_r3_g60 -1 x_r3_g160 >= -1 ;
1 p_r3_g122_h55_t67 -1 x_r3_g122 <= 0 ;
1 p_r3_g122_h55_t67 -1 x_r3_g55 <= 0 ;
1 p_r3_g122_h55_t67 -1 x_r3_g122 -1 x_r3_g55 >= -1 ;
1 p_r3_g125_h58_t67 -1 x_r3_g125 <= 0 ;
1 p_r3_g125_h58_t67 -1 x_r3_g58 <= 0 ;
1 p_r3_g125_h58_t67 -1 x_r3_g125 -1 x_r3_g58 >= -1 ;
1 p_r3_g145_h78_t67 -1 x_r3_g145 <= 0 ;
1 p_r3_g145_h78_t67 -1 x_r3_g78 <= 0 ;
1 p_r3_g145_h78_t67 -1 x_r3_g145 -1 x_r3_g78 >= -1 ;
1 d_67 -1 x_r0_g6 -1 x_r0_g22 -1 x_r0_g23 -1 x_r0_g25 -1 x_r0_g35 -1 x_r0_g46 -1 x_r0_g49 -1 x_r0_g74 -1 x_r0_g88 -1 x_r0_g90 -1 x_r0_g101 -1 x_r0_g110 -1 x_r0_g111 -2 x_r0_g112 -1 x_r0_g118 -1 x_r0_g132 -1 x_r0_g135 -1 x_r0_g136 -1 x_r0_g152 -1 x_r0_g162 -1 x_r1_g0 -1 x_r1_g15 -1 x_r1_g19 -1 x_r1_g20 -1 x_r1_g28 -1 x_r1_g29 -1 x_r1_g31 -1 x_r1_g33 -1 x_r1_g36 -1 x_r1_g38 -2 x_r1_g41 -1 x_r1_g42 -2 x_r1_g46 -1 x_r1_g48 -1 x_r1_g71 -1 x_r1_g73 -1 x_r1_g77 -1 x_r1_g78 -1 x_r1_g85 -1 x_r1_g89 -1 x_r1_g92 -2 x_r1_g99 -1 x_r1_g101 -1 x_r1_g116 -1 x_r1_g126 -1 x_r1_g131 -2 x_r1_g132 -2 x_r1_g157 -1 x_r1_g164 -1 x_r2_g5 -1 x_r2_g7 -1 x_r2_g8 -1 x_r2_g10 -1 x_r2_g13 -1 x_r2_g27 -1 x_r2_g29 -2 x_r2_g34 -1 x_r2_g35 -2 x_r2_g48 -2 x_r2_g85 -2 x_r2_g93 -1 x_r2_g106 -1 x_r2_g116 -1 x_r2_g118 -2 x_r2_g125 -1 x_r2_g127 -2 x_r2_g131 -1 x_r2_g132 -1 x_r2_g139 -1 x_r2_g141 -1 x_r2_g145 -1 x_r2_g146 -2 x_r2_g161 -1 x_r3_g6 -1 x_r3_g23 -1 x_r3_g29 -1 x_r3_g31 -1 x_r3_g52 -1 x_r3_g54 -1 x_r3_g60 -1 x_r3_g61 -1 x_r3_g63 -1 x_r3_g68 -1 x_r3_g77 -1 x_r3_g82 -2 x_r3_g84 -1 x_r3_g97 -2 x_r3_g99 -1 x_r3_g110 -1 x_r3_g112 -1 x_r3_g122 -2 x_r3_g132 -1 x_r3_g133 -1 x_r3_g136 -1 x_r3_g139 -1 x_r3_g145 -1 x_r3_g146 -1 x_r3_g159 -2 x_r3_g165 -1 p_r0_g13_h113_t67 -1 p_r0_g16_h116_t67 -1 p_r0_g35_h135_t67 -1 p_r0_g40_h140_t67 -1 p_r0_g44_h144_t67 -1 p_r0_g73_h6_t67 -1 p_r0_g90_h23_t67 -1 p_r0_g111_h44_t67 -1 p_r0_g113_h46_t67 -1 p_r0_g116_h49_t67 -1 p_r0_g117_h50_t67 -1 p_r0_g140_h73_t67 -1 p_r0_g144_h77_t67 -1 p_r0_g162_h95_t67 -1 p_r1_g16_h116_t67 -1 p_r1_g28_h128_t67 -1 p_r1_g31_h131_t67 -1 p_r1_g82_h15_t67 -1 p_r2_g6_h106_t67 -1 p_r2_g14_h114_t67 -1 p_r2_g27_h127_t67 -1 p_r2_g33_h133_t67 -1 p_r2_g41_h141_t67 -1 p_r2_g80_h13_t67 -1 p_r2_g114_h47_t67 -1 p_r3_g12_h112_t67 -1 p_r3_g24_h124_t67 -1 p_r3_g60_h160_t67 -1 p_r3_g122_h55_t67 -1 p_r3_g125_h58_t67 -1 p_r3_g145_h78_t67 = -64 ;
1 d_67 -1 u_67 <= 0 ;
-1 d_67 -1 u_67 <= 0 ;
1 u_67 -1 M <= 0 ;
1 u_67 <= 0 ;
1 p_r0_g13_h112_t68 -1 x_r0_g13 <= 0 ;
1 p_r0_g13_h112_t68 -1 x_r0_g112 <= 0 ;
1 p_r0_g13_h112_t68 -1 x_r0_g13 -1 x_r0_g112 >= -1 ;
1 p_r0_g40_h139_t68 -1 x_r0_g40 <= 0 ;
1 p_r0_g40_h139_t68 -1 x_r0_g139 <= 0 ;
1 p_r0_g40_h139_t68 -1 x_r0_g40 -1 x_r0_g139 >= -1 ;
1 p_r0_g74_h6_t68 -1 x_r0_g74 <= 0 ;
1 p_r0_g74_h6_t68 -1 x_r0_g6 <= 0 ;
1 p_r0_g74_h6_t68 -1 x_r0_g74 -1 x_r0_g6 >= -1 ;
1 p_r0_g90_h22_t68 -1 x_r0_g90 <= 0 ;
1 p_r0_g90_h22_t68 -1 x_r0_g22 <= 0 ;
1 p_r0_g90_h22_t68 -1 x_r0_g90 -1 x_r0_g22 >= -1 ;
1 p_r0_g112_h44_t68 -1 x_r0_g112 <= 0 ;
1 p_r0_g112_h44_t68 -1 x_r0_g44 <= 0 ;
1 p_r0_g112_h44_t68 -1 x_r0_g112 -1 x_r0_g44 >= -1 ;
1 p_r0_g117_h49_t68 -1 x_r0_g117 <= 0 ;
1 p_r0_g117_h49_t68 -1 x_r0_g49 <= 0 ;
1 p_r0_g117_h49_t68 -1 x_r0_g117 -1 x_r0_g49 >= -1 ;
1 p_r0_g118_h50_t68 -1 x_r0_g118 <= 0 ;
1 p_r0_g118_h50_t68 -1 x_r0_g50 <= 0 ;
1 p_r0_g118_h50_t68 -1 x_r0_g118 -1 x_r0_g50 >= -1 ;
1 p_r0_g156_h88_t68 -1 x_r0_g156 <= 0 ;
1 p_r0_g156_h88_t68 -1 x_r0_g88 <= 0 ;
1 p_r0_g156_h88_t68 -1 x_r0_g156 -1 x_r0_g88 >= -1 ;
1 p_r1_g0_h99_t68 -1 x_r1_g0 <= 0 ;
1 p_r1_g0_h99_t68 -1 x_r1_g99 <= 0 ;
1 p_r1_g0_h99_t68 -1 x_r1_g0 -1 x_r1_g99 >= -1 ;
1 p_r1_g15_h114_t68 -1 x_r1_g15 <= 0 ;
1 p_r1_g15_h114_t68 -1 x_r1_g114 <= 0 ;
1 p_r1_g15_h114_t68 -1 x_r1_g15 -1 x_r1_g114 >= -1 ;
1 p_r1_g29_h128_t68 -1 x_r1_g29 <= 0 ;
1 p_r1_g29_h128_t68 -1 x_r1_g128 <= 0 ;
1 p_r1_g29_h128_t68 -1 x_r1_g29 -1 x_r1_g128 >= -1 ;
1 p_r1_g31_h130_t68 -1 x_r1_g31 <= 0 ;
1 p_r1_g31_h130_t68 -1 x_r1_g130 <= 0 ;
1 p_r1_g31_h130_t68 -1 x_r1_g31 -1 x_r1_g130 >= -1 ;
1 p_r1_g33_h132_t68 -1 x_r1_g33 <= 0 ;
1 p_r1_g33_h132_t68 -1 x_r1_g132 <= 0 ;
1 p_r1_g33_h132_t68 -1 x_r1_g33 -1 x_r1_g132 >= -1 ;
1 p_r1_g58_h157_t68 -1 x_r1_g58 <= 0 ;
1 p_r1_g58_h157_t68 -1 x_r1_g157 <= 0 ;
1 p_r1_g58_h157_t68 -1 x_r1_g58 -1 x_r1_g157 >= -1 ;
1 p_r1_g99_h31_t68 -1 x_r1_g99 <= 0 ;
1 p_r1_g99_h31_t68 -1 x_r1_g31 <= 0 ;
1 p_r1_g99_h31_t68 -1 x_r1_g99 -1 x_r1_g31 >= -1 ;
1 p_r1_g101_h33_t68 -1 x_r1_g101 <= 0 ;
1 p_r1_g101_h33_t68 -1 x_r1_g33 <= 0 ;
1 p_r1_g101_h33_t68 -1 x_r1_g101 -1 x_r1_g33 >= -1 ;
1 p_r1_g114_h46_t68 -1 x_r1_g114 <= 0 ;
1 p_r1_g114_h46_t68 -1 x_r1_g46 <= 0 ;
1 p_r1_g114_h46_t68 -1 x_r1_g114 -1 x_r1_g46 >= -1 ;
1 p_r1_g116_h48_t68 -1 x_r1_g116 <= 0 ;
1 p_r1_g116_h48_t68 -1 x_r1_g48 <= 0 ;
1 p_r1_g116_h48_t68 -1 x_r1_g116 -1 x_r1_g48 >= -1 ;
1 p_r1_g126_h58_t68 -1 x_r1_g126 <= 0 ;
1 p_r1_g126_h58_t68 -1 x_r1_g58 <= 0 ;
1 p_r1_g126_h58_t68 -1 x_r1_g126 -1 x_r1_g58 >= -1 ;
1 p_r1_g157_h89_t68 -1 x_r1_g157 <= 0 ;
1 p_r1_g157_h89_t68 -1 x_r1_g89 <= 0 ;
1 p_r1_g157_h89_t68 -1 x_r1_g157 -1 x_r1_g89 >= -1 ;
1 p_r2_g7_h106_t68 -1 x_r2_g7 <= 0 ;
1 p_r2_g7_h106_t68 -1 x_r2_g106 <= 0 ;
1 p_r2_g7_h106_t68 -1 x_r2_g7 -1 x_r2_g106 >= -1 ;
1 p_r2_g13_h112_t68 -1 x_r2_g13 <= 0 ;
1 p_r2_g13_h112_t68 -1 x_r2_g112 <= 0 ;
1 p_r2_g13_h112_t68 -1 x_r2_g13 -1 x_r2_g112 >= -1 ;
1 p_r2_g17_h116_t68 -1 x_r2_g17 <= 0 ;
1 p_r2_g17_h116_t68 -1 x_r2_g116 <= 0 ;
1 p_r2_g17_h116_t68 -1 x_r2_g17 -1 x_r2_g116 >= -1 ;
1 p_r2_g33_h132_t68 -1 x_r2_g33 <= 0 ;
1 p_r2_g33_h132_t68 -1 x_r2_g132 <= 0 ;
1 p_r2_g33_h132_t68 -1 x_r2_g33 -1 x_r2_g132 >= -1 ;
1 p_r2_g34_h133_t68 -1 x_r2_g34 <= 0 ;
1 p_r2_g34_h133_t68 -1 x_r2_g133 <= 0 ;
1 p_r2_g34_h133_t68 -1 x_r2_g34 -1 x_r2_g133 >= -1 ;
1 p_r2_g42_h141_t68 -1 x_r2_g42 <= 0 ;
1 p_r2_g42_h141_t68 -1 x_r2_g141 <= 0 ;
1 p_r2_g42_h141_t68 -1 x_r2_g42 -1 x_r2_g141 >= -1 ;
1 p_r2_g47_h146_t68 -1 x_r2_g47 <= 0 ;
1 p_r2_g47_h146_t68 -1 x_r2_g146 <= 0 ;
1 p_r2_g47_h146_t68 -1 x_r2_g47 -1 x_r2_g146 >= -1 ;
1 p_r2_g85_h17_t68 -1 x_r2_g85 <= 0 ;
1 p_r2_g85_h17_t68 -1 x_r2_g17 <= 0 ;
1 p_r2_g85_h17_t68 -1 x_r2_g85 -1 x_r2_g17 >= -1 ;
1 p_r2_g116_h48_t68 -1 x_r2_g116 <= 0 ;
1 p_r2_g116_h48_t68 -1 x_r2_g48 <= 0 ;
1 p_r2_g116_h48_t68 -1 x_r2_g116 -1 x_r2_g48 >= -1 ;
1 p_r2_g161_h93_t68 -1 x_r2_g161 <= 0 ;
1 p_r2_g161_h93_t68 -1 x_r2_g93 <= 0 ;
1 p_r2_g161_h93_t68 -1 x_r2_g161 -1 x_r2_g93 >= -1 ;
1 p_r3_g0_h99_t68 -1 x_r3_g0 <= 0 ;
1 p_r3_g0_h99_t68 -1 x_r3_g99 <= 0 ;
1 p_r3_g0_h99_t68 -1 x_r3_g0 -1 x_r3_g99 >= -1 ;
1 p_r3_g12_h111_t68 -1 x_r3_g12 <= 0 ;
1 p_r3_g12_h111_t68 -1 x_r3_g111 <= 0 ;
1 p_r3_g12_h111_t68 -1 x_r3_g12 -1 x_r3_g111 >= -1 ;
1 p_r3_g23_h122_t68 -1 x_r3_g23 <= 0 ;
1 p_r3_g23_h122_t68 -1 x_r3_g122 <= 0 ;
1 p_r3_g23_h122_t68 -1 x_r3_g23 -1 x_r3_g122 >= -1 ;
1 p_r3_g60_h159_t68 -1 x_r3_g60 <= 0 ;
1 p_r3_g60_h159_t68 -1 x_r3_g159 <= 0 ;
1 p_r3_g60_h159_t68 -1 x_r3_g60 -1 x_r3_g159 >= -1 ;
1 p_r3_g61_h160_t68 -1 x_r3_g61 <= 0 ;
1 p_r3_g61_h160_t68 -1 x_r3_g160 <= 0 ;
1 p_r3_g61_h160_t68 -1 x_r3_g61 -1 x_r3_g160 >= -1 ;
1 p_r3_g68_h0_t68 -1 x_r3_g68 <= 0 ;
1 p_r3_g68_h0_t68 -1 x_r3_g0 <= 0 ;
1 p_r3_g68_h0_t68 -1 x_r3_g68 -1 x_r3_g0 >= -1 ;
1 p_r3_g74_h6_t68 -1 x_r3_g74 <= 0 ;
1 p_r3_g74_h6_t68 -1 x_r3_g6 <= 0 ;
1 p_r3_g74_h6_t68 -1 x_r3_g74 -1 x_r3_g6 >= -1 ;
1 p_r3_g97_h29_t68 -1 x_r3_g97 <= 0 ;
1 p_r3_g97_h29_t68 -1 x_r3_g29 <= 0 ;
1 p_r3_g97_h29_t68 -1 x_r3_g97 -1 x_r3_g29 >= -1 ;
1 p_r3_g99_h31_t68 -1 x_r3_g99 <= 0 ;
1 p_r3_g99_h31_t68 -1 x_r3_g31 <= 0 ;
1 p_r3_g99_h31_t68 -1 x_r3_g99 -1 x_r3_g31 >= -1 ;
1 p_r3_g122_h54_t68 -1 x_r3_g122 <= 0 ;
1 p_r3_g122_h54_t68 -1 x_r3_g54 <= 0 ;
1 p_r3_g122_h54_t68 -1 x_r3_g122 -1 x_r3_g54 >= -1 ;
1 p_r3_g136_h68_t68 -1 x_r3_g136 <= 0 ;
1 p_r3_g136_h68_t68 -1 x_r3_g68 <= 0 ;
1 p_r3_g136_h68_t68 -1 x_r3_g136 -1 x_r3_g68 >= -1 ;
1 p_r3_g145_h77_t68 -1 x_r3_g145 <= 0 ;
1 p_r3_g145_h77_t68 -1 x_r3_g77 <= 0 ;
1 p_r3_g145_h77_t68 -1 x_r3_g145 -1 x_r3_g77 >= -1 ;
1 p_r3_g146_h78_t68 -1 x_r3_g146 <= 0 ;
1 p_r3_g146_h78_t68 -1 x_r3_g78 <= 0 ;
1 p_r3_g146_h78_t68 -1 x_r3_g146 -1 x_r3_g78 >= -1 ;
1 p_r3_g165_h97_t68 -1 x_r3_g165 <= 0 ;
1 p_r3_g165_h97_t68 -1 x_r3_g97 <= 0 ;
1 p_r3_g165_h97_t68 -1 x_r3_g165 -1 x_r3_g97 >= -1 ;
1 d_68 -1 x_r0_g23 -1 x_r0_g35 -1 x_r0_g44 -1 x_r0_g47 -1 x_r0_g50 -1 x_r0_g54 -1 x_r0_g66 -1 x_r0_g73 -1 x_r0_g74 -1 x_r0_g88 -1 x_r0_g90 -1 x_r0_g95 -2 x_r0_g110 -2 x_r0_g111 -2 x_r0_g113 -1 x_r0_g116 -1 x_r0_g118 -2 x_r0_g135 -2 x_r0_g136 -1 x_r0_g144 -1 x_r0_g162 -1 x_r1_g0 -2 x_r1_g16 -1 x_r1_g19 -2 x_r1_g20 -2 x_r1_g28 -1 x_r1_g35 -2 x_r1_g41 -1 x_r1_g42 -1 x_r1_g44 -1 x_r1_g71 -1 x_r1_g73 -2 x_r1_g78 -1 x_r1_g91 -1 x_r1_g92 -1 x_r1_g126 -1 x_r1_g130 -1 x_r1_g131 -1 x_r1_g132 -2 x_r1_g164 -1 x_r2_g5 -2 x_r2_g6 -1 x_r2_g7 -1 x_r2_g10 -2 x_r2_g14 -1 x_r2_g27 -1 x_r2_g29 -1 x_r2_g33 -1 x_r2_g34 -1 x_r2_g35 -1 x_r2_g41 -1 x_r2_g42 -1 x_r2_g47 -1 x_r2_g80 -1 x_r2_g85 -1 x_r2_g93 -1 x_r2_g111 -1 x_r2_g114 -1 x_r2_g119 -1 x_r2_g125 -1 x_r2_g127 -1 x_r2_g131 -1 x_r2_g132 -1 x_r2_g133 -1 x_r2_g138 -1 x_r2_g145 -1 x_r2_g146 -1 x_r2_g151 -1 x_r3_g12 -1 x_r3_g21 -1 x_r3_g24 -1 x_r3_g29 -1 x_r3_g52 -2 x_r3_g55 -1 x_r3_g60 -1 x_r3_g61 -1 x_r3_g63 -1 x_r3_g74 -1 x_r3_g77 -1 x_r3_g111 -1 x_r3_g112 -1 x_r3_g125 -1 x_r3_g133 -1 x_r3_g136 -1 x_r3_g139 -1 x_r3_g145 -1 x_r3_g146 -1 x_r3_g165 -1 p_r0_g13_h112_t68 -1 p_r0_g40_h139_t68 -1 p_r0_g74_h6_t68 -1 p_r0_g90_h22_t68 -1 p_r0_g112_h44_t68 -1 p_r0_g117_h49_t68 -1 p_r0_g118_h50_t68 -1 p_r0_g156_h88_t68 -1 p_r1_g0_h99_t68 -1 p_r1_g15_h114_t68 -1 p_r1_g29_h128_t68 -1 p_r1_g31_h130_t68 -1 p_r1_g33_h132_t68 -1 p_r1_g58_h157_t68 -1 p_r1_g99_h31_t68 -1 p_r1_g101_h33_t68 -1 p_r1_g114_h46_t68 -1 p_r1_g116_h48_t68 -1 p_r1_g126_h58_t68 -1 p_r1_g157_h89_t68 -1 p_r2_g7_h106_t68 -1 p_r2_g13_h112_t68 -1 p_r2_g17_h116_t68 -1 p_r2_g33_h132_t68 -1 p_r2_g34_h133_t68 -1 p_r2_g42_h141_t68 -1 p_r2_g47_h146_t68 -1 p_r2_g85_h17_t68 -1 p_r2_g116_h48_t68 -1 p_r2_g161_h93_t68 -1 p_r3_g0_h99_t68 -1 p_r3_g12_h111_t68 -1 p_r3_g23_h122_t68 -1 p_r3_g60_h159_t68 -1 p_r3_g61_h160_t68 -1 p_r3_g68_h0_t68 -1 p_r3_g74_h6_t68 -1 p_r3_g97_h29_t68 -1 p_r3_g99_h31_t68 -1 p_r3_g122_h54_t68 -1 p_r3_g136_h68_t68 -1 p_r3_g145_h77_t68 -1 p_r3_g146_h78_t68 -1 p_r3_g165_h97_t68 = -64 ;
1 d_68 -1 u_68 <= 0 ;
-1 d_68 -1 u_68 <= 0 ;
1 u_68 -1 M <= 0 ;
1 u_68 <= 0 ;
1 p_r0_g13_h111_t69 -1 x_r0_g13 <= 0 ;
1 p_r0_g13_h111_t69 -1 x_r0_g111 <= 0 ;
1 p_r0_g13_h111_t69 -1 x_r0_g13 -1 x_r0_g111 >= -1 ;
1 p_r0_g46_h144_t69 -1 x_r0_g46 <= 0 ;
1 p_r0_g46_h144_t69 -1 x_r0_g144 <= 0 ;
1 p_r0_g46_h144_t69 -1 x_r0_g46 -1 x_r0_g144 >= -1 ;
1 p_r0_g54_h152_t69 -1 x_r0_g54 <= 0 ;
1 p_r0_g54_h152_t69 -1 x_r0_g152 <= 0 ;
1 p_r0_g54_h152_t69 -1 x_r0_g54 -1 x_r0_g152 >= -1 ;
1 p_r0_g113_h44_t69 -1 x_r0_g113 <= 0 ;
1 p_r0_g113_h44_t69 -1 x_r0_g44 <= 0 ;
1 p_r0_g113_h44_t69 -1 x_r0_g113 -1 x_r0_g44 >= -1 ;
1 p_r0_g116_h47_t69 -1 x_r0_g116 <= 0 ;
1 p_r0_g116_h47_t69 -1 x_r0_g47 <= 0 ;
1 p_r0_g116_h47_t69 -1 x_r0_g116 -1 x_r0_g47 >= -1 ;
1 p_r0_g118_h49_t69 -1 x_r0_g118 <= 0 ;
1 p_r0_g118_h49_t69 -1 x_r0_g49 <= 0 ;
1 p_r0_g118_h49_t69 -1 x_r0_g118 -1 x_r0_g49 >= -1 ;
1 p_r0_g135_h66_t69 -1 x_r0_g135 <= 0 ;
1 p_r0_g135_h66_t69 -1 x_r0_g66 <= 0 ;
1 p_r0_g135_h66_t69 -1 x_r0_g135 -1 x_r0_g66 >= -1 ;
1 p_r1_g16_h114_t69 -1 x_r1_g16 <= 0 ;
1 p_r1_g16_h114_t69 -1 x_r1_g114 <= 0 ;
1 p_r1_g16_h114_t69 -1 x_r1_g16 -1 x_r1_g114 >= -1 ;
1 p_r1_g28_h126_t69 -1 x_r1_g28 <= 0 ;
1 p_r1_g28_h126_t69 -1 x_r1_g126 <= 0 ;
1 p_r1_g28_h126_t69 -1 x_r1_g28 -1 x_r1_g126 >= -1 ;
1 p_r1_g33_h131_t69 -1 x_r1_g33 <= 0 ;
1 p_r1_g33_h131_t69 -1 x_r1_g131 <= 0 ;
1 p_r1_g33_h131_t69 -1 x_r1_g33 -1 x_r1_g131 >= -1 ;
1 p_r1_g85_h16_t69 -1 x_r1_g85 <= 0 ;
1 p_r1_g85_h16_t69 -1 x_r1_g16 <= 0 ;
1 p_r1_g85_h16_t69 -1 x_r1_g85 -1 x_r1_g16 >= -1 ;
1 p_r1_g89_h20_t69 -1 x_r1_g89 <= 0 ;
1 p_r1_g89_h20_t69 -1 x_r1_g20 <= 0 ;
1 p_r1_g89_h20_t69 -1 x_r1_g89 -1 x_r1_g20 >= -1 ;
1 p_r2_g8_h106_t69 -1 x_r2_g8 <= 0 ;
1 p_r2_g8_h106_t69 -1 x_r2_g106 <= 0 ;
1 p_r2_g8_h106_t69 -1 x_r2_g8 -1 x_r2_g106 >= -1 ;
1 p_r2_g13_h111_t69 -1 x_r2_g13 <= 0 ;
1 p_r2_g13_h111_t69 -1 x_r2_g111 <= 0 ;
1 p_r2_g13_h111_t69 -1 x_r2_g13 -1 x_r2_g111 >= -1 ;
1 p_r2_g14_h112_t69 -1 x_r2_g14 <= 0 ;
1 p_r2_g14_h112_t69 -1 x_r2_g112 <= 0 ;
1 p_r2_g14_h112_t69 -1 x_r2_g14 -1 x_r2_g112 >= -1 ;
1 p_r2_g27_h125_t69 -1 x_r2_g27 <= 0 ;
1 p_r2_g27_h125_t69 -1 x_r2_g125 <= 0 ;
1 p_r2_g27_h125_t69 -1 x_r2_g27 -1 x_r2_g125 >= -1 ;
1 p_r2_g29_h127_t69 -1 x_r2_g29 <= 0 ;
1 p_r2_g29_h127_t69 -1 x_r2_g127 <= 0 ;
1 p_r2_g29_h127_t69 -1 x_r2_g29 -1 x_r2_g127 >= -1 ;
1 p_r2_g33_h131_t69 -1 x_r2_g33 <= 0 ;
1 p_r2_g33_h131_t69 -1 x_r2_g131 <= 0 ;
1 p_r2_g33_h131_t69 -1 x_r2_g33 -1 x_r2_g131 >= -1 ;
1 p_r2_g34_h132_t69 -1 x_r2_g34 <= 0 ;
1 p_r2_g34_h132_t69 -1 x_r2_g132 <= 0 ;
1 p_r2_g34_h132_t69 -1 x_r2_g34 -1 x_r2_g132 >= -1 ;
1 p_r2_g35_h133_t69 -1 x_r2_g35 <= 0 ;
1 p_r2_g35_h133_t69 -1 x_r2_g133 <= 0 ;
1 p_r2_g35_h133_t69 -1 x_r2_g35 -1 x_r2_g133 >= -1 ;
1 p_r2_g41_h139_t69 -1 x_r2_g41 <= 0 ;
1 p_r2_g41_h139_t69 -1 x_r2_g139 <= 0 ;
1 p_r2_g41_h139_t69 -1 x_r2_g41 -1 x_r2_g139 >= -1 ;
1 p_r2_g47_h145_t69 -1 x_r2_g47 <= 0 ;
1 p_r2_g47_h145_t69 -1 x_r2_g145 <= 0 ;
1 p_r2_g47_h145_t69 -1 x_r2_g47 -1 x_r2_g145 >= -1 ;
1 p_r2_g48_h146_t69 -1 x_r2_g48 <= 0 ;
1 p_r2_g48_h146_t69 -1 x_r2_g146 <= 0 ;
1 p_r2_g48_h146_t69 -1 x_r2_g48 -1 x_r2_g146 >= -1 ;
1 p_r2_g111_h42_t69 -1 x_r2_g111 <= 0 ;
1 p_r2_g111_h42_t69 -1 x_r2_g42 <= 0 ;
1 p_r2_g111_h42_t69 -1 x_r2_g111 -1 x_r2_g42 >= -1 ;
1 p_r2_g116_h47_t69 -1 x_r2_g116 <= 0 ;
1 p_r2_g116_h47_t69 -1 x_r2_g47 <= 0 ;
1 p_r2_g116_h47_t69 -1 x_r2_g116 -1 x_r2_g47 >= -1 ;
1 p_r2_g125_h56_t69 -1 x_r2_g125 <= 0 ;
1 p_r2_g125_h56_t69 -1 x_r2_g56 <= 0 ;
1 p_r2_g125_h56_t69 -1 x_r2_g125 -1 x_r2_g56 >= -1 ;
1 p_r3_g12_h110_t69 -1 x_r3_g12 <= 0 ;
1 p_r3_g12_h110_t69 -1 x_r3_g110 <= 0 ;
1 p_r3_g12_h110_t69 -1 x_r3_g12 -1 x_r3_g110 >= -1 ;
1 p_r3_g24_h122_t69 -1 x_r3_g24 <= 0 ;
1 p_r3_g24_h122_t69 -1 x_r3_g122 <= 0 ;
1 p_r3_g24_h122_t69 -1 x_r3_g24 -1 x_r3_g122 >= -1 ;
1 p_r3_g61_h159_t69 -1 x_r3_g61 <= 0 ;
1 p_r3_g61_h159_t69 -1 x_r3_g159 <= 0 ;
1 p_r3_g61_h159_t69 -1 x_r3_g61 -1 x_r3_g159 >= -1 ;
1 p_r3_g122_h53_t69 -1 x_r3_g122 <= 0 ;
1 p_r3_g122_h53_t69 -1 x_r3_g53 <= 0 ;
1 p_r3_g122_h53_t69 -1 x_r3_g122 -1 x_r3_g53 >= -1 ;
1 p_r3_g124_h55_t69 -1 x_r3_g124 <= 0 ;
1 p_r3_g124_h55_t69 -1 x_r3_g55 <= 0 ;
1 p_r3_g124_h55_t69 -1 x_r3_g124 -1 x_r3_g55 >= -1 ;
1 p_r3_g132_h63_t69 -1 x_r3_g132 <= 0 ;
1 p_r3_g132_h63_t69 -1 x_r3_g63 <= 0 ;
1 p_r3_g132_h63_t69 -1 x_r3_g132 -1 x_r3_g63 >= -1 ;
1 p_r3_g146_h77_t69 -1 x_r3_g146 <= 0 ;
1 p_r3_g146_h77_t69 -1 x_r3_g77 <= 0 ;
1 p_r3_g146_h77_t69 -1 x_r3_g146 -1 x_r3_g77 >= -1 ;
1 d_69 -1 x_r0_g22 -1 x_r0_g25 -1 x_r0_g44 -1 x_r0_g50 -1 x_r0_g54 -1 x_r0_g73 -2 x_r0_g74 -1 x_r0_g77 -2 x_r0_g88 -1 x_r0_g90 -1 x_r0_g99 -1 x_r0_g101 -1 x_r0_g110 -1 x_r0_g111 -2 x_r0_g112 -1 x_r0_g113 -2 x_r0_g117 -1 x_r0_g118 -2 x_r0_g128 -2 x_r0_g132 -1 x_r0_g135 -2 x_r0_g136 -1 x_r0_g139 -1 x_r0_g140 -1 x_r0_g156 -2 x_r1_g0 -2 x_r1_g15 -1 x_r1_g19 -2 x_r1_g29 -1 x_r1_g31 -1 x_r1_g38 -1 x_r1_g42 -2 x_r1_g43 -1 x_r1_g44 -1 x_r1_g46 -1 x_r1_g48 -2 x_r1_g58 -1 x_r1_g71 -1 x_r1_g77 -1 x_r1_g85 -1 x_r1_g91 -1 x_r1_g99 -2 x_r1_g101 -1 x_r1_g116 -1 x_r1_g126 -1 x_r1_g130 -1 x_r1_g131 -1 x_r1_g157 -2 x_r1_g164 -1 x_r2_g5 -2 x_r2_g6 -1 x_r2_g7 -1 x_r2_g13 -1 x_r2_g14 -2 x_r2_g17 -1 x_r2_g29 -1 x_r2_g33 -1 x_r2_g35 -1 x_r2_g41 -1 x_r2_g42 -1 x_r2_g112 -1 x_r2_g116 -2 x_r2_g118 -1 x_r2_g119 -1 x_r2_g127 -1 x_r2_g132 -1 x_r2_g133 -1 x_r2_g141 -1 x_r2_g151 -1 x_r2_g161 -1 x_r3_g0 -1 x_r3_g6 -1 x_r3_g12 -1 x_r3_g21 -2 x_r3_g29 -1 x_r3_g31 -1 x_r3_g53 -1 x_r3_g54 -1 x_r3_g58 -1 x_r3_g60 -2 x_r3_g68 -2 x_r3_g74 -1 x_r3_g77 -1 x_r3_g78 -2 x_r3_g82 -2 x_r3_g97 -2 x_r3_g99 -1 x_r3_g110 -1 x_r3_g111 -1 x_r3_g112 -1 x_r3_g124 -1 x_r3_g125 -1 x_r3_g136 -1 x_r3_g139 -2 x_r3_g145 -1 x_r3_g160 -1 p_r0_g13_h111_t69 -1 p_r0_g46_h144_t69 -1 p_r0_g54_h152_t69 -1 p_r0_g113_h44_t69 -1 p_r0_g116_h47_t69 -1 p_r0_g118_h49_t69 -1 p_r0_g135_h66_t69 -1 p_r1_g16_h114_t69 -1 p_r1_g28_h126_t69 -1 p_r1_g33_h131_t69 -1 p_r1_g85_h16_t69 -1 p_r1_g89_h20_t69 -1 p_r2_g8_h106_t69 -1 p_r2_g13_h111_t69 -1 p_r2_g14_h112_t69 -1 p_r2_g27_h125_t69 -1 p_r2_g29_h127_t69 -1 p_r2_g33_h131_t69 -1 p_r2_g34_h132_t69 -1 p_r2_g35_h133_t69 -1 p_r2_g41_h139_t69 -1 p_r2_g47_h145_t69 -1 p_r2_g48_h146_t69 -1 p_r2_g111_h42_t69 -1 p_r2_g116_h47_t69 -1 p_r2_g125_h56_t69 -1 p_r3_g12_h110_t69 -1 p_r3_g24_h122_t69 -1 p_r3_g61_h159_t69 -1 p_r3_g122_h53_t69 -1 p_r3_g124_h55_t69 -1 p_r3_g132_h63_t69 -1 p_r3_g146_h77_t69 = -73 ;
1 d_69 -1 u_69 <= 0 ;
-1 d_69 -1 u_69 <= 0 ;
1 u_69 -1 M <= 0 ;
1 u_69 <= 1 ;
1 p_r0_g13_h110_t70 -1 x_r0_g13 <= 0 ;
1 p_r0_g13_h110_t70 -1 x_r0_g110 <= 0 ;
1 p_r0_g13_h110_t70 -1 x_r0_g13 -1 x_r0_g110 >= -1 ;
1 p_r0_g16_h113_t70 -1 x_r0_g16 <= 0 ;
1 p_r0_g16_h113_t70 -1 x_r0_g113 <= 0 ;
1 p_r0_g16_h113_t70 -1 x_r0_g16 -1 x_r0_g113 >= -1 ;
1 p_r0_g35_h132_t70 -1 x_r0_g35 <= 0 ;
1 p_r0_g35_h132_t70 -1 x_r0_g132 <= 0 ;
1 p_r0_g35_h132_t70 -1 x_r0_g35 -1 x_r0_g132 >= -1 ;
1 p_r0_g47_h144_t70 -1 x_r0_g47 <= 0 ;
1 p_r0_g47_h144_t70 -1 x_r0_g144 <= 0 ;
1 p_r0_g47_h144_t70 -1 x_r0_g47 -1 x_r0_g144 >= -1 ;
1 p_r0_g95_h25_t70 -1 x_r0_g95 <= 0 ;
1 p_r0_g95_h25_t70 -1 x_r0_g25 <= 0 ;
1 p_r0_g95_h25_t70 -1 x_r0_g95 -1 x_r0_g25 >= -1 ;
1 p_r0_g110_h40_t70 -1 x_r0_g110 <= 0 ;
1 p_r0_g110_h40_t70 -1 x_r0_g40 <= 0 ;
1 p_r0_g110_h40_t70 -1 x_r0_g110 -1 x_r0_g40 >= -1 ;
1 p_r0_g116_h46_t70 -1 x_r0_g116 <= 0 ;
1 p_r0_g116_h46_t70 -1 x_r0_g46 <= 0 ;
1 p_r0_g116_h46_t70 -1 x_r0_g116 -1 x_r0_g46 >= -1 ;
1 p_r0_g117_h47_t70 -1 x_r0_g117 <= 0 ;
1 p_r0_g117_h47_t70 -1 x_r0_g47 <= 0 ;
1 p_r0_g117_h47_t70 -1 x_r0_g117 -1 x_r0_g47 >= -1 ;
1 p_r0_g136_h66_t70 -1 x_r0_g136 <= 0 ;
1 p_r0_g136_h66_t70 -1 x_r0_g66 <= 0 ;
1 p_r0_g136_h66_t70 -1 x_r0_g136 -1 x_r0_g66 >= -1 ;
1 p_r0_g144_h74_t70 -1 x_r0_g144 <= 0 ;
1 p_r0_g144_h74_t70 -1 x_r0_g74 <= 0 ;
1 p_r0_g144_h74_t70 -1 x_r0_g144 -1 x_r0_g74 >= -1 ;
1 p_r1_g19_h116_t70 -1 x_r1_g19 <= 0 ;
1 p_r1_g19_h116_t70 -1 x_r1_g116 <= 0 ;
1 p_r1_g19_h116_t70 -1 x_r1_g19 -1 x_r1_g116 >= -1 ;
1 p_r1_g29_h126_t70 -1 x_r1_g29 <= 0 ;
1 p_r1_g29_h126_t70 -1 x_r1_g126 <= 0 ;
1 p_r1_g29_h126_t70 -1 x_r1_g29 -1 x_r1_g126 >= -1 ;
1 p_r1_g31_h128_t70 -1 x_r1_g31 <= 0 ;
1 p_r1_g31_h128_t70 -1 x_r1_g128 <= 0 ;
1 p_r1_g31_h128_t70 -1 x_r1_g31 -1 x_r1_g128 >= -1 ;
1 p_r1_g33_h130_t70 -1 x_r1_g33 <= 0 ;
1 p_r1_g33_h130_t70 -1 x_r1_g130 <= 0 ;
1 p_r1_g33_h130_t70 -1 x_r1_g33 -1 x_r1_g130 >= -1 ;
1 p_r1_g35_h132_t70 -1 x_r1_g35 <= 0 ;
1 p_r1_g35_h132_t70 -1 x_r1_g132 <= 0 ;
1 p_r1_g35_h132_t70 -1 x_r1_g35 -1 x_r1_g132 >= -1 ;
1 p_r1_g85_h15_t70 -1 x_r1_g85 <= 0 ;
1 p_r1_g85_h15_t70 -1 x_r1_g15 <= 0 ;
1 p_r1_g85_h15_t70 -1 x_r1_g85 -1 x_r1_g15 >= -1 ;
1 p_r1_g89_h19_t70 -1 x_r1_g89 <= 0 ;
1 p_r1_g89_h19_t70 -1 x_r1_g19 <= 0 ;
1 p_r1_g89_h19_t70 -1 x_r1_g89 -1 x_r1_g19 >= -1 ;
1 p_r1_g99_h29_t70 -1 x_r1_g99 <= 0 ;
1 p_r1_g99_h29_t70 -1 x_r1_g29 <= 0 ;
1 p_r1_g99_h29_t70 -1 x_r1_g99 -1 x_r1_g29 >= -1 ;
1 p_r1_g101_h31_t70 -1 x_r1_g101 <= 0 ;
1 p_r1_g101_h31_t70 -1 x_r1_g31 <= 0 ;
1 p_r1_g101_h31_t70 -1 x_r1_g101 -1 x_r1_g31 >= -1 ;
1 p_r1_g114_h44_t70 -1 x_r1_g114 <= 0 ;
1 p_r1_g114_h44_t70 -1 x_r1_g44 <= 0 ;
1 p_r1_g114_h44_t70 -1 x_r1_g114 -1 x_r1_g44 >= -1 ;
1 p_r1_g116_h46_t70 -1 x_r1_g116 <= 0 ;
1 p_r1_g116_h46_t70 -1 x_r1_g46 <= 0 ;
1 p_r1_g116_h46_t70 -1 x_r1_g116 -1 x_r1_g46 >= -1 ;
1 p_r1_g128_h58_t70 -1 x_r1_g128 <= 0 ;
1 p_r1_g128_h58_t70 -1 x_r1_g58 <= 0 ;
1 p_r1_g128_h58_t70 -1 x_r1_g128 -1 x_r1_g58 >= -1 ;
1 p_r2_g14_h111_t70 -1 x_r2_g14 <= 0 ;
1 p_r2_g14_h111_t70 -1 x_r2_g111 <= 0 ;
1 p_r2_g14_h111_t70 -1 x_r2_g14 -1 x_r2_g111 >= -1 ;
1 p_r2_g17_h114_t70 -1 x_r2_g17 <= 0 ;
1 p_r2_g17_h114_t70 -1 x_r2_g114 <= 0 ;
1 p_r2_g17_h114_t70 -1 x_r2_g17 -1 x_r2_g114 >= -1 ;
1 p_r2_g34_h131_t70 -1 x_r2_g34 <= 0 ;
1 p_r2_g34_h131_t70 -1 x_r2_g131 <= 0 ;
1 p_r2_g34_h131_t70 -1 x_r2_g34 -1 x_r2_g131 >= -1 ;
1 p_r2_g35_h132_t70 -1 x_r2_g35 <= 0 ;
1 p_r2_g35_h132_t70 -1 x_r2_g132 <= 0 ;
1 p_r2_g35_h132_t70 -1 x_r2_g35 -1 x_r2_g132 >= -1 ;
1 p_r2_g41_h138_t70 -1 x_r2_g41 <= 0 ;
1 p_r2_g41_h138_t70 -1 x_r2_g138 <= 0 ;
1 p_r2_g41_h138_t70 -1 x_r2_g41 -1 x_r2_g138 >= -1 ;
1 p_r2_g42_h139_t70 -1 x_r2_g42 <= 0 ;
1 p_r2_g42_h139_t70 -1 x_r2_g139 <= 0 ;
1 p_r2_g42_h139_t70 -1 x_r2_g42 -1 x_r2_g139 >= -1 ;
1 p_r2_g48_h145_t70 -1 x_r2_g48 <= 0 ;
1 p_r2_g48_h145_t70 -1 x_r2_g145 <= 0 ;
1 p_r2_g48_h145_t70 -1 x_r2_g48 -1 x_r2_g145 >= -1 ;
1 p_r2_g80_h10_t70 -1 x_r2_g80 <= 0 ;
1 p_r2_g80_h10_t70 -1 x_r2_g10 <= 0 ;
1 p_r2_g80_h10_t70 -1 x_r2_g80 -1 x_r2_g10 >= -1 ;
1 p_r2_g111_h41_t70 -1 x_r2_g111 <= 0 ;
1 p_r2_g111_h41_t70 -1 x_r2_g41 <= 0 ;
1 p_r2_g111_h41_t70 -1 x_r2_g111 -1 x_r2_g41 >= -1 ;
1 p_r2_g112_h42_t70 -1 x_r2_g112 <= 0 ;
1 p_r2_g112_h42_t70 -1 x_r2_g42 <= 0 ;
1 p_r2_g112_h42_t70 -1 x_r2_g112 -1 x_r2_g42 >= -1 ;
1 p_r2_g118_h48_t70 -1 x_r2_g118 <= 0 ;
1 p_r2_g118_h48_t70 -1 x_r2_g48 <= 0 ;
1 p_r2_g118_h48_t70 -1 x_r2_g118 -1 x_r2_g48 >= -1 ;
1 p_r3_g0_h97_t70 -1 x_r3_g0 <= 0 ;
1 p_r3_g0_h97_t70 -1 x_r3_g97 <= 0 ;
1 p_r3_g0_h97_t70 -1 x_r3_g0 -1 x_r3_g97 >= -1 ;
1 p_r3_g63_h160_t70 -1 x_r3_g63 <= 0 ;
1 p_r3_g63_h160_t70 -1 x_r3_g160 <= 0 ;
1 p_r3_g63_h160_t70 -1 x_r3_g63 -1 x_r3_g160 >= -1 ;
1 p_r3_g68_h165_t70 -1 x_r3_g68 <= 0 ;
1 p_r3_g68_h165_t70 -1 x_r3_g165 <= 0 ;
1 p_r3_g68_h165_t70 -1 x_r3_g68 -1 x_r3_g165 >= -1 ;
1 p_r3_g74_h4_t70 -1 x_r3_g74 <= 0 ;
1 p_r3_g74_h4_t70 -1 x_r3_g4 <= 0 ;
1 p_r3_g74_h4_t70 -1 x_r3_g74 -1 x_r3_g4 >= -1 ;
1 p_r3_g82_h12_t70 -1 x_r3_g82 <= 0 ;
1 p_r3_g82_h12_t70 -1 x_r3_g12 <= 0 ;
1 p_r3_g82_h12_t70 -1 x_r3_g82 -1 x_r3_g12 >= -1 ;
1 p_r3_g99_h29_t70 -1 x_r3_g99 <= 0 ;
1 p_r3_g99_h29_t70 -1 x_r3_g29 <= 0 ;
1 p_r3_g99_h29_t70 -1 x_r3_g99 -1 x_r3_g29 >= -1 ;
1 p_r3_g122_h52_t70 -1 x_r3_g122 <= 0 ;
1 p_r3_g122_h52_t70 -1 x_r3_g52 <= 0 ;
1 p_r3_g122_h52_t70 -1 x_r3_g122 -1 x_r3_g52 >= -1 ;
1 p_r3_g124_h54_t70 -1 x_r3_g124 <= 0 ;
1 p_r3_g124_h54_t70 -1 x_r3_g54 <= 0 ;
1 p_r3_g124_h54_t70 -1 x_r3_g124 -1 x_r3_g54 >= -1 ;
1 p_r3_g125_h55_t70 -1 x_r3_g125 <= 0 ;
1 p_r3_g125_h55_t70 -1 x_r3_g55 <= 0 ;
1 p_r3_g125_h55_t70 -1 x_r3_g125 -1 x_r3_g55 >= -1 ;
1 p_r3_g133_h63_t70 -1 x_r3_g133 <= 0 ;
1 p_r3_g133_h63_t70 -1 x_r3_g63 <= 0 ;
1 p_r3_g133_h63_t70 -1 x_r3_g133 -1 x_r3_g63 >= -1 ;
1 d_70 -1 x_r0_g6 -1 x_r0_g22 -1 x_r0_g23 -1 x_r0_g25 -1 x_r0_g40 -1 x_r0_g46 -2 x_r0_g49 -1 x_r0_g50 -1 x_r0_g54 -1 x_r0_g66 -2 x_r0_g73 -1 x_r0_g77 -1 x_r0_g88 -2 x_r0_g90 -1 x_r0_g95 -1 x_r0_g111 -2 x_r0_g112 -1 x_r0_g113 -1 x_r0_g116 -1 x_r0_g117 -1 x_r0_g118 -1 x_r0_g128 -1 x_r0_g132 -2 x_r0_g135 -1 x_r0_g139 -2 x_r0_g140 -1 x_r0_g152 -1 x_r0_g156 -1 x_r0_g162 -1 x_r1_g0 -1 x_r1_g15 -1 x_r1_g16 -1 x_r1_g20 -1 x_r1_g28 -1 x_r1_g33 -1 x_r1_g38 -1 x_r1_g41 -1 x_r1_g42 -2 x_r1_g43 -1 x_r1_g44 -1 x_r1_g58 -2 x_r1_g71 -1 x_r1_g73 -1 x_r1_g76 -1 x_r1_g85 -1 x_r1_g89 -1 x_r1_g126 -1 x_r1_g132 -1 x_r1_g157 -2 x_r2_g5 -1 x_r2_g7 -2 x_r2_g8 -2 x_r2_g13 -1 x_r2_g17 -1 x_r2_g29 -1 x_r2_g33 -1 x_r2_g34 -1 x_r2_g35 -2 x_r2_g56 -1 x_r2_g80 -1 x_r2_g93 -1 x_r2_g116 -1 x_r2_g118 -1 x_r2_g119 -1 x_r2_g125 -1 x_r2_g127 -1 x_r2_g131 -1 x_r2_g133 -1 x_r2_g138 -1 x_r2_g145 -1 x_r2_g146 -1 x_r2_g161 -1 x_r3_g6 -1 x_r3_g21 -1 x_r3_g24 -1 x_r3_g31 -1 x_r3_g52 -1 x_r3_g53 -1 x_r3_g54 -1 x_r3_g58 -1 x_r3_g68 -1 x_r3_g74 -2 x_r3_g78 -1 x_r3_g84 -1 x_r3_g97 -1 x_r3_g99 -2 x_r3_g110 -1 x_r3_g111 -1 x_r3_g124 -1 x_r3_g125 -1 x_r3_g132 -1 x_r3_g133 -2 x_r3_g136 -1 x_r3_g145 -2 x_r3_g146 -2 x_r3_g159 -1 p_r0_g13_h110_t70 -1 p_r0_g16_h113_t70 -1 p_r0_g35_h132_t70 -1 p_r0_g47_h144_t70 -1 p_r0_g95_h25_t70 -1 p_r0_g110_h40_t70 -1 p_r0_g116_h46_t70 -1 p_r0_g117_h47_t70 -1 p_r0_g136_h66_t70 -1 p_r0_g144_h74_t70 -1 p_r1_g19_h116_t70 -1 p_r1_g29_h126_t70 -1 p_r1_g31_h128_t70 -1 p_r1_g33_h130_t70 -1 p_r1_g35_h132_t70 -1 p_r1_g85_h15_t70 -1 p_r1_g89_h19_t70 -1 p_r1_g99_h29_t70 -1 p_r1_g101_h31_t70 -1 p_r1_g114_h44_t70 -1 p_r1_g116_h46_t70 -1 p_r1_g128_h58_t70 -1 p_r2_g14_h111_t70 -1 p_r2_g17_h114_t70 -1 p_r2_g34_h131_t70 -1 p_r2_g35_h132_t70 -1 p_r2_g41_h138_t70 -1 p_r2_g42_h139_t70 -1 p_r2_g48_h145_t70 -1 p_r2_g80_h10_t70 -1 p_r2_g111_h41_t70 -1 p_r2_g112_h42_t70 -1 p_r2_g118_h48_t70 -1 p_r3_g0_h97_t70 -1 p_r3_g63_h160_t70 -1 p_r3_g68_h165_t70 -1 p_r3_g74_h4_t70 -1 p_r3_g82_h12_t70 -1 p_r3_g99_h29_t70 -1 p_r3_g122_h52_t70 -1 p_r3_g124_h54_t70 -1 p_r3_g125_h55_t70 -1 p_r3_g133_h63_t70 = -55 ;
1 d_70 -1 u_70 <= 0 ;
-1 d_70 -1 u_70 <= 0 ;
1 u_70 -1 M <= 0 ;
1 u_70 <= 2 ;
1 p_r0_g16_h112_t71 -1 x_r0_g16 <= 0 ;
1 p_r0_g16_h112_t71 -1 x_r0_g112 <= 0 ;
1 p_r0_g16_h112_t71 -1 x_r0_g16 -1 x_r0_g112 >= -1 ;
1 p_r0_g22_h118_t71 -1 x_r0_g22 <= 0 ;
1 p_r0_g22_h118_t71 -1 x_r0_g118 <= 0 ;
1 p_r0_g22_h118_t71 -1 x_r0_g22 -1 x_r0_g118 >= -1 ;
1 p_r0_g40_h136_t71 -1 x_r0_g40 <= 0 ;
1 p_r0_g40_h136_t71 -1 x_r0_g136 <= 0 ;
1 p_r0_g40_h136_t71 -1 x_r0_g40 -1 x_r0_g136 >= -1 ;
1 p_r0_g44_h140_t71 -1 x_r0_g44 <= 0 ;
1 p_r0_g44_h140_t71 -1 x_r0_g140 <= 0 ;
1 p_r0_g44_h140_t71 -1 x_r0_g44 -1 x_r0_g140 >= -1 ;
1 p_r0_g66_h162_t71 -1 x_r0_g66 <= 0 ;
1 p_r0_g66_h162_t71 -1 x_r0_g162 <= 0 ;
1 p_r0_g66_h162_t71 -1 x_r0_g66 -1 x_r0_g162 >= -1 ;
1 p_r0_g77_h6_t71 -1 x_r0_g77 <= 0 ;
1 p_r0_g77_h6_t71 -1 x_r0_g6 <= 0 ;
1 p_r0_g77_h6_t71 -1 x_r0_g77 -1 x_r0_g6 >= -1 ;
1 p_r0_g111_h40_t71 -1 x_r0_g111 <= 0 ;
1 p_r0_g111_h40_t71 -1 x_r0_g40 <= 0 ;
1 p_r0_g111_h40_t71 -1 x_r0_g111 -1 x_r0_g40 >= -1 ;
1 p_r0_g117_h46_t71 -1 x_r0_g117 <= 0 ;
1 p_r0_g117_h46_t71 -1 x_r0_g46 <= 0 ;
1 p_r0_g117_h46_t71 -1 x_r0_g117 -1 x_r0_g46 >= -1 ;
1 p_r0_g118_h47_t71 -1 x_r0_g118 <= 0 ;
1 p_r0_g118_h47_t71 -1 x_r0_g47 <= 0 ;
1 p_r0_g118_h47_t71 -1 x_r0_g118 -1 x_r0_g47 >= -1 ;
1 p_r0_g144_h73_t71 -1 x_r0_g144 <= 0 ;
1 p_r0_g144_h73_t71 -1 x_r0_g73 <= 0 ;
1 p_r0_g144_h73_t71 -1 x_r0_g144 -1 x_r0_g73 >= -1 ;
1 p_r1_g20_h116_t71 -1 x_r1_g20 <= 0 ;
1 p_r1_g20_h116_t71 -1 x_r1_g116 <= 0 ;
1 p_r1_g20_h116_t71 -1 x_r1_g20 -1 x_r1_g116 >= -1 ;
1 p_r1_g35_h131_t71 -1 x_r1_g35 <= 0 ;
1 p_r1_g35_h131_t71 -1 x_r1_g131 <= 0 ;
1 p_r1_g35_h131_t71 -1 x_r1_g35 -1 x_r1_g131 >= -1 ;
1 p_r1_g36_h132_t71 -1 x_r1_g36 <= 0 ;
1 p_r1_g36_h132_t71 -1 x_r1_g132 <= 0 ;
1 p_r1_g36_h132_t71 -1 x_r1_g36 -1 x_r1_g132 >= -1 ;
1 p_r1_g71_h0_t71 -1 x_r1_g71 <= 0 ;
1 p_r1_g71_h0_t71 -1 x_r1_g0 <= 0 ;
1 p_r1_g71_h0_t71 -1 x_r1_g71 -1 x_r1_g0 >= -1 ;
1 p_r1_g91_h20_t71 -1 x_r1_g91 <= 0 ;
1 p_r1_g91_h20_t71 -1 x_r1_g20 <= 0 ;
1 p_r1_g91_h20_t71 -1 x_r1_g91 -1 x_r1_g20 >= -1 ;
1 p_r1_g99_h28_t71 -1 x_r1_g99 <= 0 ;
1 p_r1_g99_h28_t71 -1 x_r1_g28 <= 0 ;
1 p_r1_g99_h28_t71 -1 x_r1_g99 -1 x_r1_g28 >= -1 ;
1 p_r1_g114_h43_t71 -1 x_r1_g114 <= 0 ;
1 p_r1_g114_h43_t71 -1 x_r1_g43 <= 0 ;
1 p_r1_g114_h43_t71 -1 x_r1_g114 -1 x_r1_g43 >= -1 ;
1 p_r2_g10_h106_t71 -1 x_r2_g10 <= 0 ;
1 p_r2_g10_h106_t71 -1 x_r2_g106 <= 0 ;
1 p_r2_g10_h106_t71 -1 x_r2_g10 -1 x_r2_g106 >= -1 ;
1 p_r2_g29_h125_t71 -1 x_r2_g29 <= 0 ;
1 p_r2_g29_h125_t71 -1 x_r2_g125 <= 0 ;
1 p_r2_g29_h125_t71 -1 x_r2_g29 -1 x_r2_g125 >= -1 ;
1 p_r2_g35_h131_t71 -1 x_r2_g35 <= 0 ;
1 p_r2_g35_h131_t71 -1 x_r2_g131 <= 0 ;
1 p_r2_g35_h131_t71 -1 x_r2_g35 -1 x_r2_g131 >= -1 ;
1 p_r2_g42_h138_t71 -1 x_r2_g42 <= 0 ;
1 p_r2_g42_h138_t71 -1 x_r2_g138 <= 0 ;
1 p_r2_g42_h138_t71 -1 x_r2_g42 -1 x_r2_g138 >= -1 ;
1 p_r2_g85_h14_t71 -1 x_r2_g85 <= 0 ;
1 p_r2_g85_h14_t71 -1 x_r2_g14 <= 0 ;
1 p_r2_g85_h14_t71 -1 x_r2_g85 -1 x_r2_g14 >= -1 ;
1 p_r2_g106_h35_t71 -1 x_r2_g106 <= 0 ;
1 p_r2_g106_h35_t71 -1 x_r2_g35 <= 0 ;
1 p_r2_g106_h35_t71 -1 x_r2_g106 -1 x_r2_g35 >= -1 ;
1 p_r2_g112_h41_t71 -1 x_r2_g112 <= 0 ;
1 p_r2_g112_h41_t71 -1 x_r2_g41 <= 0 ;
1 p_r2_g112_h41_t71 -1 x_r2_g112 -1 x_r2_g41 >= -1 ;
1 p_r2_g118_h47_t71 -1 x_r2_g118 <= 0 ;
1 p_r2_g118_h47_t71 -1 x_r2_g47 <= 0 ;
1 p_r2_g118_h47_t71 -1 x_r2_g118 -1 x_r2_g47 >= -1 ;
1 p_r2_g119_h48_t71 -1 x_r2_g119 <= 0 ;
1 p_r2_g119_h48_t71 -1 x_r2_g48 <= 0 ;
1 p_r2_g119_h48_t71 -1 x_r2_g119 -1 x_r2_g48 >= -1 ;
1 p_r2_g127_h56_t71 -1 x_r2_g127 <= 0 ;
1 p_r2_g127_h56_t71 -1 x_r2_g56 <= 0 ;
1 p_r2_g127_h56_t71 -1 x_r2_g127 -1 x_r2_g56 >= -1 ;
1 p_r2_g151_h80_t71 -1 x_r2_g151 <= 0 ;
1 p_r2_g151_h80_t71 -1 x_r2_g80 <= 0 ;
1 p_r2_g151_h80_t71 -1 x_r2_g151 -1 x_r2_g80 >= -1 ;
1 p_r3_g29_h125_t71 -1 x_r3_g29 <= 0 ;
1 p_r3_g29_h125_t71 -1 x_r3_g125 <= 0 ;
1 p_r3_g29_h125_t71 -1 x_r3_g29 -1 x_r3_g125 >= -1 ;
1 p_r3_g63_h159_t71 -1 x_r3_g63 <= 0 ;
1 p_r3_g63_h159_t71 -1 x_r3_g159 <= 0 ;
1 p_r3_g63_h159_t71 -1 x_r3_g63 -1 x_r3_g159 >= -1 ;
1 p_r3_g77_h6_t71 -1 x_r3_g77 <= 0 ;
1 p_r3_g77_h6_t71 -1 x_r3_g6 <= 0 ;
1 p_r3_g77_h6_t71 -1 x_r3_g77 -1 x_r3_g6 >= -1 ;
1 p_r3_g124_h53_t71 -1 x_r3_g124 <= 0 ;
1 p_r3_g124_h53_t71 -1 x_r3_g53 <= 0 ;
1 p_r3_g124_h53_t71 -1 x_r3_g124 -1 x_r3_g53 >= -1 ;
1 p_r3_g125_h54_t71 -1 x_r3_g125 <= 0 ;
1 p_r3_g125_h54_t71 -1 x_r3_g54 <= 0 ;
1 p_r3_g125_h54_t71 -1 x_r3_g125 -1 x_r3_g54 >= -1 ;
1 p_r3_g132_h61_t71 -1 x_r3_g132 <= 0 ;
1 p_r3_g132_h61_t71 -1 x_r3_g61 <= 0 ;
1 p_r3_g132_h61_t71 -1 x_r3_g132 -1 x_r3_g61 >= -1 ;
1 p_r3_g139_h68_t71 -1 x_r3_g139 <= 0 ;
1 p_r3_g139_h68_t71 -1 x_r3_g68 <= 0 ;
1 p_r3_g139_h68_t71 -1 x_r3_g139 -1 x_r3_g68 >= -1 ;
1 p_r3_g145_h74_t71 -1 x_r3_g145 <= 0 ;
1 p_r3_g145_h74_t71 -1 x_r3_g74 <= 0 ;
1 p_r3_g145_h74_t71 -1 x_r3_g145 -1 x_r3_g74 >= -1 ;
1 d_71 -1 x_r0_g6 -1 x_r0_g23 -2 x_r0_g35 -1 x_r0_g46 -1 x_r0_g47 -1 x_r0_g49 -1 x_r0_g50 -1 x_r0_g54 -1 x_r0_g66 -1 x_r0_g74 -1 x_r0_g88 -1 x_r0_g90 -1 x_r0_g99 -2 x_r0_g101 -1 x_r0_g110 -1 x_r0_g111 -1 x_r0_g113 -2 x_r0_g116 -1 x_r0_g132 -1 x_r0_g136 -2 x_r0_g139 -1 x_r0_g144 -1 x_r1_g0 -2 x_r1_g16 -2 x_r1_g19 -1 x_r1_g28 -1 x_r1_g29 -1 x_r1_g31 -1 x_r1_g36 -1 x_r1_g38 -1 x_r1_g41 -2 x_r1_g42 -2 x_r1_g44 -1 x_r1_g48 -1 x_r1_g58 -1 x_r1_g82 -1 x_r1_g85 -2 x_r1_g89 -1 x_r1_g92 -1 x_r1_g99 -1 x_r1_g114 -2 x_r1_g128 -1 x_r1_g164 -1 x_r2_g5 -1 x_r2_g6 -1 x_r2_g7 -1 x_r2_g8 -1 x_r2_g14 -1 x_r2_g17 -1 x_r2_g27 -2 x_r2_g33 -2 x_r2_g34 -1 x_r2_g41 -1 x_r2_g42 -1 x_r2_g56 -2 x_r2_g114 -1 x_r2_g116 -1 x_r2_g127 -1 x_r2_g131 -1 x_r2_g132 -2 x_r2_g139 -2 x_r2_g145 -1 x_r2_g146 -2 x_r2_g161 -1 x_r3_g4 -2 x_r3_g12 -2 x_r3_g23 -1 x_r3_g31 -2 x_r3_g52 -1 x_r3_g53 -1 x_r3_g55 -2 x_r3_g58 -1 x_r3_g63 -1 x_r3_g77 -1 x_r3_g78 -1 x_r3_g84 -2 x_r3_g97 -1 x_r3_g99 -1 x_r3_g110 -1 x_r3_g111 -1 x_r3_g112 -1 x_r3_g122 -1 x_r3_g124 -1 x_r3_g132 -2 x_r3_g133 -2 x_r3_g136 -1 x_r3_g139 -1 x_r3_g145 -1 x_r3_g146 -1 x_r3_g160 -1 x_r3_g165 -1 p_r0_g16_h112_t71 -1 p_r0_g22_h118_t71 -1 p_r0_g40_h136_t71 -1 p_r0_g44_h140_t71 -1 p_r0_g66_h162_t71 -1 p_r0_g77_h6_t71 -1 p_r0_g111_h40_t71 -1 p_r0_g117_h46_t71 -1 p_r0_g118_h47_t71 -1 p_r0_g144_h73_t71 -1 p_r1_g20_h116_t71 -1 p_r1_g35_h131_t71 -1 p_r1_g36_h132_t71 -1 p_r1_g71_h0_t71 -1 p_r1_g91_h20_t71 -1 p_r1_g99_h28_t71 -1 p_r1_g114_h43_t71 -1 p_r2_g10_h106_t71 -1 p_r2_g29_h125_t71 -1 p_r2_g35_h131_t71 -1 p_r2_g42_h138_t71 -1 p_r2_g85_h14_t71 -1 p_r2_g106_h35_t71 -1 p_r2_g112_h41_t71 -1 p_r2_g118_h47_t71 -1 p_r2_g119_h48_t71 -1 p_r2_g127_h56_t71 -1 p_r2_g151_h80_t71 -1 p_r3_g29_h125_t71 -1 p_r3_g63_h159_t71 -1 p_r3_g77_h6_t71 -1 p_r3_g124_h53_t71 -1 p_r3_g125_h54_t71 -1 p_r3_g132_h61_t71 -1 p_r3_g139_h68_t71 -1 p_r3_g145_h74_t71 = -83 ;
1 d_71 -1 u_71 <= 0 ;
-1 d_71 -1 u_71 <= 0 ;
1 u_71 -1 M <= 0 ;
1 u_71 <= 3 ;
1 p_r0_g16_h110_t73 -1 x_r0_g16 <= 0 ;
1 p_r0_g16_h110_t73 -1 x_r0_g110 <= 0 ;
1 p_r0_g16_h110_t73 -1 x_r0_g16 -1 x_r0_g110 >= -1 ;
1 p_r0_g22_h116_t73 -1 x_r0_g22 <= 0 ;
1 p_r0_g22_h116_t73 -1 x_r0_g116 <= 0 ;
1 p_r0_g22_h116_t73 -1 x_r0_g22 -1 x_r0_g116 >= -1 ;
1 p_r0_g23_h117_t73 -1 x_r0_g23 <= 0 ;
1 p_r0_g23_h117_t73 -1 x_r0_g117 <= 0 ;
1 p_r0_g23_h117_t73 -1 x_r0_g23 -1 x_r0_g117 >= -1 ;
1 p_r0_g46_h140_t73 -1 x_r0_g46 <= 0 ;
1 p_r0_g46_h140_t73 -1 x_r0_g140 <= 0 ;
1 p_r0_g46_h140_t73 -1 x_r0_g46 -1 x_r0_g140 >= -1 ;
1 p_r0_g50_h144_t73 -1 x_r0_g50 <= 0 ;
1 p_r0_g50_h144_t73 -1 x_r0_g144 <= 0 ;
1 p_r0_g50_h144_t73 -1 x_r0_g50 -1 x_r0_g144 >= -1 ;
1 p_r0_g95_h22_t73 -1 x_r0_g95 <= 0 ;
1 p_r0_g95_h22_t73 -1 x_r0_g22 <= 0 ;
1 p_r0_g95_h22_t73 -1 x_r0_g95 -1 x_r0_g22 >= -1 ;
1 p_r0_g113_h40_t73 -1 x_r0_g113 <= 0 ;
1 p_r0_g113_h40_t73 -1 x_r0_g40 <= 0 ;
1 p_r0_g113_h40_t73 -1 x_r0_g113 -1 x_r0_g40 >= -1 ;
1 p_r0_g117_h44_t73 -1 x_r0_g117 <= 0 ;
1 p_r0_g117_h44_t73 -1 x_r0_g44 <= 0 ;
1 p_r0_g117_h44_t73 -1 x_r0_g117 -1 x_r0_g44 >= -1 ;
1 p_r0_g139_h66_t73 -1 x_r0_g139 <= 0 ;
1 p_r0_g139_h66_t73 -1 x_r0_g66 <= 0 ;
1 p_r0_g139_h66_t73 -1 x_r0_g139 -1 x_r0_g66 >= -1 ;
1 p_r1_g20_h114_t73 -1 x_r1_g20 <= 0 ;
1 p_r1_g20_h114_t73 -1 x_r1_g114 <= 0 ;
1 p_r1_g20_h114_t73 -1 x_r1_g20 -1 x_r1_g114 >= -1 ;
1 p_r1_g36_h130_t73 -1 x_r1_g36 <= 0 ;
1 p_r1_g36_h130_t73 -1 x_r1_g130 <= 0 ;
1 p_r1_g36_h130_t73 -1 x_r1_g36 -1 x_r1_g130 >= -1 ;
1 p_r1_g38_h132_t73 -1 x_r1_g38 <= 0 ;
1 p_r1_g38_h132_t73 -1 x_r1_g132 <= 0 ;
1 p_r1_g38_h132_t73 -1 x_r1_g38 -1 x_r1_g132 >= -1 ;
1 p_r1_g73_h0_t73 -1 x_r1_g73 <= 0 ;
1 p_r1_g73_h0_t73 -1 x_r1_g0 <= 0 ;
1 p_r1_g73_h0_t73 -1 x_r1_g73 -1 x_r1_g0 >= -1 ;
1 p_r1_g89_h16_t73 -1 x_r1_g89 <= 0 ;
1 p_r1_g89_h16_t73 -1 x_r1_g16 <= 0 ;
1 p_r1_g89_h16_t73 -1 x_r1_g89 -1 x_r1_g16 >= -1 ;
1 p_r1_g92_h19_t73 -1 x_r1_g92 <= 0 ;
1 p_r1_g92_h19_t73 -1 x_r1_g19 <= 0 ;
1 p_r1_g92_h19_t73 -1 x_r1_g92 -1 x_r1_g19 >= -1 ;
1 p_r1_g101_h28_t73 -1 x_r1_g101 <= 0 ;
1 p_r1_g101_h28_t73 -1 x_r1_g28 <= 0 ;
1 p_r1_g101_h28_t73 -1 x_r1_g101 -1 x_r1_g28 >= -1 ;
1 p_r1_g114_h41_t73 -1 x_r1_g114 <= 0 ;
1 p_r1_g114_h41_t73 -1 x_r1_g41 <= 0 ;
1 p_r1_g114_h41_t73 -1 x_r1_g114 -1 x_r1_g41 >= -1 ;
1 p_r1_g116_h43_t73 -1 x_r1_g116 <= 0 ;
1 p_r1_g116_h43_t73 -1 x_r1_g43 <= 0 ;
1 p_r1_g116_h43_t73 -1 x_r1_g116 -1 x_r1_g43 >= -1 ;
1 p_r1_g131_h58_t73 -1 x_r1_g131 <= 0 ;
1 p_r1_g131_h58_t73 -1 x_r1_g58 <= 0 ;
1 p_r1_g131_h58_t73 -1 x_r1_g131 -1 x_r1_g58 >= -1 ;
1 p_r1_g164_h91_t73 -1 x_r1_g164 <= 0 ;
1 p_r1_g164_h91_t73 -1 x_r1_g91 <= 0 ;
1 p_r1_g164_h91_t73 -1 x_r1_g164 -1 x_r1_g91 >= -1 ;
1 p_r2_g17_h111_t73 -1 x_r2_g17 <= 0 ;
1 p_r2_g17_h111_t73 -1 x_r2_g111 <= 0 ;
1 p_r2_g17_h111_t73 -1 x_r2_g17 -1 x_r2_g111 >= -1 ;
1 p_r2_g33_h127_t73 -1 x_r2_g33 <= 0 ;
1 p_r2_g33_h127_t73 -1 x_r2_g127 <= 0 ;
1 p_r2_g33_h127_t73 -1 x_r2_g33 -1 x_r2_g127 >= -1 ;
1 p_r2_g47_h141_t73 -1 x_r2_g47 <= 0 ;
1 p_r2_g47_h141_t73 -1 x_r2_g141 <= 0 ;
1 p_r2_g47_h141_t73 -1 x_r2_g47 -1 x_r2_g141 >= -1 ;
1 p_r2_g80_h7_t73 -1 x_r2_g80 <= 0 ;
1 p_r2_g80_h7_t73 -1 x_r2_g7 <= 0 ;
1 p_r2_g80_h7_t73 -1 x_r2_g80 -1 x_r2_g7 >= -1 ;
1 p_r2_g106_h33_t73 -1 x_r2_g106 <= 0 ;
1 p_r2_g106_h33_t73 -1 x_r2_g33 <= 0 ;
1 p_r2_g106_h33_t73 -1 x_r2_g106 -1 x_r2_g33 >= -1 ;
1 p_r2_g114_h41_t73 -1 x_r2_g114 <= 0 ;
1 p_r2_g114_h41_t73 -1 x_r2_g41 <= 0 ;
1 p_r2_g114_h41_t73 -1 x_r2_g114 -1 x_r2_g41 >= -1 ;
1 p_r3_g31_h125_t73 -1 x_r3_g31 <= 0 ;
1 p_r3_g31_h125_t73 -1 x_r3_g125 <= 0 ;
1 p_r3_g31_h125_t73 -1 x_r3_g31 -1 x_r3_g125 >= -1 ;
1 p_r3_g52_h146_t73 -1 x_r3_g52 <= 0 ;
1 p_r3_g52_h146_t73 -1 x_r3_g146 <= 0 ;
1 p_r3_g52_h146_t73 -1 x_r3_g52 -1 x_r3_g146 >= -1 ;
1 p_r3_g77_h4_t73 -1 x_r3_g77 <= 0 ;
1 p_r3_g77_h4_t73 -1 x_r3_g4 <= 0 ;
1 p_r3_g77_h4_t73 -1 x_r3_g77 -1 x_r3_g4 >= -1 ;
1 p_r3_g97_h24_t73 -1 x_r3_g97 <= 0 ;
1 p_r3_g97_h24_t73 -1 x_r3_g24 <= 0 ;
1 p_r3_g97_h24_t73 -1 x_r3_g97 -1 x_r3_g24 >= -1 ;
1 p_r3_g125_h52_t73 -1 x_r3_g125 <= 0 ;
1 p_r3_g125_h52_t73 -1 x_r3_g52 <= 0 ;
1 p_r3_g125_h52_t73 -1 x_r3_g125 -1 x_r3_g52 >= -1 ;
1 p_r3_g133_h60_t73 -1 x_r3_g133 <= 0 ;
1 p_r3_g133_h60_t73 -1 x_r3_g60 <= 0 ;
1 p_r3_g133_h60_t73 -1 x_r3_g133 -1 x_r3_g60 >= -1 ;
1 p_r3_g136_h63_t73 -1 x_r3_g136 <= 0 ;
1 p_r3_g136_h63_t73 -1 x_r3_g63 <= 0 ;
1 p_r3_g136_h63_t73 -1 x_r3_g136 -1 x_r3_g63 >= -1 ;
1 d_73 -1 x_r0_g6 -2 x_r0_g25 -1 x_r0_g46 -1 x_r0_g47 -2 x_r0_g49 -1 x_r0_g50 -1 x_r0_g54 -1 x_r0_g66 -1 x_r0_g73 -1 x_r0_g88 -1 x_r0_g90 -1 x_r0_g99 -1 x_r0_g101 -1 x_r0_g110 -1 x_r0_g111 -1 x_r0_g113 -1 x_r0_g116 -1 x_r0_g118 -2 x_r0_g128 -2 x_r0_g132 -1 x_r0_g135 -2 x_r0_g136 -1 x_r0_g139 -1 x_r0_g140 -1 x_r0_g152 -1 x_r0_g156 -1 x_r0_g162 -2 x_r1_g15 -1 x_r1_g19 -1 x_r1_g29 -1 x_r1_g33 -1 x_r1_g35 -1 x_r1_g36 -1 x_r1_g42 -1 x_r1_g44 -2 x_r1_g46 -1 x_r1_g73 -1 x_r1_g76 -1 x_r1_g82 -1 x_r1_g91 -1 x_r1_g99 -2 x_r1_g126 -1 x_r1_g130 -1 x_r1_g131 -1 x_r1_g157 -1 x_r1_g164 -1 x_r2_g5 -1 x_r2_g7 -1 x_r2_g8 -2 x_r2_g10 -1 x_r2_g13 -1 x_r2_g14 -1 x_r2_g17 -1 x_r2_g27 -1 x_r2_g29 -1 x_r2_g34 -1 x_r2_g35 -2 x_r2_g42 -1 x_r2_g47 -1 x_r2_g48 -2 x_r2_g56 -1 x_r2_g80 -1 x_r2_g85 -1 x_r2_g93 -2 x_r2_g112 -1 x_r2_g114 -1 x_r2_g116 -2 x_r2_g119 -1 x_r2_g125 -1 x_r2_g131 -2 x_r2_g133 -1 x_r2_g138 -1 x_r2_g141 -1 x_r2_g151 -1 x_r3_g0 -1 x_r3_g4 -1 x_r3_g12 -1 x_r3_g21 -1 x_r3_g24 -1 x_r3_g29 -2 x_r3_g54 -2 x_r3_g55 -1 x_r3_g60 -1 x_r3_g61 -1 x_r3_g68 -1 x_r3_g74 -2 x_r3_g78 -1 x_r3_g82 -2 x_r3_g99 -1 x_r3_g110 -2 x_r3_g111 -2 x_r3_g112 -2 x_r3_g122 -1 x_r3_g124 -2 x_r3_g132 -1 x_r3_g133 -2 x_r3_g139 -2 x_r3_g159 -1 x_r3_g160 -1 p_r0_g16_h110_t73 -1 p_r0_g22_h116_t73 -1 p_r0_g23_h117_t73 -1 p_r0_g46_h140_t73 -1 p_r0_g50_h144_t73 -1 p_r0_g95_h22_t73 -1 p_r0_g113_h40_t73 -1 p_r0_g117_h44_t73 -1 p_r0_g139_h66_t73 -1 p_r1_g20_h114_t73 -1 p_r1_g36_h130_t73 -1 p_r1_g38_h132_t73 -1 p_r1_g73_h0_t73 -1 p_r1_g89_h16_t73 -1 p_r1_g92_h19_t73 -1 p_r1_g101_h28_t73 -1 p_r1_g114_h41_t73 -1 p_r1_g116_h43_t73 -1 p_r1_g131_h58_t73 -1 p_r1_g164_h91_t73 -1 p_r2_g17_h111_t73 -1 p_r2_g33_h127_t73 -1 p_r2_g47_h141_t73 -1 p_r2_g80_h7_t73 -1 p_r2_g106_h33_t73 -1 p_r2_g114_h41_t73 -1 p_r3_g31_h125_t73 -1 p_r3_g52_h146_t73 -1 p_r3_g77_h4_t73 -1 p_r3_g97_h24_t73 -1 p_r3_g125_h52_t73 -1 p_r3_g133_h60_t73 -1 p_r3_g136_h63_t73 = -81 ;
1 d_73 -1 u_73 <= 0 ;
-1 d_73 -1 u_73 <= 0 ;
1 u_73 -1 M <= 0 ;
1 u_73 <= 2 ;
1 p_r0_g23_h110_t80 -1 x_r0_g23 <= 0 ;
1 p_r0_g23_h110_t80 -1 x_r0_g110 <= 0 ;
1 p_r0_g23_h110_t80 -1 x_r0_g23 -1 x_r0_g110 >= -1 ;
1 p_r0_g25_h112_t80 -1 x_r0_g25 <= 0 ;
1 p_r0_g25_h112_t80 -1 x_r0_g112 <= 0 ;
1 p_r0_g25_h112_t80 -1 x_r0_g25 -1 x_r0_g112 >= -1 ;
1 p_r0_g49_h136_t80 -1 x_r0_g49 <= 0 ;
1 p_r0_g49_h136_t80 -1 x_r0_g136 <= 0 ;
1 p_r0_g49_h136_t80 -1 x_r0_g49 -1 x_r0_g136 >= -1 ;
1 p_r1_g29_h116_t80 -1 x_r1_g29 <= 0 ;
1 p_r1_g29_h116_t80 -1 x_r1_g116 <= 0 ;
1 p_r1_g29_h116_t80 -1 x_r1_g29 -1 x_r1_g116 >= -1 ;
1 p_r1_g41_h128_t80 -1 x_r1_g41 <= 0 ;
1 p_r1_g41_h128_t80 -1 x_r1_g128 <= 0 ;
1 p_r1_g41_h128_t80 -1 x_r1_g41 -1 x_r1_g128 >= -1 ;
1 p_r1_g43_h130_t80 -1 x_r1_g43 <= 0 ;
1 p_r1_g43_h130_t80 -1 x_r1_g130 <= 0 ;
1 p_r1_g43_h130_t80 -1 x_r1_g43 -1 x_r1_g130 >= -1 ;
1 p_r1_g44_h131_t80 -1 x_r1_g44 <= 0 ;
1 p_r1_g44_h131_t80 -1 x_r1_g131 <= 0 ;
1 p_r1_g44_h131_t80 -1 x_r1_g44 -1 x_r1_g131 >= -1 ;
1 p_r1_g77_h164_t80 -1 x_r1_g77 <= 0 ;
1 p_r1_g77_h164_t80 -1 x_r1_g164 <= 0 ;
1 p_r1_g77_h164_t80 -1 x_r1_g77 -1 x_r1_g164 >= -1 ;
1 p_r1_g99_h19_t80 -1 x_r1_g99 <= 0 ;
1 p_r1_g99_h19_t80 -1 x_r1_g19 <= 0 ;
1 p_r1_g99_h19_t80 -1 x_r1_g99 -1 x_r1_g19 >= -1 ;
1 p_r1_g116_h36_t80 -1 x_r1_g116 <= 0 ;
1 p_r1_g116_h36_t80 -1 x_r1_g36 <= 0 ;
1 p_r1_g116_h36_t80 -1 x_r1_g116 -1 x_r1_g36 >= -1 ;
1 p_r1_g126_h46_t80 -1 x_r1_g126 <= 0 ;
1 p_r1_g126_h46_t80 -1 x_r1_g46 <= 0 ;
1 p_r1_g126_h46_t80 -1 x_r1_g126 -1 x_r1_g46 >= -1 ;
1 p_r1_g128_h48_t80 -1 x_r1_g128 <= 0 ;
1 p_r1_g128_h48_t80 -1 x_r1_g48 <= 0 ;
1 p_r1_g128_h48_t80 -1 x_r1_g128 -1 x_r1_g48 >= -1 ;
1 p_r1_g157_h77_t80 -1 x_r1_g157 <= 0 ;
1 p_r1_g157_h77_t80 -1 x_r1_g77 <= 0 ;
1 p_r1_g157_h77_t80 -1 x_r1_g157 -1 x_r1_g77 >= -1 ;
1 p_r2_g6_h93_t80 -1 x_r2_g6 <= 0 ;
1 p_r2_g6_h93_t80 -1 x_r2_g93 <= 0 ;
1 p_r2_g6_h93_t80 -1 x_r2_g6 -1 x_r2_g93 >= -1 ;
1 p_r2_g27_h114_t80 -1 x_r2_g27 <= 0 ;
1 p_r2_g27_h114_t80 -1 x_r2_g114 <= 0 ;
1 p_r2_g27_h114_t80 -1 x_r2_g27 -1 x_r2_g114 >= -1 ;
1 p_r2_g29_h116_t80 -1 x_r2_g29 <= 0 ;
1 p_r2_g29_h116_t80 -1 x_r2_g116 <= 0 ;
1 p_r2_g29_h116_t80 -1 x_r2_g29 -1 x_r2_g116 >= -1 ;
1 p_r2_g85_h5_t80 -1 x_r2_g85 <= 0 ;
1 p_r2_g85_h5_t80 -1 x_r2_g5 <= 0 ;
1 p_r2_g85_h5_t80 -1 x_r2_g85 -1 x_r2_g5 >= -1 ;
1 p_r2_g93_h13_t80 -1 x_r2_g93 <= 0 ;
1 p_r2_g93_h13_t80 -1 x_r2_g13 <= 0 ;
1 p_r2_g93_h13_t80 -1 x_r2_g93 -1 x_r2_g13 >= -1 ;
1 p_r2_g114_h34_t80 -1 x_r2_g114 <= 0 ;
1 p_r2_g114_h34_t80 -1 x_r2_g34 <= 0 ;
1 p_r2_g114_h34_t80 -1 x_r2_g114 -1 x_r2_g34 >= -1 ;
1 p_r2_g127_h47_t80 -1 x_r2_g127 <= 0 ;
1 p_r2_g127_h47_t80 -1 x_r2_g47 <= 0 ;
1 p_r2_g127_h47_t80 -1 x_r2_g127 -1 x_r2_g47 >= -1 ;
1 p_r3_g12_h99_t80 -1 x_r3_g12 <= 0 ;
1 p_r3_g12_h99_t80 -1 x_r3_g99 <= 0 ;
1 p_r3_g12_h99_t80 -1 x_r3_g12 -1 x_r3_g99 >= -1 ;
1 p_r3_g23_h110_t80 -1 x_r3_g23 <= 0 ;
1 p_r3_g23_h110_t80 -1 x_r3_g110 <= 0 ;
1 p_r3_g23_h110_t80 -1 x_r3_g23 -1 x_r3_g110 >= -1 ;
1 p_r3_g24_h111_t80 -1 x_r3_g24 <= 0 ;
1 p_r3_g24_h111_t80 -1 x_r3_g111 <= 0 ;
1 p_r3_g24_h111_t80 -1 x_r3_g24 -1 x_r3_g111 >= -1 ;
1 p_r3_g52_h139_t80 -1 x_r3_g52 <= 0 ;
1 p_r3_g52_h139_t80 -1 x_r3_g139 <= 0 ;
1 p_r3_g52_h139_t80 -1 x_r3_g52 -1 x_r3_g139 >= -1 ;
1 p_r3_g58_h145_t80 -1 x_r3_g58 <= 0 ;
1 p_r3_g58_h145_t80 -1 x_r3_g145 <= 0 ;
1 p_r3_g58_h145_t80 -1 x_r3_g58 -1 x_r3_g145 >= -1 ;
1 p_r3_g78_h165_t80 -1 x_r3_g78 <= 0 ;
1 p_r3_g78_h165_t80 -1 x_r3_g165 <= 0 ;
1 p_r3_g78_h165_t80 -1 x_r3_g78 -1 x_r3_g165 >= -1 ;
1 p_r3_g84_h4_t80 -1 x_r3_g84 <= 0 ;
1 p_r3_g84_h4_t80 -1 x_r3_g4 <= 0 ;
1 p_r3_g84_h4_t80 -1 x_r3_g84 -1 x_r3_g4 >= -1 ;
1 p_r3_g111_h31_t80 -1 x_r3_g111 <= 0 ;
1 p_r3_g111_h31_t80 -1 x_r3_g31 <= 0 ;
1 p_r3_g111_h31_t80 -1 x_r3_g111 -1 x_r3_g31 >= -1 ;
1 p_r3_g132_h52_t80 -1 x_r3_g132 <= 0 ;
1 p_r3_g132_h52_t80 -1 x_r3_g52 <= 0 ;
1 p_r3_g132_h52_t80 -1 x_r3_g132 -1 x_r3_g52 >= -1 ;
1 p_r3_g133_h53_t80 -1 x_r3_g133 <= 0 ;
1 p_r3_g133_h53_t80 -1 x_r3_g53 <= 0 ;
1 p_r3_g133_h53_t80 -1 x_r3_g133 -1 x_r3_g53 >= -1 ;
1 d_80 -1 x_r0_g13 -1 x_r0_g16 -1 x_r0_g22 -1 x_r0_g23 -1 x_r0_g35 -2 x_r0_g40 -1 x_r0_g44 -1 x_r0_g46 -1 x_r0_g47 -1 x_r0_g50 -1 x_r0_g66 -1 x_r0_g73 -1 x_r0_g77 -1 x_r0_g90 -1 x_r0_g95 -2 x_r0_g99 -1 x_r0_g101 -1 x_r0_g110 -1 x_r0_g116 -2 x_r0_g117 -1 x_r0_g118 -1 x_r0_g128 -2 x_r0_g132 -2 x_r0_g135 -2 x_r0_g139 -1 x_r0_g152 -2 x_r1_g0 -1 x_r1_g15 -2 x_r1_g16 -2 x_r1_g20 -2 x_r1_g28 -1 x_r1_g29 -1 x_r1_g33 -1 x_r1_g35 -1 x_r1_g36 -1 x_r1_g43 -1 x_r1_g44 -1 x_r1_g58 -1 x_r1_g73 -2 x_r1_g76 -1 x_r1_g91 -1 x_r1_g114 -1 x_r1_g126 -1 x_r1_g157 -1 x_r1_g164 -1 x_r2_g6 -2 x_r2_g7 -1 x_r2_g10 -2 x_r2_g14 -1 x_r2_g17 -2 x_r2_g33 -1 x_r2_g34 -2 x_r2_g35 -2 x_r2_g41 -2 x_r2_g42 -1 x_r2_g47 -1 x_r2_g48 -1 x_r2_g56 -2 x_r2_g80 -1 x_r2_g85 -1 x_r2_g106 -1 x_r2_g111 -1 x_r2_g112 -1 x_r2_g118 -1 x_r2_g119 -1 x_r2_g133 -1 x_r2_g138 -1 x_r2_g141 -2 x_r2_g145 -1 x_r2_g151 -1 x_r2_g161 -1 x_r3_g0 -1 x_r3_g6 -1 x_r3_g21 -1 x_r3_g31 -1 x_r3_g53 -1 x_r3_g54 -1 x_r3_g55 -1 x_r3_g58 -1 x_r3_g60 -1 x_r3_g61 -1 x_r3_g63 -1 x_r3_g68 -1 x_r3_g74 -2 x_r3_g82 -1 x_r3_g97 -1 x_r3_g99 -1 x_r3_g110 -1 x_r3_g112 -1 x_r3_g124 -2 x_r3_g125 -1 x_r3_g132 -1 x_r3_g133 -1 x_r3_g136 -1 x_r3_g139 -1 x_r3_g145 -2 x_r3_g146 -1 x_r3_g160 -1 p_r0_g23_h110_t80 -1 p_r0_g25_h112_t80 -1 p_r0_g49_h136_t80 -1 p_r1_g29_h116_t80 -1 p_r1_g41_h128_t80 -1 p_r1_g43_h130_t80 -1 p_r1_g44_h131_t80 -1 p_r1_g77_h164_t80 -1 p_r1_g99_h19_t80 -1 p_r1_g116_h36_t80 -1 p_r1_g126_h46_t80 -1 p_r1_g128_h48_t80 -1 p_r1_g157_h77_t80 -1 p_r2_g6_h93_t80 -1 p_r2_g27_h114_t80 -1 p_r2_g29_h116_t80 -1 p_r2_g85_h5_t80 -1 p_r2_g93_h13_t80 -1 p_r2_g114_h34_t80 -1 p_r2_g127_h47_t80 -1 p_r3_g12_h99_t80 -1 p_r3_g23_h110_t80 -1 p_r3_g24_h111_t80 -1 p_r3_g52_h139_t80 -1 p_r3_g58_h145_t80 -1 p_r3_g78_h165_t80 -1 p_r3_g84_h4_t80 -1 p_r3_g111_h31_t80 -1 p_r3_g132_h52_t80 -1 p_r3_g133_h53_t80 = -63 ;
1 d_80 -1 u_80 <= 0 ;
-1 d_80 -1 u_80 <= 0 ;
1 u_80 -1 M <= 0 ;
1 u_80 <= 1 ;
1 M <= 3 ;
1 u_1 1 u_2 1 u_3 1 u_4 1 u_6 1 u_8 1 u_11 1 u_13 1 u_14 1 u_15 1 u_17 1 u_19 1 u_22 1 u_34 1 u_40 1 u_41 1 u_42 1 u_43 1 u_45 1 u_46 1 u_47 10 u_49 1 u_60 1 u_64 1 u_66 1 u_67 1 u_68 1 u_69 1 u_70 10 u_71 1 u_73 1 u_80 <= 90 ;
1 F -1 x_r0_g16 -1 x_r0_g22 -1 x_r0_g23 -1 x_r0_g35 -1 x_r0_g44 -1 x_r0_g46 -1 x_r0_g50 -1 x_r0_g66 -1 x_r0_g73 -1 x_r0_g95 -1 x_r0_g99 -1 x_r0_g110 -1 x_r0_g112 -1 x_r0_g117 -1 x_r0_g128 -1 x_r0_g135 -1 x_r0_g140 -1 x_r0_g144 -1 x_r0_g156 -1 x_r0_g162 -1 x_r1_g0 -1 x_r1_g19 -1 x_r1_g28 -1 x_r1_g33 -1 x_r1_g35 -1 x_r1_g41 -1 x_r1_g43 -1 x_r1_g48 -1 x_r1_g58 -1 x_r1_g71 -1 x_r1_g73 -1 x_r1_g76 -1 x_r1_g77 -1 x_r1_g85 -1 x_r1_g92 -1 x_r1_g99 -1 x_r1_g101 -1 x_r1_g116 -1 x_r1_g126 -1 x_r1_g131 -1 x_r2_g5 -1 x_r2_g6 -1 x_r2_g8 -1 x_r2_g10 -1 x_r2_g13 -1 x_r2_g17 -1 x_r2_g29 -1 x_r2_g35 -1 x_r2_g42 -1 x_r2_g47 -1 x_r2_g93 -1 x_r2_g106 -1 x_r2_g111 -1 x_r2_g118 -1 x_r2_g125 -1 x_r2_g131 -1 x_r2_g133 -1 x_r2_g138 -1 x_r2_g141 -1 x_r2_g145 -1 x_r3_g0 -1 x_r3_g21 -1 x_r3_g23 -1 x_r3_g24 -1 x_r3_g29 -1 x_r3_g31 -1 x_r3_g52 -1 x_r3_g54 -1 x_r3_g58 -1 x_r3_g60 -1 x_r3_g63 -1 x_r3_g82 -1 x_r3_g84 -1 x_r3_g97 -1 x_r3_g125 -1 x_r3_g133 -1 x_r3_g136 -1 x_r3_g146 -1 x_r3_g159 -1 x_r3_g165 1 x_r0_g6 1 x_r0_g13 1 x_r0_g25 1 x_r0_g40 1 x_r0_g47 1 x_r0_g49 1 x_r0_g54 1 x_r0_g74 1 x_r0_g77 1 x_r0_g88 1 x_r0_g90 1 x_r0_g101 1 x_r0_g111 1 x_r0_g113 1 x_r0_g116 1 x_r0_g118 1 x_r0_g132 1 x_r0_g136 1 x_r0_g139 1 x_r0_g152 1 x_r1_g15 1 x_r1_g16 1 x_r1_g20 1 x_r1_g29 1 x_r1_g31 1 x_r1_g36 1 x_r1_g38 1 x_r1_g42 1 x_r1_g44 1 x_r1_g46 1 x_r1_g78 1 x_r1_g82 1 x_r1_g89 1 x_r1_g91 1 x_r1_g114 1 x_r1_g128 1 x_r1_g130 1 x_r1_g132 1 x_r1_g157 1 x_r1_g164 1 x_r2_g7 1 x_r2_g14 1 x_r2_g27 1 x_r2_g33 1 x_r2_g34 1 x_r2_g41 1 x_r2_g48 1 x_r2_g56 1 x_r2_g80 1 x_r2_g85 1 x_r2_g112 1 x_r2_g114 1 x_r2_g116 1 x_r2_g119 1 x_r2_g127 1 x_r2_g132 1 x_r2_g139 1 x_r2_g146 1 x_r2_g151 1 x_r2_g161 1 x_r3_g4 1 x_r3_g6 1 x_r3_g12 1 x_r3_g53 1 x_r3_g55 1 x_r3_g61 1 x_r3_g68 1 x_r3_g74 1 x_r3_g77 1 x_r3_g78 1 x_r3_g99 1 x_r3_g110 1 x_r3_g111 1 x_r3_g112 1 x_r3_g122 1 x_r3_g124 1 x_r3_g132 1 x_r3_g139 1 x_r3_g145 1 x_r3_g160 = 80 ;
1 F <= 6 ;
