* #variable= 681 #constraint= 1553
* int d_4 d_13 d_26 d_29 d_37 d_38 d_44 d_58 d_62 d_64 d_69 d_75 u_4 u_13 u_26 u_29 u_37 u_38 u_44 u_58 u_62 u_64 u_69 u_75 M F ;
min: 1 M ;
1 x_r0_g1 1 x_r0_g8 1 x_r0_g22 1 x_r0_g23 1 x_r0_g26 1 x_r0_g34 1 x_r0_g35 1 x_r0_g38 1 x_r0_g45 1 x_r0_g47 1 x_r0_g51 1 x_r0_g54 1 x_r0_g60 1 x_r0_g62 1 x_r0_g67 1 x_r0_g68 1 x_r0_g69 1 x_r0_g70 1 x_r0_g79 1 x_r0_g87 1 x_r0_g88 1 x_r0_g89 1 x_r0_g91 1 x_r0_g92 1 x_r0_g93 1 x_r0_g95 1 x_r0_g97 1 x_r0_g101 1 x_r0_g108 1 x_r0_g114 1 x_r0_g116 1 x_r0_g118 1 x_r0_g123 1 x_r0_g130 1 x_r0_g132 1 x_r0_g139 1 x_r0_g144 1 x_r0_g146 1 x_r0_g150 1 x_r0_g152 = 20 ;
1 x_r1_g2 1 x_r1_g8 1 x_r1_g10 1 x_r1_g11 1 x_r1_g15 1 x_r1_g17 1 x_r1_g20 1 x_r1_g27 1 x_r1_g28 1 x_r1_g29 1 x_r1_g31 1 x_r1_g33 1 x_r1_g38 1 x_r1_g41 1 x_r1_g42 1 x_r1_g47 1 x_r1_g51 1 x_r1_g57 1 x_r1_g59 1 x_r1_g60 1 x_r1_g67 1 x_r1_g71 1 x_r1_g73 1 x_r1_g75 1 x_r1_g83 1 x_r1_g86 1 x_r1_g91 1 x_r1_g95 1 x_r1_g96 1 x_r1_g108 1 x_r1_g113 1 x_r1_g114 1 x_r1_g117 1 x_r1_g125 1 x_r1_g138 1 x_r1_g152 1 x_r1_g160 1 x_r1_g161 1 x_r1_g164 1 x_r1_g166 = 20 ;
1 x_r2_g0 1 x_r2_g2 1 x_r2_g7 1 x_r2_g8 1 x_r2_g12 1 x_r2_g18 1 x_r2_g19 1 x_r2_g21 1 x_r2_g30 1 x_r2_g48 1 x_r2_g60 1 x_r2_g65 1 x_r2_g69 1 x_r2_g72 1 x_r2_g73 1 x_r2_g77 1 x_r2_g80 1 x_r2_g82 1 x_r2_g92 1 x_r2_g94 1 x_r2_g97 1 x_r2_g100 1 x_r2_g107 1 x_r2_g110 1 x_r2_g111 1 x_r2_g126 1 x_r2_g128 1 x_r2_g129 1 x_r2_g132 1 x_r2_g136 1 x_r2_g140 1 x_r2_g142 1 x_r2_g145 1 x_r2_g146 1 x_r2_g149 1 x_r2_g152 1 x_r2_g158 1 x_r2_g162 1 x_r2_g164 1 x_r2_g165 = 20 ;
1 x_r3_g7 1 x_r3_g8 1 x_r3_g11 1 x_r3_g13 1 x_r3_g15 1 x_r3_g16 1 x_r3_g19 1 x_r3_g20 1 x_r3_g24 1 x_r3_g33 1 x_r3_g36 1 x_r3_g40 1 x_r3_g52 1 x_r3_g53 1 x_r3_g56 1 x_r3_g57 1 x_r3_g59 1 x_r3_g65 1 x_r3_g67 1 x_r3_g68 1 x_r3_g69 1 x_r3_g76 1 x_r3_g80 1 x_r3_g90 1 x_r3_g95 1 x_r3_g100 1 x_r3_g103 1 x_r3_g105 1 x_r3_g111 1 x_r3_g124 1 x_r3_g128 1 x_r3_g134 1 x_r3_g137 1 x_r3_g138 1 x_r3_g144 1 x_r3_g145 1 x_r3_g156 1 x_r3_g157 1 x_r3_g161 1 x_r3_g165 = 20 ;
1 p_r0_g26_h22_t4 -1 x_r0_g26 <= 0 ;
1 p_r0_g26_h22_t4 -1 x_r0_g22 <= 0 ;
1 p_r0_g26_h22_t4 -1 x_r0_g26 -1 x_r0_g22 >= -1 ;
1 p_r0_g38_h34_t4 -1 x_r0_g38 <= 0 ;
1 p_r0_g38_h34_t4 -1 x_r0_g34 <= 0 ;
1 p_r0_g38_h34_t4 -1 x_r0_g38 -1 x_r0_g34 >= -1 ;
1 p_r0_g51_h47_t4 -1 x_r0_g51 <= 0 ;
1 p_r0_g51_h47_t4 -1 x_r0_g47 <= 0 ;
1 p_r0_g51_h47_t4 -1 x_r0_g51 -1 x_r0_g47 >= -1 ;
1 p_r0_g91_h87_t4 -1 x_r0_g91 <= 0 ;
1 p_r0_g91_h87_t4 -1 x_r0_g87 <= 0 ;
1 p_r0_g91_h87_t4 -1 x_r0_g91 -1 x_r0_g87 >= -1 ;
1 p_r0_g92_h88_t4 -1 x_r0_g92 <= 0 ;
1 p_r0_g92_h88_t4 -1 x_r0_g88 <= 0 ;
1 p_r0_g92_h88_t4 -1 x_r0_g92 -1 x_r0_g88 >= -1 ;
1 p_r0_g93_h89_t4 -1 x_r0_g93 <= 0 ;
1 p_r0_g93_h89_t4 -1 x_r0_g89 <= 0 ;
1 p_r0_g93_h89_t4 -1 x_r0_g93 -1 x_r0_g89 >= -1 ;
1 p_r0_g95_h91_t4 -1 x_r0_g95 <= 0 ;
1 p_r0_g95_h91_t4 -1 x_r0_g91 <= 0 ;
1 p_r0_g95_h91_t4 -1 x_r0_g95 -1 x_r0_g91 >= -1 ;
1 p_r0_g97_h93_t4 -1 x_r0_g97 <= 0 ;
1 p_r0_g97_h93_t4 -1 x_r0_g93 <= 0 ;
1 p_r0_g97_h93_t4 -1 x_r0_g97 -1 x_r0_g93 >= -1 ;
1 p_r0_g101_h97_t4 -1 x_r0_g101 <= 0 ;
1 p_r0_g101_h97_t4 -1 x_r0_g97 <= 0 ;
1 p_r0_g101_h97_t4 -1 x_r0_g101 -1 x_r0_g97 >= -1 ;
1 p_r0_g118_h114_t4 -1 x_r0_g118 <= 0 ;
1 p_r0_g118_h114_t4 -1 x_r0_g114 <= 0 ;
1 p_r0_g118_h114_t4 -1 x_r0_g118 -1 x_r0_g114 >= -1 ;
1 p_r0_g150_h146_t4 -1 x_r0_g150 <= 0 ;
1 p_r0_g150_h146_t4 -1 x_r0_g146 <= 0 ;
1 p_r0_g150_h146_t4 -1 x_r0_g150 -1 x_r0_g146 >= -1 ;
1 p_r1_g15_h11_t4 -1 x_r1_g15 <= 0 ;
1 p_r1_g15_h11_t4 -1 x_r1_g11 <= 0 ;
1 p_r1_g15_h11_t4 -1 x_r1_g15 -1 x_r1_g11 >= -1 ;
1 p_r1_g31_h27_t4 -1 x_r1_g31 <= 0 ;
1 p_r1_g31_h27_t4 -1 x_r1_g27 <= 0 ;
1 p_r1_g31_h27_t4 -1 x_r1_g31 -1 x_r1_g27 >= -1 ;
1 p_r1_g33_h29_t4 -1 x_r1_g33 <= 0 ;
1 p_r1_g33_h29_t4 -1 x_r1_g29 <= 0 ;
1 p_r1_g33_h29_t4 -1 x_r1_g33 -1 x_r1_g29 >= -1 ;
1 p_r1_g42_h38_t4 -1 x_r1_g42 <= 0 ;
1 p_r1_g42_h38_t4 -1 x_r1_g38 <= 0 ;
1 p_r1_g42_h38_t4 -1 x_r1_g42 -1 x_r1_g38 >= -1 ;
1 p_r1_g51_h47_t4 -1 x_r1_g51 <= 0 ;
1 p_r1_g51_h47_t4 -1 x_r1_g47 <= 0 ;
1 p_r1_g51_h47_t4 -1 x_r1_g51 -1 x_r1_g47 >= -1 ;
1 p_r1_g71_h67_t4 -1 x_r1_g71 <= 0 ;
1 p_r1_g71_h67_t4 -1 x_r1_g67 <= 0 ;
1 p_r1_g71_h67_t4 -1 x_r1_g71 -1 x_r1_g67 >= -1 ;
1 p_r1_g75_h71_t4 -1 x_r1_g75 <= 0 ;
1 p_r1_g75_h71_t4 -1 x_r1_g71 <= 0 ;
1 p_r1_g75_h71_t4 -1 x_r1_g75 -1 x_r1_g71 >= -1 ;
1 p_r1_g95_h91_t4 -1 x_r1_g95 <= 0 ;
1 p_r1_g95_h91_t4 -1 x_r1_g91 <= 0 ;
1 p_r1_g95_h91_t4 -1 x_r1_g95 -1 x_r1_g91 >= -1 ;
1 p_r1_g117_h113_t4 -1 x_r1_g117 <= 0 ;
1 p_r1_g117_h113_t4 -1 x_r1_g113 <= 0 ;
1 p_r1_g117_h113_t4 -1 x_r1_g117 -1 x_r1_g113 >= -1 ;
1 p_r1_g164_h160_t4 -1 x_r1_g164 <= 0 ;
1 p_r1_g164_h160_t4 -1 x_r1_g160 <= 0 ;
1 p_r1_g164_h160_t4 -1 x_r1_g164 -1 x_r1_g160 >= -1 ;
1 p_r2_g2_h165_t4 -1 x_r2_g2 <= 0 ;
1 p_r2_g2_h165_t4 -1 x_r2_g165 <= 0 ;
1 p_r2_g2_h165_t4 -1 x_r2_g2 -1 x_r2_g165 >= -1 ;
1 p_r2_g12_h8_t4 -1 x_r2_g12 <= 0 ;
1 p_r2_g12_h8_t4 -1 x_r2_g8 <= 0 ;
1 p_r2_g12_h8_t4 -1 x_r2_g12 -1 x_r2_g8 >= -1 ;
1 p_r2_g69_h65_t4 -1 x_r2_g69 <= 0 ;
1 p_r2_g69_h65_t4 -1 x_r2_g65 <= 0 ;
1 p_r2_g69_h65_t4 -1 x_r2_g69 -1 x_r2_g65 >= -1 ;
1 p_r2_g73_h69_t4 -1 x_r2_g73 <= 0 ;
1 p_r2_g73_h69_t4 -1 x_r2_g69 <= 0 ;
1 p_r2_g73_h69_t4 -1 x_r2_g73 -1 x_r2_g69 >= -1 ;
1 p_r2_g77_h73_t4 -1 x_r2_g77 <= 0 ;
1 p_r2_g77_h73_t4 -1 x_r2_g73 <= 0 ;
1 p_r2_g77_h73_t4 -1 x_r2_g77 -1 x_r2_g73 >= -1 ;
1 p_r2_g111_h107_t4 -1 x_r2_g111 <= 0 ;
1 p_r2_g111_h107_t4 -1 x_r2_g107 <= 0 ;
1 p_r2_g111_h107_t4 -1 x_r2_g111 -1 x_r2_g107 >= -1 ;
1 p_r2_g132_h128_t4 -1 x_r2_g132 <= 0 ;
1 p_r2_g132_h128_t4 -1 x_r2_g128 <= 0 ;
1 p_r2_g132_h128_t4 -1 x_r2_g132 -1 x_r2_g128 >= -1 ;
1 p_r2_g136_h132_t4 -1 x_r2_g136 <= 0 ;
1 p_r2_g136_h132_t4 -1 x_r2_g132 <= 0 ;
1 p_r2_g136_h132_t4 -1 x_r2_g136 -1 x_r2_g132 >= -1 ;
1 p_r2_g140_h136_t4 -1 x_r2_g140 <= 0 ;
1 p_r2_g140_h136_t4 -1 x_r2_g136 <= 0 ;
1 p_r2_g140_h136_t4 -1 x_r2_g140 -1 x_r2_g136 >= -1 ;
1 p_r2_g146_h142_t4 -1 x_r2_g146 <= 0 ;
1 p_r2_g146_h142_t4 -1 x_r2_g142 <= 0 ;
1 p_r2_g146_h142_t4 -1 x_r2_g146 -1 x_r2_g142 >= -1 ;
1 p_r2_g149_h145_t4 -1 x_r2_g149 <= 0 ;
1 p_r2_g149_h145_t4 -1 x_r2_g145 <= 0 ;
1 p_r2_g149_h145_t4 -1 x_r2_g149 -1 x_r2_g145 >= -1 ;
1 p_r2_g162_h158_t4 -1 x_r2_g162 <= 0 ;
1 p_r2_g162_h158_t4 -1 x_r2_g158 <= 0 ;
1 p_r2_g162_h158_t4 -1 x_r2_g162 -1 x_r2_g158 >= -1 ;
1 p_r3_g11_h7_t4 -1 x_r3_g11 <= 0 ;
1 p_r3_g11_h7_t4 -1 x_r3_g7 <= 0 ;
1 p_r3_g11_h7_t4 -1 x_r3_g11 -1 x_r3_g7 >= -1 ;
1 p_r3_g15_h11_t4 -1 x_r3_g15 <= 0 ;
1 p_r3_g15_h11_t4 -1 x_r3_g11 <= 0 ;
1 p_r3_g15_h11_t4 -1 x_r3_g15 -1 x_r3_g11 >= -1 ;
1 p_r3_g19_h15_t4 -1 x_r3_g19 <= 0 ;
1 p_r3_g19_h15_t4 -1 x_r3_g15 <= 0 ;
1 p_r3_g19_h15_t4 -1 x_r3_g19 -1 x_r3_g15 >= -1 ;
1 p_r3_g20_h16_t4 -1 x_r3_g20 <= 0 ;
1 p_r3_g20_h16_t4 -1 x_r3_g16 <= 0 ;
1 p_r3_g20_h16_t4 -1 x_r3_g20 -1 x_r3_g16 >= -1 ;
1 p_r3_g24_h20_t4 -1 x_r3_g24 <= 0 ;
1 p_r3_g24_h20_t4 -1 x_r3_g20 <= 0 ;
1 p_r3_g24_h20_t4 -1 x_r3_g24 -1 x_r3_g20 >= -1 ;
1 p_r3_g40_h36_t4 -1 x_r3_g40 <= 0 ;
1 p_r3_g40_h36_t4 -1 x_r3_g36 <= 0 ;
1 p_r3_g40_h36_t4 -1 x_r3_g40 -1 x_r3_g36 >= -1 ;
1 p_r3_g56_h52_t4 -1 x_r3_g56 <= 0 ;
1 p_r3_g56_h52_t4 -1 x_r3_g52 <= 0 ;
1 p_r3_g56_h52_t4 -1 x_r3_g56 -1 x_r3_g52 >= -1 ;
1 p_r3_g57_h53_t4 -1 x_r3_g57 <= 0 ;
1 p_r3_g57_h53_t4 -1 x_r3_g53 <= 0 ;
1 p_r3_g57_h53_t4 -1 x_r3_g57 -1 x_r3_g53 >= -1 ;
1 p_r3_g69_h65_t4 -1 x_r3_g69 <= 0 ;
1 p_r3_g69_h65_t4 -1 x_r3_g65 <= 0 ;
1 p_r3_g69_h65_t4 -1 x_r3_g69 -1 x_r3_g65 >= -1 ;
1 p_r3_g80_h76_t4 -1 x_r3_g80 <= 0 ;
1 p_r3_g80_h76_t4 -1 x_r3_g76 <= 0 ;
1 p_r3_g80_h76_t4 -1 x_r3_g80 -1 x_r3_g76 >= -1 ;
1 p_r3_g128_h124_t4 -1 x_r3_g128 <= 0 ;
1 p_r3_g128_h124_t4 -1 x_r3_g124 <= 0 ;
1 p_r3_g128_h124_t4 -1 x_r3_g128 -1 x_r3_g124 >= -1 ;
1 p_r3_g138_h134_t4 -1 x_r3_g138 <= 0 ;
1 p_r3_g138_h134_t4 -1 x_r3_g134 <= 0 ;
1 p_r3_g138_h134_t4 -1 x_r3_g138 -1 x_r3_g134 >= -1 ;
1 p_r3_g161_h157_t4 -1 x_r3_g161 <= 0 ;
1 p_r3_g161_h157_t4 -1 x_r3_g157 <= 0 ;
1 p_r3_g161_h157_t4 -1 x_r3_g161 -1 x_r3_g157 >= -1 ;
1 p_r3_g165_h161_t4 -1 x_r3_g165 <= 0 ;
1 p_r3_g165_h161_t4 -1 x_r3_g161 <= 0 ;
1 p_r3_g165_h161_t4 -1 x_r3_g165 -1 x_r3_g161 >= -1 ;
1 d_4 -1 x_r0_g1 -1 x_r0_g8 -1 x_r0_g23 -1 x_r0_g26 -1 x_r0_g34 -1 x_r0_g38 -1 x_r0_g45 -1 x_r0_g47 -1 x_r0_g51 -1 x_r0_g54 -1 x_r0_g62 -1 x_r0_g67 -1 x_r0_g69 -1 x_r0_g70 -1 x_r0_g116 -1 x_r0_g118 -2 x_r0_g123 -1 x_r0_g130 -1 x_r0_g132 -1 x_r0_g139 -1 x_r0_g146 -1 x_r1_g20 -1 x_r1_g28 -1 x_r1_g33 -1 x_r1_g41 -1 x_r1_g42 -1 x_r1_g57 -2 x_r1_g60 -1 x_r1_g73 -1 x_r1_g75 -2 x_r1_g83 -2 x_r1_g86 -1 x_r1_g91 -1 x_r1_g96 -1 x_r1_g108 -1 x_r1_g113 -1 x_r1_g152 -1 x_r1_g160 -1 x_r1_g164 -1 x_r1_g166 -2 x_r2_g0 -1 x_r2_g8 -1 x_r2_g18 -1 x_r2_g21 -2 x_r2_g30 -2 x_r2_g60 -1 x_r2_g65 -1 x_r2_g72 -2 x_r2_g82 -2 x_r2_g94 -2 x_r2_g97 -1 x_r2_g100 -1 x_r2_g110 -1 x_r2_g111 -2 x_r2_g126 -1 x_r2_g146 -1 x_r2_g149 -1 x_r2_g152 -2 x_r2_g164 -1 x_r2_g165 -2 x_r3_g8 -2 x_r3_g13 -1 x_r3_g16 -1 x_r3_g24 -1 x_r3_g33 -1 x_r3_g36 -1 x_r3_g53 -1 x_r3_g57 -1 x_r3_g59 -1 x_r3_g65 -2 x_r3_g90 -1 x_r3_g95 -1 x_r3_g103 -1 x_r3_g128 -1 x_r3_g138 -2 x_r3_g144 -1 x_r3_g145 -1 x_r3_g156 -1 x_r3_g165 -1 p_r0_g26_h22_t4 -1 p_r0_g38_h34_t4 -1 p_r0_g51_h47_t4 -1 p_r0_g91_h87_t4 -1 p_r0_g92_h88_t4 -1 p_r0_g93_h89_t4 -1 p_r0_g95_h91_t4 -1 p_r0_g97_h93_t4 -1 p_r0_g101_h97_t4 -1 p_r0_g118_h114_t4 -1 p_r0_g150_h146_t4 -1 p_r1_g15_h11_t4 -1 p_r1_g31_h27_t4 -1 p_r1_g33_h29_t4 -1 p_r1_g42_h38_t4 -1 p_r1_g51_h47_t4 -1 p_r1_g71_h67_t4 -1 p_r1_g75_h71_t4 -1 p_r1_g95_h91_t4 -1 p_r1_g117_h113_t4 -1 p_r1_g164_h160_t4 -1 p_r2_g2_h165_t4 -1 p_r2_g12_h8_t4 -1 p_r2_g69_h65_t4 -1 p_r2_g73_h69_t4 -1 p_r2_g77_h73_t4 -1 p_r2_g111_h107_t4 -1 p_r2_g132_h128_t4 -1 p_r2_g136_h132_t4 -1 p_r2_g140_h136_t4 -1 p_r2_g146_h142_t4 -1 p_r2_g149_h145_t4 -1 p_r2_g162_h158_t4 -1 p_r3_g11_h7_t4 -1 p_r3_g15_h11_t4 -1 p_r3_g19_h15_t4 -1 p_r3_g20_h16_t4 -1 p_r3_g24_h20_t4 -1 p_r3_g40_h36_t4 -1 p_r3_g56_h52_t4 -1 p_r3_g57_h53_t4 -1 p_r3_g69_h65_t4 -1 p_r3_g80_h76_t4 -1 p_r3_g128_h124_t4 -1 p_r3_g138_h134_t4 -1 p_r3_g161_h157_t4 -1 p_r3_g165_h161_t4 = -70 ;
1 d_4 -1 u_4 <= 0 ;
-1 d_4 -1 u_4 <= 0 ;
1 u_4 -1 M <= 0 ;
1 u_4 <= 1 ;
1 p_r0_g35_h22_t13 -1 x_r0_g35 <= 0 ;
1 p_r0_g35_h22_t13 -1 x_r0_g22 <= 0 ;
1 p_r0_g35_h22_t13 -1 x_r0_g35 -1 x_r0_g22 >= -1 ;
1 p_r0_g47_h34_t13 -1 x_r0_g47 <= 0 ;
1 p_r0_g47_h34_t13 -1 x_r0_g34 <= 0 ;
1 p_r0_g47_h34_t13 -1 x_r0_g47 -1 x_r0_g34 >= -1 ;
1 p_r0_g51_h38_t13 -1 x_r0_g51 <= 0 ;
1 p_r0_g51_h38_t13 -1 x_r0_g38 <= 0 ;
1 p_r0_g51_h38_t13 -1 x_r0_g51 -1 x_r0_g38 >= -1 ;
1 p_r0_g60_h47_t13 -1 x_r0_g60 <= 0 ;
1 p_r0_g60_h47_t13 -1 x_r0_g47 <= 0 ;
1 p_r0_g60_h47_t13 -1 x_r0_g60 -1 x_r0_g47 >= -1 ;
1 p_r0_g67_h54_t13 -1 x_r0_g67 <= 0 ;
1 p_r0_g67_h54_t13 -1 x_r0_g54 <= 0 ;
1 p_r0_g67_h54_t13 -1 x_r0_g67 -1 x_r0_g54 >= -1 ;
1 p_r0_g92_h79_t13 -1 x_r0_g92 <= 0 ;
1 p_r0_g92_h79_t13 -1 x_r0_g79 <= 0 ;
1 p_r0_g92_h79_t13 -1 x_r0_g92 -1 x_r0_g79 >= -1 ;
1 p_r0_g101_h88_t13 -1 x_r0_g101 <= 0 ;
1 p_r0_g101_h88_t13 -1 x_r0_g88 <= 0 ;
1 p_r0_g101_h88_t13 -1 x_r0_g101 -1 x_r0_g88 >= -1 ;
1 p_r0_g108_h95_t13 -1 x_r0_g108 <= 0 ;
1 p_r0_g108_h95_t13 -1 x_r0_g95 <= 0 ;
1 p_r0_g108_h95_t13 -1 x_r0_g108 -1 x_r0_g95 >= -1 ;
1 p_r0_g114_h101_t13 -1 x_r0_g114 <= 0 ;
1 p_r0_g114_h101_t13 -1 x_r0_g101 <= 0 ;
1 p_r0_g114_h101_t13 -1 x_r0_g114 -1 x_r0_g101 >= -1 ;
1 p_r0_g152_h139_t13 -1 x_r0_g152 <= 0 ;
1 p_r0_g152_h139_t13 -1 x_r0_g139 <= 0 ;
1 p_r0_g152_h139_t13 -1 x_r0_g152 -1 x_r0_g139 >= -1 ;
1 p_r1_g10_h164_t13 -1 x_r1_g10 <= 0 ;
1 p_r1_g10_h164_t13 -1 x_r1_g164 <= 0 ;
1 p_r1_g10_h164_t13 -1 x_r1_g10 -1 x_r1_g164 >= -1 ;
1 p_r1_g15_h2_t13 -1 x_r1_g15 <= 0 ;
1 p_r1_g15_h2_t13 -1 x_r1_g2 <= 0 ;
1 p_r1_g15_h2_t13 -1 x_r1_g15 -1 x_r1_g2 >= -1 ;
1 p_r1_g28_h15_t13 -1 x_r1_g28 <= 0 ;
1 p_r1_g28_h15_t13 -1 x_r1_g15 <= 0 ;
1 p_r1_g28_h15_t13 -1 x_r1_g28 -1 x_r1_g15 >= -1 ;
1 p_r1_g33_h20_t13 -1 x_r1_g33 <= 0 ;
1 p_r1_g33_h20_t13 -1 x_r1_g20 <= 0 ;
1 p_r1_g33_h20_t13 -1 x_r1_g33 -1 x_r1_g20 >= -1 ;
1 p_r1_g41_h28_t13 -1 x_r1_g41 <= 0 ;
1 p_r1_g41_h28_t13 -1 x_r1_g28 <= 0 ;
1 p_r1_g41_h28_t13 -1 x_r1_g41 -1 x_r1_g28 >= -1 ;
1 p_r1_g42_h29_t13 -1 x_r1_g42 <= 0 ;
1 p_r1_g42_h29_t13 -1 x_r1_g29 <= 0 ;
1 p_r1_g42_h29_t13 -1 x_r1_g42 -1 x_r1_g29 >= -1 ;
1 p_r1_g51_h38_t13 -1 x_r1_g51 <= 0 ;
1 p_r1_g51_h38_t13 -1 x_r1_g38 <= 0 ;
1 p_r1_g51_h38_t13 -1 x_r1_g51 -1 x_r1_g38 >= -1 ;
1 p_r1_g60_h47_t13 -1 x_r1_g60 <= 0 ;
1 p_r1_g60_h47_t13 -1 x_r1_g47 <= 0 ;
1 p_r1_g60_h47_t13 -1 x_r1_g60 -1 x_r1_g47 >= -1 ;
1 p_r1_g73_h60_t13 -1 x_r1_g73 <= 0 ;
1 p_r1_g73_h60_t13 -1 x_r1_g60 <= 0 ;
1 p_r1_g73_h60_t13 -1 x_r1_g73 -1 x_r1_g60 >= -1 ;
1 p_r1_g86_h73_t13 -1 x_r1_g86 <= 0 ;
1 p_r1_g86_h73_t13 -1 x_r1_g73 <= 0 ;
1 p_r1_g86_h73_t13 -1 x_r1_g86 -1 x_r1_g73 >= -1 ;
1 p_r1_g96_h83_t13 -1 x_r1_g96 <= 0 ;
1 p_r1_g96_h83_t13 -1 x_r1_g83 <= 0 ;
1 p_r1_g96_h83_t13 -1 x_r1_g96 -1 x_r1_g83 >= -1 ;
1 p_r1_g108_h95_t13 -1 x_r1_g108 <= 0 ;
1 p_r1_g108_h95_t13 -1 x_r1_g95 <= 0 ;
1 p_r1_g108_h95_t13 -1 x_r1_g108 -1 x_r1_g95 >= -1 ;
1 p_r1_g138_h125_t13 -1 x_r1_g138 <= 0 ;
1 p_r1_g138_h125_t13 -1 x_r1_g125 <= 0 ;
1 p_r1_g138_h125_t13 -1 x_r1_g138 -1 x_r1_g125 >= -1 ;
1 p_r2_g8_h162_t13 -1 x_r2_g8 <= 0 ;
1 p_r2_g8_h162_t13 -1 x_r2_g162 <= 0 ;
1 p_r2_g8_h162_t13 -1 x_r2_g8 -1 x_r2_g162 >= -1 ;
1 p_r2_g21_h8_t13 -1 x_r2_g21 <= 0 ;
1 p_r2_g21_h8_t13 -1 x_r2_g8 <= 0 ;
1 p_r2_g21_h8_t13 -1 x_r2_g21 -1 x_r2_g8 >= -1 ;
1 p_r2_g73_h60_t13 -1 x_r2_g73 <= 0 ;
1 p_r2_g73_h60_t13 -1 x_r2_g60 <= 0 ;
1 p_r2_g73_h60_t13 -1 x_r2_g73 -1 x_r2_g60 >= -1 ;
1 p_r2_g82_h69_t13 -1 x_r2_g82 <= 0 ;
1 p_r2_g82_h69_t13 -1 x_r2_g69 <= 0 ;
1 p_r2_g82_h69_t13 -1 x_r2_g82 -1 x_r2_g69 >= -1 ;
1 p_r2_g107_h94_t13 -1 x_r2_g107 <= 0 ;
1 p_r2_g107_h94_t13 -1 x_r2_g94 <= 0 ;
1 p_r2_g107_h94_t13 -1 x_r2_g107 -1 x_r2_g94 >= -1 ;
1 p_r2_g110_h97_t13 -1 x_r2_g110 <= 0 ;
1 p_r2_g110_h97_t13 -1 x_r2_g97 <= 0 ;
1 p_r2_g110_h97_t13 -1 x_r2_g110 -1 x_r2_g97 >= -1 ;
1 p_r2_g142_h129_t13 -1 x_r2_g142 <= 0 ;
1 p_r2_g142_h129_t13 -1 x_r2_g129 <= 0 ;
1 p_r2_g142_h129_t13 -1 x_r2_g142 -1 x_r2_g129 >= -1 ;
1 p_r2_g145_h132_t13 -1 x_r2_g145 <= 0 ;
1 p_r2_g145_h132_t13 -1 x_r2_g132 <= 0 ;
1 p_r2_g145_h132_t13 -1 x_r2_g145 -1 x_r2_g132 >= -1 ;
1 p_r2_g149_h136_t13 -1 x_r2_g149 <= 0 ;
1 p_r2_g149_h136_t13 -1 x_r2_g136 <= 0 ;
1 p_r2_g149_h136_t13 -1 x_r2_g149 -1 x_r2_g136 >= -1 ;
1 p_r2_g158_h145_t13 -1 x_r2_g158 <= 0 ;
1 p_r2_g158_h145_t13 -1 x_r2_g145 <= 0 ;
1 p_r2_g158_h145_t13 -1 x_r2_g158 -1 x_r2_g145 >= -1 ;
1 p_r2_g162_h149_t13 -1 x_r2_g162 <= 0 ;
1 p_r2_g162_h149_t13 -1 x_r2_g149 <= 0 ;
1 p_r2_g162_h149_t13 -1 x_r2_g162 -1 x_r2_g149 >= -1 ;
1 p_r2_g165_h152_t13 -1 x_r2_g165 <= 0 ;
1 p_r2_g165_h152_t13 -1 x_r2_g152 <= 0 ;
1 p_r2_g165_h152_t13 -1 x_r2_g165 -1 x_r2_g152 >= -1 ;
1 p_r3_g7_h161_t13 -1 x_r3_g7 <= 0 ;
1 p_r3_g7_h161_t13 -1 x_r3_g161 <= 0 ;
1 p_r3_g7_h161_t13 -1 x_r3_g7 -1 x_r3_g161 >= -1 ;
1 p_r3_g11_h165_t13 -1 x_r3_g11 <= 0 ;
1 p_r3_g11_h165_t13 -1 x_r3_g165 <= 0 ;
1 p_r3_g11_h165_t13 -1 x_r3_g11 -1 x_r3_g165 >= -1 ;
1 p_r3_g20_h7_t13 -1 x_r3_g20 <= 0 ;
1 p_r3_g20_h7_t13 -1 x_r3_g7 <= 0 ;
1 p_r3_g20_h7_t13 -1 x_r3_g20 -1 x_r3_g7 >= -1 ;
1 p_r3_g24_h11_t13 -1 x_r3_g24 <= 0 ;
1 p_r3_g24_h11_t13 -1 x_r3_g11 <= 0 ;
1 p_r3_g24_h11_t13 -1 x_r3_g24 -1 x_r3_g11 >= -1 ;
1 p_r3_g33_h20_t13 -1 x_r3_g33 <= 0 ;
1 p_r3_g33_h20_t13 -1 x_r3_g20 <= 0 ;
1 p_r3_g33_h20_t13 -1 x_r3_g33 -1 x_r3_g20 >= -1 ;
1 p_r3_g53_h40_t13 -1 x_r3_g53 <= 0 ;
1 p_r3_g53_h40_t13 -1 x_r3_g40 <= 0 ;
1 p_r3_g53_h40_t13 -1 x_r3_g53 -1 x_r3_g40 >= -1 ;
1 p_r3_g65_h52_t13 -1 x_r3_g65 <= 0 ;
1 p_r3_g65_h52_t13 -1 x_r3_g52 <= 0 ;
1 p_r3_g65_h52_t13 -1 x_r3_g65 -1 x_r3_g52 >= -1 ;
1 p_r3_g69_h56_t13 -1 x_r3_g69 <= 0 ;
1 p_r3_g69_h56_t13 -1 x_r3_g56 <= 0 ;
1 p_r3_g69_h56_t13 -1 x_r3_g69 -1 x_r3_g56 >= -1 ;
1 p_r3_g80_h67_t13 -1 x_r3_g80 <= 0 ;
1 p_r3_g80_h67_t13 -1 x_r3_g67 <= 0 ;
1 p_r3_g80_h67_t13 -1 x_r3_g80 -1 x_r3_g67 >= -1 ;
1 p_r3_g103_h90_t13 -1 x_r3_g103 <= 0 ;
1 p_r3_g103_h90_t13 -1 x_r3_g90 <= 0 ;
1 p_r3_g103_h90_t13 -1 x_r3_g103 -1 x_r3_g90 >= -1 ;
1 p_r3_g124_h111_t13 -1 x_r3_g124 <= 0 ;
1 p_r3_g124_h111_t13 -1 x_r3_g111 <= 0 ;
1 p_r3_g124_h111_t13 -1 x_r3_g124 -1 x_r3_g111 >= -1 ;
1 p_r3_g137_h124_t13 -1 x_r3_g137 <= 0 ;
1 p_r3_g137_h124_t13 -1 x_r3_g124 <= 0 ;
1 p_r3_g137_h124_t13 -1 x_r3_g137 -1 x_r3_g124 >= -1 ;
1 p_r3_g157_h144_t13 -1 x_r3_g157 <= 0 ;
1 p_r3_g157_h144_t13 -1 x_r3_g144 <= 0 ;
1 p_r3_g157_h144_t13 -1 x_r3_g157 -1 x_r3_g144 >= -1 ;
1 d_13 -2 x_r0_g1 -1 x_r0_g23 -1 x_r0_g26 -1 x_r0_g35 -1 x_r0_g38 -1 x_r0_g45 -1 x_r0_g62 -1 x_r0_g68 -2 x_r0_g87 -1 x_r0_g89 -1 x_r0_g93 -1 x_r0_g114 -1 x_r0_g116 -1 x_r0_g118 -1 x_r0_g123 -1 x_r0_g130 -1 x_r0_g132 -1 x_r0_g139 -2 x_r0_g144 -1 x_r0_g146 -2 x_r0_g150 -1 x_r0_g152 -1 x_r1_g2 -1 x_r1_g27 -1 x_r1_g29 -2 x_r1_g31 -1 x_r1_g33 -1 x_r1_g51 -2 x_r1_g57 -1 x_r1_g59 -1 x_r1_g67 -1 x_r1_g71 -2 x_r1_g75 -1 x_r1_g83 -1 x_r1_g91 -1 x_r1_g95 -1 x_r1_g96 -1 x_r1_g113 -1 x_r1_g114 -1 x_r1_g117 -1 x_r1_g125 -2 x_r2_g7 -1 x_r2_g12 -1 x_r2_g18 -1 x_r2_g21 -1 x_r2_g30 -1 x_r2_g48 -1 x_r2_g65 -1 x_r2_g69 -1 x_r2_g72 -1 x_r2_g73 -2 x_r2_g77 -1 x_r2_g80 -1 x_r2_g92 -2 x_r2_g100 -1 x_r2_g107 -1 x_r2_g111 -2 x_r2_g126 -1 x_r2_g128 -1 x_r2_g129 -1 x_r2_g132 -1 x_r2_g140 -1 x_r2_g152 -1 x_r2_g158 -1 x_r2_g164 -1 x_r3_g8 -1 x_r3_g13 -2 x_r3_g15 -2 x_r3_g19 -1 x_r3_g24 -1 x_r3_g33 -1 x_r3_g36 -1 x_r3_g40 -1 x_r3_g52 -1 x_r3_g53 -1 x_r3_g56 -1 x_r3_g59 -1 x_r3_g65 -2 x_r3_g68 -1 x_r3_g76 -1 x_r3_g90 -1 x_r3_g95 -1 x_r3_g105 -1 x_r3_g111 -1 x_r3_g138 -1 x_r3_g145 -2 x_r3_g156 -1 x_r3_g161 -1 p_r0_g35_h22_t13 -1 p_r0_g47_h34_t13 -1 p_r0_g51_h38_t13 -1 p_r0_g60_h47_t13 -1 p_r0_g67_h54_t13 -1 p_r0_g92_h79_t13 -1 p_r0_g101_h88_t13 -1 p_r0_g108_h95_t13 -1 p_r0_g114_h101_t13 -1 p_r0_g152_h139_t13 -1 p_r1_g10_h164_t13 -1 p_r1_g15_h2_t13 -1 p_r1_g28_h15_t13 -1 p_r1_g33_h20_t13 -1 p_r1_g41_h28_t13 -1 p_r1_g42_h29_t13 -1 p_r1_g51_h38_t13 -1 p_r1_g60_h47_t13 -1 p_r1_g73_h60_t13 -1 p_r1_g86_h73_t13 -1 p_r1_g96_h83_t13 -1 p_r1_g108_h95_t13 -1 p_r1_g138_h125_t13 -1 p_r2_g8_h162_t13 -1 p_r2_g21_h8_t13 -1 p_r2_g73_h60_t13 -1 p_r2_g82_h69_t13 -1 p_r2_g107_h94_t13 -1 p_r2_g110_h97_t13 -1 p_r2_g142_h129_t13 -1 p_r2_g145_h132_t13 -1 p_r2_g149_h136_t13 -1 p_r2_g158_h145_t13 -1 p_r2_g162_h149_t13 -1 p_r2_g165_h152_t13 -1 p_r3_g7_h161_t13 -1 p_r3_g11_h165_t13 -1 p_r3_g20_h7_t13 -1 p_r3_g24_h11_t13 -1 p_r3_g33_h20_t13 -1 p_r3_g53_h40_t13 -1 p_r3_g65_h52_t13 -1 p_r3_g69_h56_t13 -1 p_r3_g80_h67_t13 -1 p_r3_g103_h90_t13 -1 p_r3_g124_h111_t13 -1 p_r3_g137_h124_t13 -1 p_r3_g157_h144_t13 = -63 ;
1 d_13 -1 u_13 <= 0 ;
-1 d_13 -1 u_13 <= 0 ;
1 u_13 -1 M <= 0 ;
1 u_13 <= 0 ;
1 p_r0_g34_h8_t26 -1 x_r0_g34 <= 0 ;
1 p_r0_g34_h8_t26 -1 x_r0_g8 <= 0 ;
1 p_r0_g34_h8_t26 -1 x_r0_g34 -1 x_r0_g8 >= -1 ;
1 p_r0_g60_h34_t26 -1 x_r0_g60 <= 0 ;
1 p_r0_g60_h34_t26 -1 x_r0_g34 <= 0 ;
1 p_r0_g60_h34_t26 -1 x_r0_g60 -1 x_r0_g34 >= -1 ;
1 p_r0_g88_h62_t26 -1 x_r0_g88 <= 0 ;
1 p_r0_g88_h62_t26 -1 x_r0_g62 <= 0 ;
1 p_r0_g88_h62_t26 -1 x_r0_g88 -1 x_r0_g62 >= -1 ;
1 p_r0_g93_h67_t26 -1 x_r0_g93 <= 0 ;
1 p_r0_g93_h67_t26 -1 x_r0_g67 <= 0 ;
1 p_r0_g93_h67_t26 -1 x_r0_g93 -1 x_r0_g67 >= -1 ;
1 p_r0_g95_h69_t26 -1 x_r0_g95 <= 0 ;
1 p_r0_g95_h69_t26 -1 x_r0_g69 <= 0 ;
1 p_r0_g95_h69_t26 -1 x_r0_g95 -1 x_r0_g69 >= -1 ;
1 p_r0_g114_h88_t26 -1 x_r0_g114 <= 0 ;
1 p_r0_g114_h88_t26 -1 x_r0_g88 <= 0 ;
1 p_r0_g114_h88_t26 -1 x_r0_g114 -1 x_r0_g88 >= -1 ;
1 p_r0_g118_h92_t26 -1 x_r0_g118 <= 0 ;
1 p_r0_g118_h92_t26 -1 x_r0_g92 <= 0 ;
1 p_r0_g118_h92_t26 -1 x_r0_g118 -1 x_r0_g92 >= -1 ;
1 p_r0_g123_h97_t26 -1 x_r0_g123 <= 0 ;
1 p_r0_g123_h97_t26 -1 x_r0_g97 <= 0 ;
1 p_r0_g123_h97_t26 -1 x_r0_g123 -1 x_r0_g97 >= -1 ;
1 p_r0_g144_h118_t26 -1 x_r0_g144 <= 0 ;
1 p_r0_g144_h118_t26 -1 x_r0_g118 <= 0 ;
1 p_r0_g144_h118_t26 -1 x_r0_g144 -1 x_r0_g118 >= -1 ;
1 p_r1_g11_h152_t26 -1 x_r1_g11 <= 0 ;
1 p_r1_g11_h152_t26 -1 x_r1_g152 <= 0 ;
1 p_r1_g11_h152_t26 -1 x_r1_g11 -1 x_r1_g152 >= -1 ;
1 p_r1_g20_h161_t26 -1 x_r1_g20 <= 0 ;
1 p_r1_g20_h161_t26 -1 x_r1_g161 <= 0 ;
1 p_r1_g20_h161_t26 -1 x_r1_g20 -1 x_r1_g161 >= -1 ;
1 p_r1_g28_h2_t26 -1 x_r1_g28 <= 0 ;
1 p_r1_g28_h2_t26 -1 x_r1_g2 <= 0 ;
1 p_r1_g28_h2_t26 -1 x_r1_g28 -1 x_r1_g2 >= -1 ;
1 p_r1_g41_h15_t26 -1 x_r1_g41 <= 0 ;
1 p_r1_g41_h15_t26 -1 x_r1_g15 <= 0 ;
1 p_r1_g41_h15_t26 -1 x_r1_g41 -1 x_r1_g15 >= -1 ;
1 p_r1_g57_h31_t26 -1 x_r1_g57 <= 0 ;
1 p_r1_g57_h31_t26 -1 x_r1_g31 <= 0 ;
1 p_r1_g57_h31_t26 -1 x_r1_g57 -1 x_r1_g31 >= -1 ;
1 p_r1_g59_h33_t26 -1 x_r1_g59 <= 0 ;
1 p_r1_g59_h33_t26 -1 x_r1_g33 <= 0 ;
1 p_r1_g59_h33_t26 -1 x_r1_g59 -1 x_r1_g33 >= -1 ;
1 p_r1_g67_h41_t26 -1 x_r1_g67 <= 0 ;
1 p_r1_g67_h41_t26 -1 x_r1_g41 <= 0 ;
1 p_r1_g67_h41_t26 -1 x_r1_g67 -1 x_r1_g41 >= -1 ;
1 p_r1_g73_h47_t26 -1 x_r1_g73 <= 0 ;
1 p_r1_g73_h47_t26 -1 x_r1_g47 <= 0 ;
1 p_r1_g73_h47_t26 -1 x_r1_g73 -1 x_r1_g47 >= -1 ;
1 p_r1_g83_h57_t26 -1 x_r1_g83 <= 0 ;
1 p_r1_g83_h57_t26 -1 x_r1_g57 <= 0 ;
1 p_r1_g83_h57_t26 -1 x_r1_g83 -1 x_r1_g57 >= -1 ;
1 p_r1_g86_h60_t26 -1 x_r1_g86 <= 0 ;
1 p_r1_g86_h60_t26 -1 x_r1_g60 <= 0 ;
1 p_r1_g86_h60_t26 -1 x_r1_g86 -1 x_r1_g60 >= -1 ;
1 p_r1_g117_h91_t26 -1 x_r1_g117 <= 0 ;
1 p_r1_g117_h91_t26 -1 x_r1_g91 <= 0 ;
1 p_r1_g117_h91_t26 -1 x_r1_g117 -1 x_r1_g91 >= -1 ;
1 p_r1_g164_h138_t26 -1 x_r1_g164 <= 0 ;
1 p_r1_g164_h138_t26 -1 x_r1_g138 <= 0 ;
1 p_r1_g164_h138_t26 -1 x_r1_g164 -1 x_r1_g138 >= -1 ;
1 p_r2_g8_h149_t26 -1 x_r2_g8 <= 0 ;
1 p_r2_g8_h149_t26 -1 x_r2_g149 <= 0 ;
1 p_r2_g8_h149_t26 -1 x_r2_g8 -1 x_r2_g149 >= -1 ;
1 p_r2_g21_h162_t26 -1 x_r2_g21 <= 0 ;
1 p_r2_g21_h162_t26 -1 x_r2_g162 <= 0 ;
1 p_r2_g21_h162_t26 -1 x_r2_g21 -1 x_r2_g162 >= -1 ;
1 p_r2_g126_h100_t26 -1 x_r2_g126 <= 0 ;
1 p_r2_g126_h100_t26 -1 x_r2_g100 <= 0 ;
1 p_r2_g126_h100_t26 -1 x_r2_g126 -1 x_r2_g100 >= -1 ;
1 p_r2_g136_h110_t26 -1 x_r2_g136 <= 0 ;
1 p_r2_g136_h110_t26 -1 x_r2_g110 <= 0 ;
1 p_r2_g136_h110_t26 -1 x_r2_g136 -1 x_r2_g110 >= -1 ;
1 p_r2_g152_h126_t26 -1 x_r2_g152 <= 0 ;
1 p_r2_g152_h126_t26 -1 x_r2_g126 <= 0 ;
1 p_r2_g152_h126_t26 -1 x_r2_g152 -1 x_r2_g126 >= -1 ;
1 p_r2_g158_h132_t26 -1 x_r2_g158 <= 0 ;
1 p_r2_g158_h132_t26 -1 x_r2_g132 <= 0 ;
1 p_r2_g158_h132_t26 -1 x_r2_g158 -1 x_r2_g132 >= -1 ;
1 p_r2_g162_h136_t26 -1 x_r2_g162 <= 0 ;
1 p_r2_g162_h136_t26 -1 x_r2_g136 <= 0 ;
1 p_r2_g162_h136_t26 -1 x_r2_g162 -1 x_r2_g136 >= -1 ;
1 p_r3_g15_h156_t26 -1 x_r3_g15 <= 0 ;
1 p_r3_g15_h156_t26 -1 x_r3_g156 <= 0 ;
1 p_r3_g15_h156_t26 -1 x_r3_g15 -1 x_r3_g156 >= -1 ;
1 p_r3_g16_h157_t26 -1 x_r3_g16 <= 0 ;
1 p_r3_g16_h157_t26 -1 x_r3_g157 <= 0 ;
1 p_r3_g16_h157_t26 -1 x_r3_g16 -1 x_r3_g157 >= -1 ;
1 p_r3_g20_h161_t26 -1 x_r3_g20 <= 0 ;
1 p_r3_g20_h161_t26 -1 x_r3_g161 <= 0 ;
1 p_r3_g20_h161_t26 -1 x_r3_g20 -1 x_r3_g161 >= -1 ;
1 p_r3_g24_h165_t26 -1 x_r3_g24 <= 0 ;
1 p_r3_g24_h165_t26 -1 x_r3_g165 <= 0 ;
1 p_r3_g24_h165_t26 -1 x_r3_g24 -1 x_r3_g165 >= -1 ;
1 p_r3_g33_h7_t26 -1 x_r3_g33 <= 0 ;
1 p_r3_g33_h7_t26 -1 x_r3_g7 <= 0 ;
1 p_r3_g33_h7_t26 -1 x_r3_g33 -1 x_r3_g7 >= -1 ;
1 p_r3_g59_h33_t26 -1 x_r3_g59 <= 0 ;
1 p_r3_g59_h33_t26 -1 x_r3_g33 <= 0 ;
1 p_r3_g59_h33_t26 -1 x_r3_g59 -1 x_r3_g33 >= -1 ;
1 p_r3_g95_h69_t26 -1 x_r3_g95 <= 0 ;
1 p_r3_g95_h69_t26 -1 x_r3_g69 <= 0 ;
1 p_r3_g95_h69_t26 -1 x_r3_g95 -1 x_r3_g69 >= -1 ;
1 p_r3_g137_h111_t26 -1 x_r3_g137 <= 0 ;
1 p_r3_g137_h111_t26 -1 x_r3_g111 <= 0 ;
1 p_r3_g137_h111_t26 -1 x_r3_g137 -1 x_r3_g111 >= -1 ;
1 d_26 -1 x_r0_g1 -1 x_r0_g8 -2 x_r0_g22 -1 x_r0_g23 -1 x_r0_g26 -1 x_r0_g38 -1 x_r0_g45 -2 x_r0_g51 -1 x_r0_g62 -1 x_r0_g68 -1 x_r0_g69 -1 x_r0_g87 -1 x_r0_g89 -1 x_r0_g91 -1 x_r0_g93 -1 x_r0_g101 -2 x_r0_g116 -1 x_r0_g123 -2 x_r0_g132 -2 x_r0_g139 -1 x_r0_g144 -2 x_r0_g146 -2 x_r0_g152 -1 x_r1_g10 -1 x_r1_g11 -1 x_r1_g15 -1 x_r1_g20 -2 x_r1_g27 -1 x_r1_g29 -1 x_r1_g38 -2 x_r1_g42 -1 x_r1_g75 -1 x_r1_g83 -1 x_r1_g86 -1 x_r1_g91 -1 x_r1_g95 -1 x_r1_g96 -1 x_r1_g108 -1 x_r1_g113 -2 x_r1_g114 -1 x_r1_g138 -1 x_r1_g166 -1 x_r2_g0 -1 x_r2_g2 -2 x_r2_g7 -1 x_r2_g8 -1 x_r2_g12 -1 x_r2_g19 -2 x_r2_g30 -1 x_r2_g48 -2 x_r2_g60 -1 x_r2_g65 -1 x_r2_g69 -2 x_r2_g72 -1 x_r2_g82 -2 x_r2_g94 -1 x_r2_g100 -2 x_r2_g111 -1 x_r2_g128 -1 x_r2_g140 -2 x_r2_g142 -2 x_r2_g145 -1 x_r2_g146 -1 x_r2_g165 -1 x_r3_g7 -1 x_r3_g8 -1 x_r3_g11 -2 x_r3_g13 -1 x_r3_g15 -2 x_r3_g19 -1 x_r3_g20 -1 x_r3_g36 -1 x_r3_g40 -2 x_r3_g52 -1 x_r3_g53 -1 x_r3_g56 -1 x_r3_g57 -1 x_r3_g65 -1 x_r3_g67 -1 x_r3_g68 -1 x_r3_g69 -1 x_r3_g80 -1 x_r3_g100 -2 x_r3_g103 -1 x_r3_g124 -1 x_r3_g128 -2 x_r3_g134 -1 x_r3_g137 -1 x_r3_g138 -1 x_r3_g144 -2 x_r3_g145 -1 x_r3_g165 -1 p_r0_g34_h8_t26 -1 p_r0_g60_h34_t26 -1 p_r0_g88_h62_t26 -1 p_r0_g93_h67_t26 -1 p_r0_g95_h69_t26 -1 p_r0_g114_h88_t26 -1 p_r0_g118_h92_t26 -1 p_r0_g123_h97_t26 -1 p_r0_g144_h118_t26 -1 p_r1_g11_h152_t26 -1 p_r1_g20_h161_t26 -1 p_r1_g28_h2_t26 -1 p_r1_g41_h15_t26 -1 p_r1_g57_h31_t26 -1 p_r1_g59_h33_t26 -1 p_r1_g67_h41_t26 -1 p_r1_g73_h47_t26 -1 p_r1_g83_h57_t26 -1 p_r1_g86_h60_t26 -1 p_r1_g117_h91_t26 -1 p_r1_g164_h138_t26 -1 p_r2_g8_h149_t26 -1 p_r2_g21_h162_t26 -1 p_r2_g126_h100_t26 -1 p_r2_g136_h110_t26 -1 p_r2_g152_h126_t26 -1 p_r2_g158_h132_t26 -1 p_r2_g162_h136_t26 -1 p_r3_g15_h156_t26 -1 p_r3_g16_h157_t26 -1 p_r3_g20_h161_t26 -1 p_r3_g24_h165_t26 -1 p_r3_g33_h7_t26 -1 p_r3_g59_h33_t26 -1 p_r3_g95_h69_t26 -1 p_r3_g137_h111_t26 = -81 ;
1 d_26 -1 u_26 <= 0 ;
-1 d_26 -1 u_26 <= 0 ;
1 u_26 -1 M <= 0 ;
1 u_26 <= 1 ;
1 p_r0_g1_h139_t29 -1 x_r0_g1 <= 0 ;
1 p_r0_g1_h139_t29 -1 x_r0_g139 <= 0 ;
1 p_r0_g1_h139_t29 -1 x_r0_g1 -1 x_r0_g139 >= -1 ;
1 p_r0_g8_h146_t29 -1 x_r0_g8 <= 0 ;
1 p_r0_g8_h146_t29 -1 x_r0_g146 <= 0 ;
1 p_r0_g8_h146_t29 -1 x_r0_g8 -1 x_r0_g146 >= -1 ;
1 p_r0_g51_h22_t29 -1 x_r0_g51 <= 0 ;
1 p_r0_g51_h22_t29 -1 x_r0_g22 <= 0 ;
1 p_r0_g51_h22_t29 -1 x_r0_g51 -1 x_r0_g22 >= -1 ;
1 p_r0_g67_h38_t29 -1 x_r0_g67 <= 0 ;
1 p_r0_g67_h38_t29 -1 x_r0_g38 <= 0 ;
1 p_r0_g67_h38_t29 -1 x_r0_g67 -1 x_r0_g38 >= -1 ;
1 p_r0_g89_h60_t29 -1 x_r0_g89 <= 0 ;
1 p_r0_g89_h60_t29 -1 x_r0_g60 <= 0 ;
1 p_r0_g89_h60_t29 -1 x_r0_g89 -1 x_r0_g60 >= -1 ;
1 p_r0_g91_h62_t29 -1 x_r0_g91 <= 0 ;
1 p_r0_g91_h62_t29 -1 x_r0_g62 <= 0 ;
1 p_r0_g91_h62_t29 -1 x_r0_g91 -1 x_r0_g62 >= -1 ;
1 p_r0_g97_h68_t29 -1 x_r0_g97 <= 0 ;
1 p_r0_g97_h68_t29 -1 x_r0_g68 <= 0 ;
1 p_r0_g97_h68_t29 -1 x_r0_g97 -1 x_r0_g68 >= -1 ;
1 p_r0_g108_h79_t29 -1 x_r0_g108 <= 0 ;
1 p_r0_g108_h79_t29 -1 x_r0_g79 <= 0 ;
1 p_r0_g108_h79_t29 -1 x_r0_g108 -1 x_r0_g79 >= -1 ;
1 p_r0_g116_h87_t29 -1 x_r0_g116 <= 0 ;
1 p_r0_g116_h87_t29 -1 x_r0_g87 <= 0 ;
1 p_r0_g116_h87_t29 -1 x_r0_g116 -1 x_r0_g87 >= -1 ;
1 p_r0_g118_h89_t29 -1 x_r0_g118 <= 0 ;
1 p_r0_g118_h89_t29 -1 x_r0_g89 <= 0 ;
1 p_r0_g118_h89_t29 -1 x_r0_g118 -1 x_r0_g89 >= -1 ;
1 p_r0_g130_h101_t29 -1 x_r0_g130 <= 0 ;
1 p_r0_g130_h101_t29 -1 x_r0_g101 <= 0 ;
1 p_r0_g130_h101_t29 -1 x_r0_g130 -1 x_r0_g101 >= -1 ;
1 p_r0_g152_h123_t29 -1 x_r0_g152 <= 0 ;
1 p_r0_g152_h123_t29 -1 x_r0_g123 <= 0 ;
1 p_r0_g152_h123_t29 -1 x_r0_g152 -1 x_r0_g123 >= -1 ;
1 p_r1_g28_h166_t29 -1 x_r1_g28 <= 0 ;
1 p_r1_g28_h166_t29 -1 x_r1_g166 <= 0 ;
1 p_r1_g28_h166_t29 -1 x_r1_g28 -1 x_r1_g166 >= -1 ;
1 p_r1_g31_h2_t29 -1 x_r1_g31 <= 0 ;
1 p_r1_g31_h2_t29 -1 x_r1_g2 <= 0 ;
1 p_r1_g31_h2_t29 -1 x_r1_g31 -1 x_r1_g2 >= -1 ;
1 p_r1_g57_h28_t29 -1 x_r1_g57 <= 0 ;
1 p_r1_g57_h28_t29 -1 x_r1_g28 <= 0 ;
1 p_r1_g57_h28_t29 -1 x_r1_g57 -1 x_r1_g28 >= -1 ;
1 p_r1_g60_h31_t29 -1 x_r1_g60 <= 0 ;
1 p_r1_g60_h31_t29 -1 x_r1_g31 <= 0 ;
1 p_r1_g60_h31_t29 -1 x_r1_g60 -1 x_r1_g31 >= -1 ;
1 p_r1_g67_h38_t29 -1 x_r1_g67 <= 0 ;
1 p_r1_g67_h38_t29 -1 x_r1_g38 <= 0 ;
1 p_r1_g67_h38_t29 -1 x_r1_g67 -1 x_r1_g38 >= -1 ;
1 p_r1_g71_h42_t29 -1 x_r1_g71 <= 0 ;
1 p_r1_g71_h42_t29 -1 x_r1_g42 <= 0 ;
1 p_r1_g71_h42_t29 -1 x_r1_g71 -1 x_r1_g42 >= -1 ;
1 p_r1_g86_h57_t29 -1 x_r1_g86 <= 0 ;
1 p_r1_g86_h57_t29 -1 x_r1_g57 <= 0 ;
1 p_r1_g86_h57_t29 -1 x_r1_g86 -1 x_r1_g57 >= -1 ;
1 p_r1_g96_h67_t29 -1 x_r1_g96 <= 0 ;
1 p_r1_g96_h67_t29 -1 x_r1_g67 <= 0 ;
1 p_r1_g96_h67_t29 -1 x_r1_g96 -1 x_r1_g67 >= -1 ;
1 p_r1_g125_h96_t29 -1 x_r1_g125 <= 0 ;
1 p_r1_g125_h96_t29 -1 x_r1_g96 <= 0 ;
1 p_r1_g125_h96_t29 -1 x_r1_g125 -1 x_r1_g96 >= -1 ;
1 p_r2_g2_h140_t29 -1 x_r2_g2 <= 0 ;
1 p_r2_g2_h140_t29 -1 x_r2_g140 <= 0 ;
1 p_r2_g2_h140_t29 -1 x_r2_g2 -1 x_r2_g140 >= -1 ;
1 p_r2_g7_h145_t29 -1 x_r2_g7 <= 0 ;
1 p_r2_g7_h145_t29 -1 x_r2_g145 <= 0 ;
1 p_r2_g7_h145_t29 -1 x_r2_g7 -1 x_r2_g145 >= -1 ;
1 p_r2_g8_h146_t29 -1 x_r2_g8 <= 0 ;
1 p_r2_g8_h146_t29 -1 x_r2_g146 <= 0 ;
1 p_r2_g8_h146_t29 -1 x_r2_g8 -1 x_r2_g146 >= -1 ;
1 p_r2_g48_h19_t29 -1 x_r2_g48 <= 0 ;
1 p_r2_g48_h19_t29 -1 x_r2_g19 <= 0 ;
1 p_r2_g48_h19_t29 -1 x_r2_g48 -1 x_r2_g19 >= -1 ;
1 p_r2_g77_h48_t29 -1 x_r2_g77 <= 0 ;
1 p_r2_g77_h48_t29 -1 x_r2_g48 <= 0 ;
1 p_r2_g77_h48_t29 -1 x_r2_g77 -1 x_r2_g48 >= -1 ;
1 p_r2_g94_h65_t29 -1 x_r2_g94 <= 0 ;
1 p_r2_g94_h65_t29 -1 x_r2_g65 <= 0 ;
1 p_r2_g94_h65_t29 -1 x_r2_g94 -1 x_r2_g65 >= -1 ;
1 p_r2_g111_h82_t29 -1 x_r2_g111 <= 0 ;
1 p_r2_g111_h82_t29 -1 x_r2_g82 <= 0 ;
1 p_r2_g111_h82_t29 -1 x_r2_g111 -1 x_r2_g82 >= -1 ;
1 p_r2_g126_h97_t29 -1 x_r2_g126 <= 0 ;
1 p_r2_g126_h97_t29 -1 x_r2_g97 <= 0 ;
1 p_r2_g126_h97_t29 -1 x_r2_g126 -1 x_r2_g97 >= -1 ;
1 p_r2_g129_h100_t29 -1 x_r2_g129 <= 0 ;
1 p_r2_g129_h100_t29 -1 x_r2_g100 <= 0 ;
1 p_r2_g129_h100_t29 -1 x_r2_g129 -1 x_r2_g100 >= -1 ;
1 p_r2_g136_h107_t29 -1 x_r2_g136 <= 0 ;
1 p_r2_g136_h107_t29 -1 x_r2_g107 <= 0 ;
1 p_r2_g136_h107_t29 -1 x_r2_g136 -1 x_r2_g107 >= -1 ;
1 p_r2_g140_h111_t29 -1 x_r2_g140 <= 0 ;
1 p_r2_g140_h111_t29 -1 x_r2_g111 <= 0 ;
1 p_r2_g140_h111_t29 -1 x_r2_g140 -1 x_r2_g111 >= -1 ;
1 p_r2_g158_h129_t29 -1 x_r2_g158 <= 0 ;
1 p_r2_g158_h129_t29 -1 x_r2_g129 <= 0 ;
1 p_r2_g158_h129_t29 -1 x_r2_g158 -1 x_r2_g129 >= -1 ;
1 p_r2_g165_h136_t29 -1 x_r2_g165 <= 0 ;
1 p_r2_g165_h136_t29 -1 x_r2_g136 <= 0 ;
1 p_r2_g165_h136_t29 -1 x_r2_g165 -1 x_r2_g136 >= -1 ;
1 p_r3_g7_h145_t29 -1 x_r3_g7 <= 0 ;
1 p_r3_g7_h145_t29 -1 x_r3_g145 <= 0 ;
1 p_r3_g7_h145_t29 -1 x_r3_g7 -1 x_r3_g145 >= -1 ;
1 p_r3_g19_h157_t29 -1 x_r3_g19 <= 0 ;
1 p_r3_g19_h157_t29 -1 x_r3_g157 <= 0 ;
1 p_r3_g19_h157_t29 -1 x_r3_g19 -1 x_r3_g157 >= -1 ;
1 p_r3_g36_h7_t29 -1 x_r3_g36 <= 0 ;
1 p_r3_g36_h7_t29 -1 x_r3_g7 <= 0 ;
1 p_r3_g36_h7_t29 -1 x_r3_g36 -1 x_r3_g7 >= -1 ;
1 p_r3_g40_h11_t29 -1 x_r3_g40 <= 0 ;
1 p_r3_g40_h11_t29 -1 x_r3_g11 <= 0 ;
1 p_r3_g40_h11_t29 -1 x_r3_g40 -1 x_r3_g11 >= -1 ;
1 p_r3_g53_h24_t29 -1 x_r3_g53 <= 0 ;
1 p_r3_g53_h24_t29 -1 x_r3_g24 <= 0 ;
1 p_r3_g53_h24_t29 -1 x_r3_g53 -1 x_r3_g24 >= -1 ;
1 p_r3_g65_h36_t29 -1 x_r3_g65 <= 0 ;
1 p_r3_g65_h36_t29 -1 x_r3_g36 <= 0 ;
1 p_r3_g65_h36_t29 -1 x_r3_g65 -1 x_r3_g36 >= -1 ;
1 p_r3_g69_h40_t29 -1 x_r3_g69 <= 0 ;
1 p_r3_g69_h40_t29 -1 x_r3_g40 <= 0 ;
1 p_r3_g69_h40_t29 -1 x_r3_g69 -1 x_r3_g40 >= -1 ;
1 p_r3_g105_h76_t29 -1 x_r3_g105 <= 0 ;
1 p_r3_g105_h76_t29 -1 x_r3_g76 <= 0 ;
1 p_r3_g105_h76_t29 -1 x_r3_g105 -1 x_r3_g76 >= -1 ;
1 p_r3_g124_h95_t29 -1 x_r3_g124 <= 0 ;
1 p_r3_g124_h95_t29 -1 x_r3_g95 <= 0 ;
1 p_r3_g124_h95_t29 -1 x_r3_g124 -1 x_r3_g95 >= -1 ;
1 p_r3_g134_h105_t29 -1 x_r3_g134 <= 0 ;
1 p_r3_g134_h105_t29 -1 x_r3_g105 <= 0 ;
1 p_r3_g134_h105_t29 -1 x_r3_g134 -1 x_r3_g105 >= -1 ;
1 p_r3_g157_h128_t29 -1 x_r3_g157 <= 0 ;
1 p_r3_g157_h128_t29 -1 x_r3_g128 <= 0 ;
1 p_r3_g157_h128_t29 -1 x_r3_g157 -1 x_r3_g128 >= -1 ;
1 d_29 -1 x_r0_g1 -1 x_r0_g8 -1 x_r0_g22 -1 x_r0_g23 -1 x_r0_g26 -2 x_r0_g34 -1 x_r0_g35 -1 x_r0_g45 -1 x_r0_g54 -2 x_r0_g69 -1 x_r0_g87 -1 x_r0_g88 -1 x_r0_g91 -1 x_r0_g92 -1 x_r0_g93 -1 x_r0_g97 -1 x_r0_g108 -1 x_r0_g114 -1 x_r0_g130 -1 x_r0_g132 -1 x_r0_g144 -1 x_r0_g150 -1 x_r0_g152 -1 x_r1_g2 -2 x_r1_g8 -1 x_r1_g10 -1 x_r1_g11 -1 x_r1_g15 -2 x_r1_g17 -1 x_r1_g20 -1 x_r1_g27 -1 x_r1_g33 -1 x_r1_g41 -1 x_r1_g47 -1 x_r1_g51 -1 x_r1_g59 -1 x_r1_g60 -1 x_r1_g71 -1 x_r1_g73 -1 x_r1_g75 -1 x_r1_g83 -1 x_r1_g86 -1 x_r1_g91 -2 x_r1_g95 -1 x_r1_g108 -1 x_r1_g113 -2 x_r1_g117 -1 x_r1_g125 -1 x_r1_g138 -1 x_r1_g152 -1 x_r1_g161 -1 x_r1_g164 -1 x_r2_g2 -2 x_r2_g12 -1 x_r2_g19 -1 x_r2_g30 -1 x_r2_g60 -1 x_r2_g69 -2 x_r2_g72 -1 x_r2_g73 -2 x_r2_g92 -1 x_r2_g97 -1 x_r2_g107 -1 x_r2_g110 -1 x_r2_g128 -1 x_r2_g132 -2 x_r2_g142 -1 x_r2_g145 -1 x_r2_g149 -1 x_r2_g152 -1 x_r2_g158 -2 x_r2_g164 -1 x_r2_g165 -1 x_r3_g8 -1 x_r3_g11 -1 x_r3_g13 -2 x_r3_g16 -1 x_r3_g20 -1 x_r3_g24 -2 x_r3_g33 -1 x_r3_g52 -1 x_r3_g56 -2 x_r3_g57 -1 x_r3_g59 -1 x_r3_g65 -1 x_r3_g67 -1 x_r3_g68 -1 x_r3_g69 -1 x_r3_g76 -2 x_r3_g90 -1 x_r3_g95 -1 x_r3_g100 -2 x_r3_g103 -1 x_r3_g111 -1 x_r3_g128 -1 x_r3_g134 -2 x_r3_g137 -1 x_r3_g144 -2 x_r3_g156 -1 x_r3_g161 -1 x_r3_g165 -1 p_r0_g1_h139_t29 -1 p_r0_g8_h146_t29 -1 p_r0_g51_h22_t29 -1 p_r0_g67_h38_t29 -1 p_r0_g89_h60_t29 -1 p_r0_g91_h62_t29 -1 p_r0_g97_h68_t29 -1 p_r0_g108_h79_t29 -1 p_r0_g116_h87_t29 -1 p_r0_g118_h89_t29 -1 p_r0_g130_h101_t29 -1 p_r0_g152_h123_t29 -1 p_r1_g28_h166_t29 -1 p_r1_g31_h2_t29 -1 p_r1_g57_h28_t29 -1 p_r1_g60_h31_t29 -1 p_r1_g67_h38_t29 -1 p_r1_g71_h42_t29 -1 p_r1_g86_h57_t29 -1 p_r1_g96_h67_t29 -1 p_r1_g125_h96_t29 -1 p_r2_g2_h140_t29 -1 p_r2_g7_h145_t29 -1 p_r2_g8_h146_t29 -1 p_r2_g48_h19_t29 -1 p_r2_g77_h48_t29 -1 p_r2_g94_h65_t29 -1 p_r2_g111_h82_t29 -1 p_r2_g126_h97_t29 -1 p_r2_g129_h100_t29 -1 p_r2_g136_h107_t29 -1 p_r2_g140_h111_t29 -1 p_r2_g158_h129_t29 -1 p_r2_g165_h136_t29 -1 p_r3_g7_h145_t29 -1 p_r3_g19_h157_t29 -1 p_r3_g36_h7_t29 -1 p_r3_g40_h11_t29 -1 p_r3_g53_h24_t29 -1 p_r3_g65_h36_t29 -1 p_r3_g69_h40_t29 -1 p_r3_g105_h76_t29 -1 p_r3_g124_h95_t29 -1 p_r3_g134_h105_t29 -1 p_r3_g157_h128_t29 = -44 ;
1 d_29 -1 u_29 <= 0 ;
-1 d_29 -1 u_29 <= 0 ;
1 u_29 -1 M <= 0 ;
1 u_29 <= 2 ;
1 p_r0_g22_h152_t37 -1 x_r0_g22 <= 0 ;
1 p_r0_g22_h152_t37 -1 x_r0_g152 <= 0 ;
1 p_r0_g22_h152_t37 -1 x_r0_g22 -1 x_r0_g152 >= -1 ;
1 p_r0_g38_h1_t37 -1 x_r0_g38 <= 0 ;
1 p_r0_g38_h1_t37 -1 x_r0_g1 <= 0 ;
1 p_r0_g38_h1_t37 -1 x_r0_g38 -1 x_r0_g1 >= -1 ;
1 p_r0_g45_h8_t37 -1 x_r0_g45 <= 0 ;
1 p_r0_g45_h8_t37 -1 x_r0_g8 <= 0 ;
1 p_r0_g45_h8_t37 -1 x_r0_g45 -1 x_r0_g8 >= -1 ;
1 p_r0_g60_h23_t37 -1 x_r0_g60 <= 0 ;
1 p_r0_g60_h23_t37 -1 x_r0_g23 <= 0 ;
1 p_r0_g60_h23_t37 -1 x_r0_g60 -1 x_r0_g23 >= -1 ;
1 p_r0_g88_h51_t37 -1 x_r0_g88 <= 0 ;
1 p_r0_g88_h51_t37 -1 x_r0_g51 <= 0 ;
1 p_r0_g88_h51_t37 -1 x_r0_g88 -1 x_r0_g51 >= -1 ;
1 p_r0_g91_h54_t37 -1 x_r0_g91 <= 0 ;
1 p_r0_g91_h54_t37 -1 x_r0_g54 <= 0 ;
1 p_r0_g91_h54_t37 -1 x_r0_g91 -1 x_r0_g54 >= -1 ;
1 p_r0_g97_h60_t37 -1 x_r0_g97 <= 0 ;
1 p_r0_g97_h60_t37 -1 x_r0_g60 <= 0 ;
1 p_r0_g97_h60_t37 -1 x_r0_g97 -1 x_r0_g60 >= -1 ;
1 p_r0_g116_h79_t37 -1 x_r0_g116 <= 0 ;
1 p_r0_g116_h79_t37 -1 x_r0_g79 <= 0 ;
1 p_r0_g116_h79_t37 -1 x_r0_g116 -1 x_r0_g79 >= -1 ;
1 p_r0_g130_h93_t37 -1 x_r0_g130 <= 0 ;
1 p_r0_g130_h93_t37 -1 x_r0_g93 <= 0 ;
1 p_r0_g130_h93_t37 -1 x_r0_g130 -1 x_r0_g93 >= -1 ;
1 p_r0_g132_h95_t37 -1 x_r0_g132 <= 0 ;
1 p_r0_g132_h95_t37 -1 x_r0_g95 <= 0 ;
1 p_r0_g132_h95_t37 -1 x_r0_g132 -1 x_r0_g95 >= -1 ;
1 p_r1_g8_h138_t37 -1 x_r1_g8 <= 0 ;
1 p_r1_g8_h138_t37 -1 x_r1_g138 <= 0 ;
1 p_r1_g8_h138_t37 -1 x_r1_g8 -1 x_r1_g138 >= -1 ;
1 p_r1_g31_h161_t37 -1 x_r1_g31 <= 0 ;
1 p_r1_g31_h161_t37 -1 x_r1_g161 <= 0 ;
1 p_r1_g31_h161_t37 -1 x_r1_g31 -1 x_r1_g161 >= -1 ;
1 p_r1_g47_h10_t37 -1 x_r1_g47 <= 0 ;
1 p_r1_g47_h10_t37 -1 x_r1_g10 <= 0 ;
1 p_r1_g47_h10_t37 -1 x_r1_g47 -1 x_r1_g10 >= -1 ;
1 p_r1_g57_h20_t37 -1 x_r1_g57 <= 0 ;
1 p_r1_g57_h20_t37 -1 x_r1_g20 <= 0 ;
1 p_r1_g57_h20_t37 -1 x_r1_g57 -1 x_r1_g20 >= -1 ;
1 p_r1_g75_h38_t37 -1 x_r1_g75 <= 0 ;
1 p_r1_g75_h38_t37 -1 x_r1_g38 <= 0 ;
1 p_r1_g75_h38_t37 -1 x_r1_g75 -1 x_r1_g38 >= -1 ;
1 p_r1_g96_h59_t37 -1 x_r1_g96 <= 0 ;
1 p_r1_g96_h59_t37 -1 x_r1_g59 <= 0 ;
1 p_r1_g96_h59_t37 -1 x_r1_g96 -1 x_r1_g59 >= -1 ;
1 p_r1_g108_h71_t37 -1 x_r1_g108 <= 0 ;
1 p_r1_g108_h71_t37 -1 x_r1_g71 <= 0 ;
1 p_r1_g108_h71_t37 -1 x_r1_g108 -1 x_r1_g71 >= -1 ;
1 p_r2_g2_h132_t37 -1 x_r2_g2 <= 0 ;
1 p_r2_g2_h132_t37 -1 x_r2_g132 <= 0 ;
1 p_r2_g2_h132_t37 -1 x_r2_g2 -1 x_r2_g132 >= -1 ;
1 p_r2_g12_h142_t37 -1 x_r2_g12 <= 0 ;
1 p_r2_g12_h142_t37 -1 x_r2_g142 <= 0 ;
1 p_r2_g12_h142_t37 -1 x_r2_g12 -1 x_r2_g142 >= -1 ;
1 p_r2_g19_h149_t37 -1 x_r2_g19 <= 0 ;
1 p_r2_g19_h149_t37 -1 x_r2_g149 <= 0 ;
1 p_r2_g19_h149_t37 -1 x_r2_g19 -1 x_r2_g149 >= -1 ;
1 p_r2_g97_h60_t37 -1 x_r2_g97 <= 0 ;
1 p_r2_g97_h60_t37 -1 x_r2_g60 <= 0 ;
1 p_r2_g97_h60_t37 -1 x_r2_g97 -1 x_r2_g60 >= -1 ;
1 p_r2_g110_h73_t37 -1 x_r2_g110 <= 0 ;
1 p_r2_g110_h73_t37 -1 x_r2_g73 <= 0 ;
1 p_r2_g110_h73_t37 -1 x_r2_g110 -1 x_r2_g73 >= -1 ;
1 p_r2_g129_h92_t37 -1 x_r2_g129 <= 0 ;
1 p_r2_g129_h92_t37 -1 x_r2_g92 <= 0 ;
1 p_r2_g129_h92_t37 -1 x_r2_g129 -1 x_r2_g92 >= -1 ;
1 p_r2_g165_h128_t37 -1 x_r2_g165 <= 0 ;
1 p_r2_g165_h128_t37 -1 x_r2_g128 <= 0 ;
1 p_r2_g165_h128_t37 -1 x_r2_g165 -1 x_r2_g128 >= -1 ;
1 p_r3_g7_h137_t37 -1 x_r3_g7 <= 0 ;
1 p_r3_g7_h137_t37 -1 x_r3_g137 <= 0 ;
1 p_r3_g7_h137_t37 -1 x_r3_g7 -1 x_r3_g137 >= -1 ;
1 p_r3_g8_h138_t37 -1 x_r3_g8 <= 0 ;
1 p_r3_g8_h138_t37 -1 x_r3_g138 <= 0 ;
1 p_r3_g8_h138_t37 -1 x_r3_g8 -1 x_r3_g138 >= -1 ;
1 p_r3_g15_h145_t37 -1 x_r3_g15 <= 0 ;
1 p_r3_g15_h145_t37 -1 x_r3_g145 <= 0 ;
1 p_r3_g15_h145_t37 -1 x_r3_g15 -1 x_r3_g145 >= -1 ;
1 p_r3_g52_h15_t37 -1 x_r3_g52 <= 0 ;
1 p_r3_g52_h15_t37 -1 x_r3_g15 <= 0 ;
1 p_r3_g52_h15_t37 -1 x_r3_g52 -1 x_r3_g15 >= -1 ;
1 p_r3_g53_h16_t37 -1 x_r3_g53 <= 0 ;
1 p_r3_g53_h16_t37 -1 x_r3_g16 <= 0 ;
1 p_r3_g53_h16_t37 -1 x_r3_g53 -1 x_r3_g16 >= -1 ;
1 p_r3_g56_h19_t37 -1 x_r3_g56 <= 0 ;
1 p_r3_g56_h19_t37 -1 x_r3_g19 <= 0 ;
1 p_r3_g56_h19_t37 -1 x_r3_g56 -1 x_r3_g19 >= -1 ;
1 p_r3_g57_h20_t37 -1 x_r3_g57 <= 0 ;
1 p_r3_g57_h20_t37 -1 x_r3_g20 <= 0 ;
1 p_r3_g57_h20_t37 -1 x_r3_g57 -1 x_r3_g20 >= -1 ;
1 p_r3_g90_h53_t37 -1 x_r3_g90 <= 0 ;
1 p_r3_g90_h53_t37 -1 x_r3_g53 <= 0 ;
1 p_r3_g90_h53_t37 -1 x_r3_g90 -1 x_r3_g53 >= -1 ;
1 p_r3_g105_h68_t37 -1 x_r3_g105 <= 0 ;
1 p_r3_g105_h68_t37 -1 x_r3_g68 <= 0 ;
1 p_r3_g105_h68_t37 -1 x_r3_g105 -1 x_r3_g68 >= -1 ;
1 p_r3_g137_h100_t37 -1 x_r3_g137 <= 0 ;
1 p_r3_g137_h100_t37 -1 x_r3_g100 <= 0 ;
1 p_r3_g137_h100_t37 -1 x_r3_g137 -1 x_r3_g100 >= -1 ;
1 p_r3_g161_h124_t37 -1 x_r3_g161 <= 0 ;
1 p_r3_g161_h124_t37 -1 x_r3_g124 <= 0 ;
1 p_r3_g161_h124_t37 -1 x_r3_g161 -1 x_r3_g124 >= -1 ;
1 p_r3_g165_h128_t37 -1 x_r3_g165 <= 0 ;
1 p_r3_g165_h128_t37 -1 x_r3_g128 <= 0 ;
1 p_r3_g165_h128_t37 -1 x_r3_g165 -1 x_r3_g128 >= -1 ;
1 d_37 -1 x_r0_g1 -1 x_r0_g22 -1 x_r0_g26 -1 x_r0_g35 -1 x_r0_g51 -1 x_r0_g62 -1 x_r0_g67 -1 x_r0_g69 -1 x_r0_g79 -1 x_r0_g88 -2 x_r0_g89 -1 x_r0_g92 -1 x_r0_g95 -2 x_r0_g114 -1 x_r0_g118 -1 x_r0_g123 -1 x_r0_g139 -1 x_r0_g144 -2 x_r0_g150 -2 x_r1_g2 -1 x_r1_g10 -1 x_r1_g11 -1 x_r1_g27 -1 x_r1_g28 -2 x_r1_g29 -1 x_r1_g31 -2 x_r1_g33 -1 x_r1_g38 -1 x_r1_g41 -1 x_r1_g42 -1 x_r1_g47 -1 x_r1_g51 -1 x_r1_g73 -1 x_r1_g75 -1 x_r1_g83 -2 x_r1_g86 -1 x_r1_g91 -1 x_r1_g95 -2 x_r1_g117 -1 x_r1_g125 -1 x_r1_g152 -1 x_r1_g160 -1 x_r1_g161 -1 x_r1_g164 -1 x_r1_g166 -1 x_r2_g0 -1 x_r2_g2 -1 x_r2_g7 -1 x_r2_g12 -1 x_r2_g18 -1 x_r2_g19 -2 x_r2_g21 -1 x_r2_g30 -1 x_r2_g48 -2 x_r2_g65 -1 x_r2_g77 -1 x_r2_g80 -1 x_r2_g82 -1 x_r2_g97 -2 x_r2_g100 -1 x_r2_g107 -2 x_r2_g111 -1 x_r2_g126 -1 x_r2_g142 -1 x_r2_g149 -1 x_r2_g152 -2 x_r2_g158 -1 x_r2_g164 -1 x_r3_g8 -1 x_r3_g13 -1 x_r3_g19 -2 x_r3_g24 -1 x_r3_g33 -1 x_r3_g36 -1 x_r3_g40 -1 x_r3_g52 -1 x_r3_g57 -1 x_r3_g59 -1 x_r3_g65 -1 x_r3_g67 -2 x_r3_g69 -1 x_r3_g76 -1 x_r3_g80 -1 x_r3_g90 -1 x_r3_g95 -2 x_r3_g103 -1 x_r3_g105 -2 x_r3_g111 -1 x_r3_g134 -1 x_r3_g145 -2 x_r3_g156 -1 x_r3_g157 -1 p_r0_g22_h152_t37 -1 p_r0_g38_h1_t37 -1 p_r0_g45_h8_t37 -1 p_r0_g60_h23_t37 -1 p_r0_g88_h51_t37 -1 p_r0_g91_h54_t37 -1 p_r0_g97_h60_t37 -1 p_r0_g116_h79_t37 -1 p_r0_g130_h93_t37 -1 p_r0_g132_h95_t37 -1 p_r1_g8_h138_t37 -1 p_r1_g31_h161_t37 -1 p_r1_g47_h10_t37 -1 p_r1_g57_h20_t37 -1 p_r1_g75_h38_t37 -1 p_r1_g96_h59_t37 -1 p_r1_g108_h71_t37 -1 p_r2_g2_h132_t37 -1 p_r2_g12_h142_t37 -1 p_r2_g19_h149_t37 -1 p_r2_g97_h60_t37 -1 p_r2_g110_h73_t37 -1 p_r2_g129_h92_t37 -1 p_r2_g165_h128_t37 -1 p_r3_g7_h137_t37 -1 p_r3_g8_h138_t37 -1 p_r3_g15_h145_t37 -1 p_r3_g52_h15_t37 -1 p_r3_g53_h16_t37 -1 p_r3_g56_h19_t37 -1 p_r3_g57_h20_t37 -1 p_r3_g90_h53_t37 -1 p_r3_g105_h68_t37 -1 p_r3_g137_h100_t37 -1 p_r3_g161_h124_t37 -1 p_r3_g165_h128_t37 = -49 ;
1 d_37 -1 u_37 <= 0 ;
-1 d_37 -1 u_37 <= 0 ;
1 u_37 -1 M <= 0 ;
1 u_37 <= 1 ;
1 p_r0_g1_h130_t38 -1 x_r0_g1 <= 0 ;
1 p_r0_g1_h130_t38 -1 x_r0_g130 <= 0 ;
1 p_r0_g1_h130_t38 -1 x_r0_g1 -1 x_r0_g130 >= -1 ;
1 p_r0_g23_h152_t38 -1 x_r0_g23 <= 0 ;
1 p_r0_g23_h152_t38 -1 x_r0_g152 <= 0 ;
1 p_r0_g23_h152_t38 -1 x_r0_g23 -1 x_r0_g152 >= -1 ;
1 p_r0_g60_h22_t38 -1 x_r0_g60 <= 0 ;
1 p_r0_g60_h22_t38 -1 x_r0_g22 <= 0 ;
1 p_r0_g60_h22_t38 -1 x_r0_g60 -1 x_r0_g22 >= -1 ;
1 p_r0_g89_h51_t38 -1 x_r0_g89 <= 0 ;
1 p_r0_g89_h51_t38 -1 x_r0_g51 <= 0 ;
1 p_r0_g89_h51_t38 -1 x_r0_g89 -1 x_r0_g51 >= -1 ;
1 p_r0_g92_h54_t38 -1 x_r0_g92 <= 0 ;
1 p_r0_g92_h54_t38 -1 x_r0_g54 <= 0 ;
1 p_r0_g92_h54_t38 -1 x_r0_g92 -1 x_r0_g54 >= -1 ;
1 p_r0_g108_h70_t38 -1 x_r0_g108 <= 0 ;
1 p_r0_g108_h70_t38 -1 x_r0_g70 <= 0 ;
1 p_r0_g108_h70_t38 -1 x_r0_g108 -1 x_r0_g70 >= -1 ;
1 p_r0_g130_h92_t38 -1 x_r0_g130 <= 0 ;
1 p_r0_g130_h92_t38 -1 x_r0_g92 <= 0 ;
1 p_r0_g130_h92_t38 -1 x_r0_g130 -1 x_r0_g92 >= -1 ;
1 p_r0_g139_h101_t38 -1 x_r0_g139 <= 0 ;
1 p_r0_g139_h101_t38 -1 x_r0_g101 <= 0 ;
1 p_r0_g139_h101_t38 -1 x_r0_g139 -1 x_r0_g101 >= -1 ;
1 p_r0_g146_h108_t38 -1 x_r0_g146 <= 0 ;
1 p_r0_g146_h108_t38 -1 x_r0_g108 <= 0 ;
1 p_r0_g146_h108_t38 -1 x_r0_g146 -1 x_r0_g108 >= -1 ;
1 p_r0_g152_h114_t38 -1 x_r0_g152 <= 0 ;
1 p_r0_g152_h114_t38 -1 x_r0_g114 <= 0 ;
1 p_r0_g152_h114_t38 -1 x_r0_g152 -1 x_r0_g114 >= -1 ;
1 p_r1_g31_h160_t38 -1 x_r1_g31 <= 0 ;
1 p_r1_g31_h160_t38 -1 x_r1_g160 <= 0 ;
1 p_r1_g31_h160_t38 -1 x_r1_g31 -1 x_r1_g160 >= -1 ;
1 p_r1_g67_h29_t38 -1 x_r1_g67 <= 0 ;
1 p_r1_g67_h29_t38 -1 x_r1_g29 <= 0 ;
1 p_r1_g67_h29_t38 -1 x_r1_g67 -1 x_r1_g29 >= -1 ;
1 p_r1_g71_h33_t38 -1 x_r1_g71 <= 0 ;
1 p_r1_g71_h33_t38 -1 x_r1_g33 <= 0 ;
1 p_r1_g71_h33_t38 -1 x_r1_g71 -1 x_r1_g33 >= -1 ;
1 p_r1_g95_h57_t38 -1 x_r1_g95 <= 0 ;
1 p_r1_g95_h57_t38 -1 x_r1_g57 <= 0 ;
1 p_r1_g95_h57_t38 -1 x_r1_g95 -1 x_r1_g57 >= -1 ;
1 p_r1_g113_h75_t38 -1 x_r1_g113 <= 0 ;
1 p_r1_g113_h75_t38 -1 x_r1_g75 <= 0 ;
1 p_r1_g113_h75_t38 -1 x_r1_g113 -1 x_r1_g75 >= -1 ;
1 p_r1_g152_h114_t38 -1 x_r1_g152 <= 0 ;
1 p_r1_g152_h114_t38 -1 x_r1_g114 <= 0 ;
1 p_r1_g152_h114_t38 -1 x_r1_g152 -1 x_r1_g114 >= -1 ;
1 p_r2_g0_h129_t38 -1 x_r2_g0 <= 0 ;
1 p_r2_g0_h129_t38 -1 x_r2_g129 <= 0 ;
1 p_r2_g0_h129_t38 -1 x_r2_g0 -1 x_r2_g129 >= -1 ;
1 p_r2_g7_h136_t38 -1 x_r2_g7 <= 0 ;
1 p_r2_g7_h136_t38 -1 x_r2_g136 <= 0 ;
1 p_r2_g7_h136_t38 -1 x_r2_g7 -1 x_r2_g136 >= -1 ;
1 p_r2_g107_h69_t38 -1 x_r2_g107 <= 0 ;
1 p_r2_g107_h69_t38 -1 x_r2_g69 <= 0 ;
1 p_r2_g107_h69_t38 -1 x_r2_g107 -1 x_r2_g69 >= -1 ;
1 p_r2_g110_h72_t38 -1 x_r2_g110 <= 0 ;
1 p_r2_g110_h72_t38 -1 x_r2_g72 <= 0 ;
1 p_r2_g110_h72_t38 -1 x_r2_g110 -1 x_r2_g72 >= -1 ;
1 p_r2_g111_h73_t38 -1 x_r2_g111 <= 0 ;
1 p_r2_g111_h73_t38 -1 x_r2_g73 <= 0 ;
1 p_r2_g111_h73_t38 -1 x_r2_g111 -1 x_r2_g73 >= -1 ;
1 p_r2_g132_h94_t38 -1 x_r2_g132 <= 0 ;
1 p_r2_g132_h94_t38 -1 x_r2_g94 <= 0 ;
1 p_r2_g132_h94_t38 -1 x_r2_g132 -1 x_r2_g94 >= -1 ;
1 p_r2_g145_h107_t38 -1 x_r2_g145 <= 0 ;
1 p_r2_g145_h107_t38 -1 x_r2_g107 <= 0 ;
1 p_r2_g145_h107_t38 -1 x_r2_g145 -1 x_r2_g107 >= -1 ;
1 p_r2_g149_h111_t38 -1 x_r2_g149 <= 0 ;
1 p_r2_g149_h111_t38 -1 x_r2_g111 <= 0 ;
1 p_r2_g149_h111_t38 -1 x_r2_g149 -1 x_r2_g111 >= -1 ;
1 p_r2_g164_h126_t38 -1 x_r2_g164 <= 0 ;
1 p_r2_g164_h126_t38 -1 x_r2_g126 <= 0 ;
1 p_r2_g164_h126_t38 -1 x_r2_g164 -1 x_r2_g126 >= -1 ;
1 p_r3_g8_h137_t38 -1 x_r3_g8 <= 0 ;
1 p_r3_g8_h137_t38 -1 x_r3_g137 <= 0 ;
1 p_r3_g8_h137_t38 -1 x_r3_g8 -1 x_r3_g137 >= -1 ;
1 p_r3_g15_h144_t38 -1 x_r3_g15 <= 0 ;
1 p_r3_g15_h144_t38 -1 x_r3_g144 <= 0 ;
1 p_r3_g15_h144_t38 -1 x_r3_g15 -1 x_r3_g144 >= -1 ;
1 p_r3_g16_h145_t38 -1 x_r3_g16 <= 0 ;
1 p_r3_g16_h145_t38 -1 x_r3_g145 <= 0 ;
1 p_r3_g16_h145_t38 -1 x_r3_g16 -1 x_r3_g145 >= -1 ;
1 p_r3_g36_h165_t38 -1 x_r3_g36 <= 0 ;
1 p_r3_g36_h165_t38 -1 x_r3_g165 <= 0 ;
1 p_r3_g36_h165_t38 -1 x_r3_g36 -1 x_r3_g165 >= -1 ;
1 p_r3_g53_h15_t38 -1 x_r3_g53 <= 0 ;
1 p_r3_g53_h15_t38 -1 x_r3_g15 <= 0 ;
1 p_r3_g53_h15_t38 -1 x_r3_g53 -1 x_r3_g15 >= -1 ;
1 p_r3_g57_h19_t38 -1 x_r3_g57 <= 0 ;
1 p_r3_g57_h19_t38 -1 x_r3_g19 <= 0 ;
1 p_r3_g57_h19_t38 -1 x_r3_g57 -1 x_r3_g19 >= -1 ;
1 p_r3_g90_h52_t38 -1 x_r3_g90 <= 0 ;
1 p_r3_g90_h52_t38 -1 x_r3_g52 <= 0 ;
1 p_r3_g90_h52_t38 -1 x_r3_g90 -1 x_r3_g52 >= -1 ;
1 p_r3_g95_h57_t38 -1 x_r3_g95 <= 0 ;
1 p_r3_g95_h57_t38 -1 x_r3_g57 <= 0 ;
1 p_r3_g95_h57_t38 -1 x_r3_g95 -1 x_r3_g57 >= -1 ;
1 p_r3_g103_h65_t38 -1 x_r3_g103 <= 0 ;
1 p_r3_g103_h65_t38 -1 x_r3_g65 <= 0 ;
1 p_r3_g103_h65_t38 -1 x_r3_g103 -1 x_r3_g65 >= -1 ;
1 p_r3_g105_h67_t38 -1 x_r3_g105 <= 0 ;
1 p_r3_g105_h67_t38 -1 x_r3_g67 <= 0 ;
1 p_r3_g105_h67_t38 -1 x_r3_g105 -1 x_r3_g67 >= -1 ;
1 p_r3_g128_h90_t38 -1 x_r3_g128 <= 0 ;
1 p_r3_g128_h90_t38 -1 x_r3_g90 <= 0 ;
1 p_r3_g128_h90_t38 -1 x_r3_g128 -1 x_r3_g90 >= -1 ;
1 p_r3_g138_h100_t38 -1 x_r3_g138 <= 0 ;
1 p_r3_g138_h100_t38 -1 x_r3_g100 <= 0 ;
1 p_r3_g138_h100_t38 -1 x_r3_g138 -1 x_r3_g100 >= -1 ;
1 d_38 -1 x_r0_g8 -1 x_r0_g22 -1 x_r0_g26 -1 x_r0_g34 -1 x_r0_g45 -1 x_r0_g51 -1 x_r0_g60 -1 x_r0_g62 -2 x_r0_g68 -2 x_r0_g87 -1 x_r0_g88 -1 x_r0_g89 -2 x_r0_g93 -1 x_r0_g97 -1 x_r0_g101 -1 x_r0_g132 -2 x_r0_g144 -1 x_r1_g2 -1 x_r1_g8 -2 x_r1_g11 -1 x_r1_g15 -1 x_r1_g17 -2 x_r1_g27 -1 x_r1_g28 -1 x_r1_g31 -2 x_r1_g41 -1 x_r1_g42 -1 x_r1_g51 -1 x_r1_g60 -1 x_r1_g71 -1 x_r1_g75 -1 x_r1_g86 -1 x_r1_g91 -2 x_r1_g108 -2 x_r1_g117 -2 x_r1_g125 -1 x_r1_g138 -2 x_r1_g161 -2 x_r1_g166 -2 x_r2_g8 -1 x_r2_g18 -1 x_r2_g19 -1 x_r2_g21 -1 x_r2_g30 -1 x_r2_g48 -1 x_r2_g60 -1 x_r2_g65 -1 x_r2_g69 -1 x_r2_g72 -2 x_r2_g77 -1 x_r2_g82 -1 x_r2_g92 -1 x_r2_g94 -1 x_r2_g97 -1 x_r2_g110 -1 x_r2_g128 -1 x_r2_g136 -1 x_r2_g140 -1 x_r2_g142 -1 x_r2_g149 -1 x_r2_g152 -1 x_r2_g158 -1 x_r2_g162 -1 x_r3_g7 -1 x_r3_g8 -2 x_r3_g11 -1 x_r3_g13 -1 x_r3_g19 -1 x_r3_g20 -1 x_r3_g24 -1 x_r3_g33 -1 x_r3_g36 -2 x_r3_g40 -2 x_r3_g56 -1 x_r3_g65 -2 x_r3_g68 -1 x_r3_g76 -1 x_r3_g80 -1 x_r3_g100 -1 x_r3_g105 -1 x_r3_g111 -2 x_r3_g124 -1 x_r3_g128 -1 x_r3_g134 -1 x_r3_g137 -1 x_r3_g138 -1 x_r3_g144 -2 x_r3_g156 -2 x_r3_g157 -2 x_r3_g161 -1 x_r3_g165 -1 p_r0_g1_h130_t38 -1 p_r0_g23_h152_t38 -1 p_r0_g60_h22_t38 -1 p_r0_g89_h51_t38 -1 p_r0_g92_h54_t38 -1 p_r0_g108_h70_t38 -1 p_r0_g130_h92_t38 -1 p_r0_g139_h101_t38 -1 p_r0_g146_h108_t38 -1 p_r0_g152_h114_t38 -1 p_r1_g31_h160_t38 -1 p_r1_g67_h29_t38 -1 p_r1_g71_h33_t38 -1 p_r1_g95_h57_t38 -1 p_r1_g113_h75_t38 -1 p_r1_g152_h114_t38 -1 p_r2_g0_h129_t38 -1 p_r2_g7_h136_t38 -1 p_r2_g107_h69_t38 -1 p_r2_g110_h72_t38 -1 p_r2_g111_h73_t38 -1 p_r2_g132_h94_t38 -1 p_r2_g145_h107_t38 -1 p_r2_g149_h111_t38 -1 p_r2_g164_h126_t38 -1 p_r3_g8_h137_t38 -1 p_r3_g15_h144_t38 -1 p_r3_g16_h145_t38 -1 p_r3_g36_h165_t38 -1 p_r3_g53_h15_t38 -1 p_r3_g57_h19_t38 -1 p_r3_g90_h52_t38 -1 p_r3_g95_h57_t38 -1 p_r3_g103_h65_t38 -1 p_r3_g105_h67_t38 -1 p_r3_g128_h90_t38 -1 p_r3_g138_h100_t38 = -64 ;
1 d_38 -1 u_38 <= 0 ;
-1 d_38 -1 u_38 <= 0 ;
1 u_38 -1 M <= 0 ;
1 u_38 <= 0 ;
1 p_r0_g23_h146_t44 -1 x_r0_g23 <= 0 ;
1 p_r0_g23_h146_t44 -1 x_r0_g146 <= 0 ;
1 p_r0_g23_h146_t44 -1 x_r0_g23 -1 x_r0_g146 >= -1 ;
1 p_r0_g45_h1_t44 -1 x_r0_g45 <= 0 ;
1 p_r0_g45_h1_t44 -1 x_r0_g1 <= 0 ;
1 p_r0_g45_h1_t44 -1 x_r0_g45 -1 x_r0_g1 >= -1 ;
1 p_r0_g67_h23_t44 -1 x_r0_g67 <= 0 ;
1 p_r0_g67_h23_t44 -1 x_r0_g23 <= 0 ;
1 p_r0_g67_h23_t44 -1 x_r0_g67 -1 x_r0_g23 >= -1 ;
1 p_r0_g70_h26_t44 -1 x_r0_g70 <= 0 ;
1 p_r0_g70_h26_t44 -1 x_r0_g26 <= 0 ;
1 p_r0_g70_h26_t44 -1 x_r0_g70 -1 x_r0_g26 >= -1 ;
1 p_r0_g79_h35_t44 -1 x_r0_g79 <= 0 ;
1 p_r0_g79_h35_t44 -1 x_r0_g35 <= 0 ;
1 p_r0_g79_h35_t44 -1 x_r0_g79 -1 x_r0_g35 >= -1 ;
1 p_r0_g89_h45_t44 -1 x_r0_g89 <= 0 ;
1 p_r0_g89_h45_t44 -1 x_r0_g45 <= 0 ;
1 p_r0_g89_h45_t44 -1 x_r0_g89 -1 x_r0_g45 >= -1 ;
1 p_r0_g91_h47_t44 -1 x_r0_g91 <= 0 ;
1 p_r0_g91_h47_t44 -1 x_r0_g47 <= 0 ;
1 p_r0_g91_h47_t44 -1 x_r0_g91 -1 x_r0_g47 >= -1 ;
1 p_r0_g95_h51_t44 -1 x_r0_g95 <= 0 ;
1 p_r0_g95_h51_t44 -1 x_r0_g51 <= 0 ;
1 p_r0_g95_h51_t44 -1 x_r0_g95 -1 x_r0_g51 >= -1 ;
1 p_r0_g114_h70_t44 -1 x_r0_g114 <= 0 ;
1 p_r0_g114_h70_t44 -1 x_r0_g70 <= 0 ;
1 p_r0_g114_h70_t44 -1 x_r0_g114 -1 x_r0_g70 >= -1 ;
1 p_r0_g123_h79_t44 -1 x_r0_g123 <= 0 ;
1 p_r0_g123_h79_t44 -1 x_r0_g79 <= 0 ;
1 p_r0_g123_h79_t44 -1 x_r0_g123 -1 x_r0_g79 >= -1 ;
1 p_r0_g132_h88_t44 -1 x_r0_g132 <= 0 ;
1 p_r0_g132_h88_t44 -1 x_r0_g88 <= 0 ;
1 p_r0_g132_h88_t44 -1 x_r0_g132 -1 x_r0_g88 >= -1 ;
1 p_r0_g139_h95_t44 -1 x_r0_g139 <= 0 ;
1 p_r0_g139_h95_t44 -1 x_r0_g95 <= 0 ;
1 p_r0_g139_h95_t44 -1 x_r0_g139 -1 x_r0_g95 >= -1 ;
1 p_r0_g152_h108_t44 -1 x_r0_g152 <= 0 ;
1 p_r0_g152_h108_t44 -1 x_r0_g108 <= 0 ;
1 p_r0_g152_h108_t44 -1 x_r0_g152 -1 x_r0_g108 >= -1 ;
1 p_r1_g2_h125_t44 -1 x_r1_g2 <= 0 ;
1 p_r1_g2_h125_t44 -1 x_r1_g125 <= 0 ;
1 p_r1_g2_h125_t44 -1 x_r1_g2 -1 x_r1_g125 >= -1 ;
1 p_r1_g15_h138_t44 -1 x_r1_g15 <= 0 ;
1 p_r1_g15_h138_t44 -1 x_r1_g138 <= 0 ;
1 p_r1_g15_h138_t44 -1 x_r1_g15 -1 x_r1_g138 >= -1 ;
1 p_r1_g29_h152_t44 -1 x_r1_g29 <= 0 ;
1 p_r1_g29_h152_t44 -1 x_r1_g152 <= 0 ;
1 p_r1_g29_h152_t44 -1 x_r1_g29 -1 x_r1_g152 >= -1 ;
1 p_r1_g38_h161_t44 -1 x_r1_g38 <= 0 ;
1 p_r1_g38_h161_t44 -1 x_r1_g161 <= 0 ;
1 p_r1_g38_h161_t44 -1 x_r1_g38 -1 x_r1_g161 >= -1 ;
1 p_r1_g41_h164_t44 -1 x_r1_g41 <= 0 ;
1 p_r1_g41_h164_t44 -1 x_r1_g164 <= 0 ;
1 p_r1_g41_h164_t44 -1 x_r1_g41 -1 x_r1_g164 >= -1 ;
1 p_r1_g59_h15_t44 -1 x_r1_g59 <= 0 ;
1 p_r1_g59_h15_t44 -1 x_r1_g15 <= 0 ;
1 p_r1_g59_h15_t44 -1 x_r1_g59 -1 x_r1_g15 >= -1 ;
1 p_r1_g71_h27_t44 -1 x_r1_g71 <= 0 ;
1 p_r1_g71_h27_t44 -1 x_r1_g27 <= 0 ;
1 p_r1_g71_h27_t44 -1 x_r1_g71 -1 x_r1_g27 >= -1 ;
1 p_r1_g73_h29_t44 -1 x_r1_g73 <= 0 ;
1 p_r1_g73_h29_t44 -1 x_r1_g29 <= 0 ;
1 p_r1_g73_h29_t44 -1 x_r1_g73 -1 x_r1_g29 >= -1 ;
1 p_r1_g75_h31_t44 -1 x_r1_g75 <= 0 ;
1 p_r1_g75_h31_t44 -1 x_r1_g31 <= 0 ;
1 p_r1_g75_h31_t44 -1 x_r1_g75 -1 x_r1_g31 >= -1 ;
1 p_r1_g86_h42_t44 -1 x_r1_g86 <= 0 ;
1 p_r1_g86_h42_t44 -1 x_r1_g42 <= 0 ;
1 p_r1_g86_h42_t44 -1 x_r1_g86 -1 x_r1_g42 >= -1 ;
1 p_r1_g91_h47_t44 -1 x_r1_g91 <= 0 ;
1 p_r1_g91_h47_t44 -1 x_r1_g47 <= 0 ;
1 p_r1_g91_h47_t44 -1 x_r1_g91 -1 x_r1_g47 >= -1 ;
1 p_r1_g95_h51_t44 -1 x_r1_g95 <= 0 ;
1 p_r1_g95_h51_t44 -1 x_r1_g51 <= 0 ;
1 p_r1_g95_h51_t44 -1 x_r1_g95 -1 x_r1_g51 >= -1 ;
1 p_r1_g117_h73_t44 -1 x_r1_g117 <= 0 ;
1 p_r1_g117_h73_t44 -1 x_r1_g73 <= 0 ;
1 p_r1_g117_h73_t44 -1 x_r1_g117 -1 x_r1_g73 >= -1 ;
1 p_r1_g152_h108_t44 -1 x_r1_g152 <= 0 ;
1 p_r1_g152_h108_t44 -1 x_r1_g108 <= 0 ;
1 p_r1_g152_h108_t44 -1 x_r1_g152 -1 x_r1_g108 >= -1 ;
1 p_r1_g161_h117_t44 -1 x_r1_g161 <= 0 ;
1 p_r1_g161_h117_t44 -1 x_r1_g117 <= 0 ;
1 p_r1_g161_h117_t44 -1 x_r1_g161 -1 x_r1_g117 >= -1 ;
1 p_r2_g19_h142_t44 -1 x_r2_g19 <= 0 ;
1 p_r2_g19_h142_t44 -1 x_r2_g142 <= 0 ;
1 p_r2_g19_h142_t44 -1 x_r2_g19 -1 x_r2_g142 >= -1 ;
1 p_r2_g65_h21_t44 -1 x_r2_g65 <= 0 ;
1 p_r2_g65_h21_t44 -1 x_r2_g21 <= 0 ;
1 p_r2_g65_h21_t44 -1 x_r2_g65 -1 x_r2_g21 >= -1 ;
1 p_r2_g92_h48_t44 -1 x_r2_g92 <= 0 ;
1 p_r2_g92_h48_t44 -1 x_r2_g48 <= 0 ;
1 p_r2_g92_h48_t44 -1 x_r2_g92 -1 x_r2_g48 >= -1 ;
1 p_r2_g126_h82_t44 -1 x_r2_g126 <= 0 ;
1 p_r2_g126_h82_t44 -1 x_r2_g82 <= 0 ;
1 p_r2_g126_h82_t44 -1 x_r2_g126 -1 x_r2_g82 >= -1 ;
1 p_r2_g136_h92_t44 -1 x_r2_g136 <= 0 ;
1 p_r2_g136_h92_t44 -1 x_r2_g92 <= 0 ;
1 p_r2_g136_h92_t44 -1 x_r2_g136 -1 x_r2_g92 >= -1 ;
1 p_r3_g11_h134_t44 -1 x_r3_g11 <= 0 ;
1 p_r3_g11_h134_t44 -1 x_r3_g134 <= 0 ;
1 p_r3_g11_h134_t44 -1 x_r3_g11 -1 x_r3_g134 >= -1 ;
1 p_r3_g15_h138_t44 -1 x_r3_g15 <= 0 ;
1 p_r3_g15_h138_t44 -1 x_r3_g138 <= 0 ;
1 p_r3_g15_h138_t44 -1 x_r3_g15 -1 x_r3_g138 >= -1 ;
1 p_r3_g33_h156_t44 -1 x_r3_g33 <= 0 ;
1 p_r3_g33_h156_t44 -1 x_r3_g156 <= 0 ;
1 p_r3_g33_h156_t44 -1 x_r3_g33 -1 x_r3_g156 >= -1 ;
1 p_r3_g52_h8_t44 -1 x_r3_g52 <= 0 ;
1 p_r3_g52_h8_t44 -1 x_r3_g8 <= 0 ;
1 p_r3_g52_h8_t44 -1 x_r3_g52 -1 x_r3_g8 >= -1 ;
1 p_r3_g57_h13_t44 -1 x_r3_g57 <= 0 ;
1 p_r3_g57_h13_t44 -1 x_r3_g13 <= 0 ;
1 p_r3_g57_h13_t44 -1 x_r3_g57 -1 x_r3_g13 >= -1 ;
1 p_r3_g59_h15_t44 -1 x_r3_g59 <= 0 ;
1 p_r3_g59_h15_t44 -1 x_r3_g15 <= 0 ;
1 p_r3_g59_h15_t44 -1 x_r3_g59 -1 x_r3_g15 >= -1 ;
1 p_r3_g68_h24_t44 -1 x_r3_g68 <= 0 ;
1 p_r3_g68_h24_t44 -1 x_r3_g24 <= 0 ;
1 p_r3_g68_h24_t44 -1 x_r3_g68 -1 x_r3_g24 >= -1 ;
1 p_r3_g80_h36_t44 -1 x_r3_g80 <= 0 ;
1 p_r3_g80_h36_t44 -1 x_r3_g36 <= 0 ;
1 p_r3_g80_h36_t44 -1 x_r3_g80 -1 x_r3_g36 >= -1 ;
1 p_r3_g100_h56_t44 -1 x_r3_g100 <= 0 ;
1 p_r3_g100_h56_t44 -1 x_r3_g56 <= 0 ;
1 p_r3_g100_h56_t44 -1 x_r3_g100 -1 x_r3_g56 >= -1 ;
1 p_r3_g103_h59_t44 -1 x_r3_g103 <= 0 ;
1 p_r3_g103_h59_t44 -1 x_r3_g59 <= 0 ;
1 p_r3_g103_h59_t44 -1 x_r3_g103 -1 x_r3_g59 >= -1 ;
1 p_r3_g111_h67_t44 -1 x_r3_g111 <= 0 ;
1 p_r3_g111_h67_t44 -1 x_r3_g67 <= 0 ;
1 p_r3_g111_h67_t44 -1 x_r3_g111 -1 x_r3_g67 >= -1 ;
1 p_r3_g124_h80_t44 -1 x_r3_g124 <= 0 ;
1 p_r3_g124_h80_t44 -1 x_r3_g80 <= 0 ;
1 p_r3_g124_h80_t44 -1 x_r3_g124 -1 x_r3_g80 >= -1 ;
1 p_r3_g134_h90_t44 -1 x_r3_g134 <= 0 ;
1 p_r3_g134_h90_t44 -1 x_r3_g90 <= 0 ;
1 p_r3_g134_h90_t44 -1 x_r3_g134 -1 x_r3_g90 >= -1 ;
1 p_r3_g144_h100_t44 -1 x_r3_g144 <= 0 ;
1 p_r3_g144_h100_t44 -1 x_r3_g100 <= 0 ;
1 p_r3_g144_h100_t44 -1 x_r3_g144 -1 x_r3_g100 >= -1 ;
1 d_44 -2 x_r0_g8 -1 x_r0_g26 -1 x_r0_g34 -1 x_r0_g35 -1 x_r0_g47 -1 x_r0_g51 -1 x_r0_g54 -1 x_r0_g62 -2 x_r0_g69 -2 x_r0_g87 -2 x_r0_g92 -2 x_r0_g93 -1 x_r0_g114 -1 x_r0_g116 -1 x_r0_g118 -1 x_r0_g130 -1 x_r0_g144 -1 x_r0_g146 -1 x_r0_g150 -1 x_r1_g2 -1 x_r1_g17 -1 x_r1_g20 -1 x_r1_g31 -1 x_r1_g33 -1 x_r1_g38 -1 x_r1_g47 -1 x_r1_g59 -1 x_r1_g60 -1 x_r1_g71 -1 x_r1_g75 -2 x_r1_g83 -1 x_r1_g86 -1 x_r1_g96 -1 x_r1_g108 -1 x_r1_g113 -1 x_r1_g114 -1 x_r1_g125 -2 x_r1_g160 -1 x_r2_g2 -1 x_r2_g7 -2 x_r2_g12 -1 x_r2_g19 -2 x_r2_g30 -1 x_r2_g48 -1 x_r2_g60 -2 x_r2_g69 -2 x_r2_g72 -2 x_r2_g77 -1 x_r2_g100 -2 x_r2_g107 -1 x_r2_g129 -1 x_r2_g142 -1 x_r2_g145 -1 x_r2_g146 -2 x_r2_g149 -1 x_r2_g158 -1 x_r2_g162 -2 x_r2_g164 -1 x_r2_g165 -1 x_r3_g11 -1 x_r3_g16 -1 x_r3_g19 -1 x_r3_g20 -1 x_r3_g33 -1 x_r3_g40 -1 x_r3_g53 -1 x_r3_g56 -1 x_r3_g68 -1 x_r3_g76 -1 x_r3_g90 -1 x_r3_g95 -2 x_r3_g105 -1 x_r3_g124 -1 x_r3_g128 -1 x_r3_g138 -1 x_r3_g145 -1 x_r3_g156 -1 x_r3_g161 -1 p_r0_g23_h146_t44 -1 p_r0_g45_h1_t44 -1 p_r0_g67_h23_t44 -1 p_r0_g70_h26_t44 -1 p_r0_g79_h35_t44 -1 p_r0_g89_h45_t44 -1 p_r0_g91_h47_t44 -1 p_r0_g95_h51_t44 -1 p_r0_g114_h70_t44 -1 p_r0_g123_h79_t44 -1 p_r0_g132_h88_t44 -1 p_r0_g139_h95_t44 -1 p_r0_g152_h108_t44 -1 p_r1_g2_h125_t44 -1 p_r1_g15_h138_t44 -1 p_r1_g29_h152_t44 -1 p_r1_g38_h161_t44 -1 p_r1_g41_h164_t44 -1 p_r1_g59_h15_t44 -1 p_r1_g71_h27_t44 -1 p_r1_g73_h29_t44 -1 p_r1_g75_h31_t44 -1 p_r1_g86_h42_t44 -1 p_r1_g91_h47_t44 -1 p_r1_g95_h51_t44 -1 p_r1_g117_h73_t44 -1 p_r1_g152_h108_t44 -1 p_r1_g161_h117_t44 -1 p_r2_g19_h142_t44 -1 p_r2_g65_h21_t44 -1 p_r2_g92_h48_t44 -1 p_r2_g126_h82_t44 -1 p_r2_g136_h92_t44 -1 p_r3_g11_h134_t44 -1 p_r3_g15_h138_t44 -1 p_r3_g33_h156_t44 -1 p_r3_g52_h8_t44 -1 p_r3_g57_h13_t44 -1 p_r3_g59_h15_t44 -1 p_r3_g68_h24_t44 -1 p_r3_g80_h36_t44 -1 p_r3_g100_h56_t44 -1 p_r3_g103_h59_t44 -1 p_r3_g111_h67_t44 -1 p_r3_g124_h80_t44 -1 p_r3_g134_h90_t44 -1 p_r3_g144_h100_t44 = -42 ;
1 d_44 -1 u_44 <= 0 ;
-1 d_44 -1 u_44 <= 0 ;
1 u_44 -1 M <= 0 ;
1 u_44 <= 1 ;
1 p_r0_g23_h132_t58 -1 x_r0_g23 <= 0 ;
1 p_r0_g23_h132_t58 -1 x_r0_g132 <= 0 ;
1 p_r0_g23_h132_t58 -1 x_r0_g23 -1 x_r0_g132 >= -1 ;
1 p_r0_g35_h144_t58 -1 x_r0_g35 <= 0 ;
1 p_r0_g35_h144_t58 -1 x_r0_g144 <= 0 ;
1 p_r0_g35_h144_t58 -1 x_r0_g35 -1 x_r0_g144 >= -1 ;
1 p_r0_g92_h34_t58 -1 x_r0_g92 <= 0 ;
1 p_r0_g92_h34_t58 -1 x_r0_g34 <= 0 ;
1 p_r0_g92_h34_t58 -1 x_r0_g92 -1 x_r0_g34 >= -1 ;
1 p_r0_g93_h35_t58 -1 x_r0_g93 <= 0 ;
1 p_r0_g93_h35_t58 -1 x_r0_g35 <= 0 ;
1 p_r0_g93_h35_t58 -1 x_r0_g93 -1 x_r0_g35 >= -1 ;
1 p_r0_g118_h60_t58 -1 x_r0_g118 <= 0 ;
1 p_r0_g118_h60_t58 -1 x_r0_g60 <= 0 ;
1 p_r0_g118_h60_t58 -1 x_r0_g118 -1 x_r0_g60 >= -1 ;
1 p_r0_g146_h88_t58 -1 x_r0_g146 <= 0 ;
1 p_r0_g146_h88_t58 -1 x_r0_g88 <= 0 ;
1 p_r0_g146_h88_t58 -1 x_r0_g146 -1 x_r0_g88 >= -1 ;
1 p_r0_g150_h92_t58 -1 x_r0_g150 <= 0 ;
1 p_r0_g150_h92_t58 -1 x_r0_g92 <= 0 ;
1 p_r0_g150_h92_t58 -1 x_r0_g150 -1 x_r0_g92 >= -1 ;
1 p_r1_g8_h117_t58 -1 x_r1_g8 <= 0 ;
1 p_r1_g8_h117_t58 -1 x_r1_g117 <= 0 ;
1 p_r1_g8_h117_t58 -1 x_r1_g8 -1 x_r1_g117 >= -1 ;
1 p_r1_g29_h138_t58 -1 x_r1_g29 <= 0 ;
1 p_r1_g29_h138_t58 -1 x_r1_g138 <= 0 ;
1 p_r1_g29_h138_t58 -1 x_r1_g29 -1 x_r1_g138 >= -1 ;
1 p_r1_g51_h160_t58 -1 x_r1_g51 <= 0 ;
1 p_r1_g51_h160_t58 -1 x_r1_g160 <= 0 ;
1 p_r1_g51_h160_t58 -1 x_r1_g51 -1 x_r1_g160 >= -1 ;
1 p_r1_g57_h166_t58 -1 x_r1_g57 <= 0 ;
1 p_r1_g57_h166_t58 -1 x_r1_g166 <= 0 ;
1 p_r1_g57_h166_t58 -1 x_r1_g57 -1 x_r1_g166 >= -1 ;
1 p_r1_g60_h2_t58 -1 x_r1_g60 <= 0 ;
1 p_r1_g60_h2_t58 -1 x_r1_g2 <= 0 ;
1 p_r1_g60_h2_t58 -1 x_r1_g60 -1 x_r1_g2 >= -1 ;
1 p_r1_g73_h15_t58 -1 x_r1_g73 <= 0 ;
1 p_r1_g73_h15_t58 -1 x_r1_g15 <= 0 ;
1 p_r1_g73_h15_t58 -1 x_r1_g73 -1 x_r1_g15 >= -1 ;
1 p_r1_g75_h17_t58 -1 x_r1_g75 <= 0 ;
1 p_r1_g75_h17_t58 -1 x_r1_g17 <= 0 ;
1 p_r1_g75_h17_t58 -1 x_r1_g75 -1 x_r1_g17 >= -1 ;
1 p_r1_g86_h28_t58 -1 x_r1_g86 <= 0 ;
1 p_r1_g86_h28_t58 -1 x_r1_g28 <= 0 ;
1 p_r1_g86_h28_t58 -1 x_r1_g86 -1 x_r1_g28 >= -1 ;
1 p_r1_g91_h33_t58 -1 x_r1_g91 <= 0 ;
1 p_r1_g91_h33_t58 -1 x_r1_g33 <= 0 ;
1 p_r1_g91_h33_t58 -1 x_r1_g91 -1 x_r1_g33 >= -1 ;
1 p_r1_g96_h38_t58 -1 x_r1_g96 <= 0 ;
1 p_r1_g96_h38_t58 -1 x_r1_g38 <= 0 ;
1 p_r1_g96_h38_t58 -1 x_r1_g96 -1 x_r1_g38 >= -1 ;
1 p_r1_g117_h59_t58 -1 x_r1_g117 <= 0 ;
1 p_r1_g117_h59_t58 -1 x_r1_g59 <= 0 ;
1 p_r1_g117_h59_t58 -1 x_r1_g117 -1 x_r1_g59 >= -1 ;
1 p_r1_g125_h67_t58 -1 x_r1_g125 <= 0 ;
1 p_r1_g125_h67_t58 -1 x_r1_g67 <= 0 ;
1 p_r1_g125_h67_t58 -1 x_r1_g125 -1 x_r1_g67 >= -1 ;
1 p_r1_g166_h108_t58 -1 x_r1_g166 <= 0 ;
1 p_r1_g166_h108_t58 -1 x_r1_g108 <= 0 ;
1 p_r1_g166_h108_t58 -1 x_r1_g166 -1 x_r1_g108 >= -1 ;
1 p_r2_g2_h111_t58 -1 x_r2_g2 <= 0 ;
1 p_r2_g2_h111_t58 -1 x_r2_g111 <= 0 ;
1 p_r2_g2_h111_t58 -1 x_r2_g2 -1 x_r2_g111 >= -1 ;
1 p_r2_g19_h128_t58 -1 x_r2_g19 <= 0 ;
1 p_r2_g19_h128_t58 -1 x_r2_g128 <= 0 ;
1 p_r2_g19_h128_t58 -1 x_r2_g19 -1 x_r2_g128 >= -1 ;
1 p_r2_g60_h2_t58 -1 x_r2_g60 <= 0 ;
1 p_r2_g60_h2_t58 -1 x_r2_g2 <= 0 ;
1 p_r2_g60_h2_t58 -1 x_r2_g60 -1 x_r2_g2 >= -1 ;
1 p_r2_g65_h7_t58 -1 x_r2_g65 <= 0 ;
1 p_r2_g65_h7_t58 -1 x_r2_g7 <= 0 ;
1 p_r2_g65_h7_t58 -1 x_r2_g65 -1 x_r2_g7 >= -1 ;
1 p_r2_g77_h19_t58 -1 x_r2_g77 <= 0 ;
1 p_r2_g77_h19_t58 -1 x_r2_g19 <= 0 ;
1 p_r2_g77_h19_t58 -1 x_r2_g77 -1 x_r2_g19 >= -1 ;
1 p_r2_g140_h82_t58 -1 x_r2_g140 <= 0 ;
1 p_r2_g140_h82_t58 -1 x_r2_g82 <= 0 ;
1 p_r2_g140_h82_t58 -1 x_r2_g140 -1 x_r2_g82 >= -1 ;
1 p_r2_g152_h94_t58 -1 x_r2_g152 <= 0 ;
1 p_r2_g152_h94_t58 -1 x_r2_g94 <= 0 ;
1 p_r2_g152_h94_t58 -1 x_r2_g152 -1 x_r2_g94 >= -1 ;
1 p_r2_g158_h100_t58 -1 x_r2_g158 <= 0 ;
1 p_r2_g158_h100_t58 -1 x_r2_g100 <= 0 ;
1 p_r2_g158_h100_t58 -1 x_r2_g158 -1 x_r2_g100 >= -1 ;
1 p_r2_g165_h107_t58 -1 x_r2_g165 <= 0 ;
1 p_r2_g165_h107_t58 -1 x_r2_g107 <= 0 ;
1 p_r2_g165_h107_t58 -1 x_r2_g165 -1 x_r2_g107 >= -1 ;
1 p_r3_g15_h124_t58 -1 x_r3_g15 <= 0 ;
1 p_r3_g15_h124_t58 -1 x_r3_g124 <= 0 ;
1 p_r3_g15_h124_t58 -1 x_r3_g15 -1 x_r3_g124 >= -1 ;
1 p_r3_g19_h128_t58 -1 x_r3_g19 <= 0 ;
1 p_r3_g19_h128_t58 -1 x_r3_g128 <= 0 ;
1 p_r3_g19_h128_t58 -1 x_r3_g19 -1 x_r3_g128 >= -1 ;
1 p_r3_g36_h145_t58 -1 x_r3_g36 <= 0 ;
1 p_r3_g36_h145_t58 -1 x_r3_g145 <= 0 ;
1 p_r3_g36_h145_t58 -1 x_r3_g36 -1 x_r3_g145 >= -1 ;
1 p_r3_g52_h161_t58 -1 x_r3_g52 <= 0 ;
1 p_r3_g52_h161_t58 -1 x_r3_g161 <= 0 ;
1 p_r3_g52_h161_t58 -1 x_r3_g52 -1 x_r3_g161 >= -1 ;
1 p_r3_g56_h165_t58 -1 x_r3_g56 <= 0 ;
1 p_r3_g56_h165_t58 -1 x_r3_g165 <= 0 ;
1 p_r3_g56_h165_t58 -1 x_r3_g56 -1 x_r3_g165 >= -1 ;
1 p_r3_g65_h7_t58 -1 x_r3_g65 <= 0 ;
1 p_r3_g65_h7_t58 -1 x_r3_g7 <= 0 ;
1 p_r3_g65_h7_t58 -1 x_r3_g65 -1 x_r3_g7 >= -1 ;
1 p_r3_g69_h11_t58 -1 x_r3_g69 <= 0 ;
1 p_r3_g69_h11_t58 -1 x_r3_g11 <= 0 ;
1 p_r3_g69_h11_t58 -1 x_r3_g69 -1 x_r3_g11 >= -1 ;
1 p_r3_g111_h53_t58 -1 x_r3_g111 <= 0 ;
1 p_r3_g111_h53_t58 -1 x_r3_g53 <= 0 ;
1 p_r3_g111_h53_t58 -1 x_r3_g111 -1 x_r3_g53 >= -1 ;
1 p_r3_g134_h76_t58 -1 x_r3_g134 <= 0 ;
1 p_r3_g134_h76_t58 -1 x_r3_g76 <= 0 ;
1 p_r3_g134_h76_t58 -1 x_r3_g134 -1 x_r3_g76 >= -1 ;
1 p_r3_g138_h80_t58 -1 x_r3_g138 <= 0 ;
1 p_r3_g138_h80_t58 -1 x_r3_g80 <= 0 ;
1 p_r3_g138_h80_t58 -1 x_r3_g138 -1 x_r3_g80 >= -1 ;
1 p_r3_g161_h103_t58 -1 x_r3_g161 <= 0 ;
1 p_r3_g161_h103_t58 -1 x_r3_g103 <= 0 ;
1 p_r3_g161_h103_t58 -1 x_r3_g161 -1 x_r3_g103 >= -1 ;
1 d_58 -1 x_r0_g1 -1 x_r0_g22 -1 x_r0_g34 -1 x_r0_g45 -1 x_r0_g51 -1 x_r0_g54 -1 x_r0_g62 -1 x_r0_g67 -1 x_r0_g68 -2 x_r0_g69 -1 x_r0_g70 -1 x_r0_g79 -1 x_r0_g88 -1 x_r0_g91 -1 x_r0_g93 -1 x_r0_g95 -1 x_r0_g97 -2 x_r0_g101 -1 x_r0_g114 -2 x_r0_g116 -2 x_r0_g123 -1 x_r0_g132 -1 x_r0_g139 -1 x_r0_g146 -1 x_r0_g152 -1 x_r1_g8 -2 x_r1_g10 -1 x_r1_g11 -1 x_r1_g15 -1 x_r1_g20 -1 x_r1_g29 -2 x_r1_g31 -1 x_r1_g42 -1 x_r1_g47 -1 x_r1_g51 -1 x_r1_g57 -1 x_r1_g59 -1 x_r1_g83 -1 x_r1_g95 -1 x_r1_g96 -1 x_r1_g114 -1 x_r1_g125 -1 x_r1_g138 -1 x_r1_g161 -1 x_r2_g0 -1 x_r2_g7 -2 x_r2_g12 -1 x_r2_g21 -1 x_r2_g30 -1 x_r2_g48 -2 x_r2_g72 -1 x_r2_g77 -2 x_r2_g92 -1 x_r2_g97 -1 x_r2_g107 -1 x_r2_g110 -1 x_r2_g126 -1 x_r2_g128 -1 x_r2_g129 -1 x_r2_g132 -2 x_r2_g136 -1 x_r2_g140 -1 x_r2_g142 -1 x_r2_g145 -1 x_r2_g152 -1 x_r2_g158 -1 x_r2_g162 -1 x_r2_g165 -1 x_r3_g8 -1 x_r3_g13 -1 x_r3_g16 -1 x_r3_g19 -2 x_r3_g20 -1 x_r3_g33 -1 x_r3_g36 -2 x_r3_g40 -1 x_r3_g52 -1 x_r3_g53 -1 x_r3_g57 -1 x_r3_g59 -1 x_r3_g65 -1 x_r3_g67 -1 x_r3_g69 -1 x_r3_g76 -1 x_r3_g80 -2 x_r3_g90 -1 x_r3_g95 -1 x_r3_g103 -2 x_r3_g105 -1 x_r3_g111 -1 x_r3_g124 -1 x_r3_g137 -1 x_r3_g144 -2 x_r3_g156 -1 x_r3_g157 -1 p_r0_g23_h132_t58 -1 p_r0_g35_h144_t58 -1 p_r0_g92_h34_t58 -1 p_r0_g93_h35_t58 -1 p_r0_g118_h60_t58 -1 p_r0_g146_h88_t58 -1 p_r0_g150_h92_t58 -1 p_r1_g8_h117_t58 -1 p_r1_g29_h138_t58 -1 p_r1_g51_h160_t58 -1 p_r1_g57_h166_t58 -1 p_r1_g60_h2_t58 -1 p_r1_g73_h15_t58 -1 p_r1_g75_h17_t58 -1 p_r1_g86_h28_t58 -1 p_r1_g91_h33_t58 -1 p_r1_g96_h38_t58 -1 p_r1_g117_h59_t58 -1 p_r1_g125_h67_t58 -1 p_r1_g166_h108_t58 -1 p_r2_g2_h111_t58 -1 p_r2_g19_h128_t58 -1 p_r2_g60_h2_t58 -1 p_r2_g65_h7_t58 -1 p_r2_g77_h19_t58 -1 p_r2_g140_h82_t58 -1 p_r2_g152_h94_t58 -1 p_r2_g158_h100_t58 -1 p_r2_g165_h107_t58 -1 p_r3_g15_h124_t58 -1 p_r3_g19_h128_t58 -1 p_r3_g36_h145_t58 -1 p_r3_g52_h161_t58 -1 p_r3_g56_h165_t58 -1 p_r3_g65_h7_t58 -1 p_r3_g69_h11_t58 -1 p_r3_g111_h53_t58 -1 p_r3_g134_h76_t58 -1 p_r3_g138_h80_t58 -1 p_r3_g161_h103_t58 = -78 ;
1 d_58 -1 u_58 <= 0 ;
-1 d_58 -1 u_58 <= 0 ;
1 u_58 -1 M <= 0 ;
1 u_58 <= 1 ;
1 p_r0_g34_h139_t62 -1 x_r0_g34 <= 0 ;
1 p_r0_g34_h139_t62 -1 x_r0_g139 <= 0 ;
1 p_r0_g34_h139_t62 -1 x_r0_g34 -1 x_r0_g139 >= -1 ;
1 p_r0_g45_h150_t62 -1 x_r0_g45 <= 0 ;
1 p_r0_g45_h150_t62 -1 x_r0_g150 <= 0 ;
1 p_r0_g45_h150_t62 -1 x_r0_g45 -1 x_r0_g150 >= -1 ;
1 p_r0_g47_h152_t62 -1 x_r0_g47 <= 0 ;
1 p_r0_g47_h152_t62 -1 x_r0_g152 <= 0 ;
1 p_r0_g47_h152_t62 -1 x_r0_g47 -1 x_r0_g152 >= -1 ;
1 p_r0_g70_h8_t62 -1 x_r0_g70 <= 0 ;
1 p_r0_g70_h8_t62 -1 x_r0_g8 <= 0 ;
1 p_r0_g70_h8_t62 -1 x_r0_g70 -1 x_r0_g8 >= -1 ;
1 p_r0_g88_h26_t62 -1 x_r0_g88 <= 0 ;
1 p_r0_g88_h26_t62 -1 x_r0_g26 <= 0 ;
1 p_r0_g88_h26_t62 -1 x_r0_g88 -1 x_r0_g26 >= -1 ;
1 p_r0_g97_h35_t62 -1 x_r0_g97 <= 0 ;
1 p_r0_g97_h35_t62 -1 x_r0_g35 <= 0 ;
1 p_r0_g97_h35_t62 -1 x_r0_g97 -1 x_r0_g35 >= -1 ;
1 p_r0_g116_h54_t62 -1 x_r0_g116 <= 0 ;
1 p_r0_g116_h54_t62 -1 x_r0_g54 <= 0 ;
1 p_r0_g116_h54_t62 -1 x_r0_g116 -1 x_r0_g54 >= -1 ;
1 p_r0_g130_h68_t62 -1 x_r0_g130 <= 0 ;
1 p_r0_g130_h68_t62 -1 x_r0_g68 <= 0 ;
1 p_r0_g130_h68_t62 -1 x_r0_g130 -1 x_r0_g68 >= -1 ;
1 p_r0_g132_h70_t62 -1 x_r0_g132 <= 0 ;
1 p_r0_g132_h70_t62 -1 x_r0_g70 <= 0 ;
1 p_r0_g132_h70_t62 -1 x_r0_g132 -1 x_r0_g70 >= -1 ;
1 p_r0_g150_h88_t62 -1 x_r0_g150 <= 0 ;
1 p_r0_g150_h88_t62 -1 x_r0_g88 <= 0 ;
1 p_r0_g150_h88_t62 -1 x_r0_g150 -1 x_r0_g88 >= -1 ;
1 p_r1_g8_h113_t62 -1 x_r1_g8 <= 0 ;
1 p_r1_g8_h113_t62 -1 x_r1_g113 <= 0 ;
1 p_r1_g8_h113_t62 -1 x_r1_g8 -1 x_r1_g113 >= -1 ;
1 p_r1_g20_h125_t62 -1 x_r1_g20 <= 0 ;
1 p_r1_g20_h125_t62 -1 x_r1_g125 <= 0 ;
1 p_r1_g20_h125_t62 -1 x_r1_g20 -1 x_r1_g125 >= -1 ;
1 p_r1_g33_h138_t62 -1 x_r1_g33 <= 0 ;
1 p_r1_g33_h138_t62 -1 x_r1_g138 <= 0 ;
1 p_r1_g33_h138_t62 -1 x_r1_g33 -1 x_r1_g138 >= -1 ;
1 p_r1_g47_h152_t62 -1 x_r1_g47 <= 0 ;
1 p_r1_g47_h152_t62 -1 x_r1_g152 <= 0 ;
1 p_r1_g47_h152_t62 -1 x_r1_g47 -1 x_r1_g152 >= -1 ;
1 p_r1_g59_h164_t62 -1 x_r1_g59 <= 0 ;
1 p_r1_g59_h164_t62 -1 x_r1_g164 <= 0 ;
1 p_r1_g59_h164_t62 -1 x_r1_g59 -1 x_r1_g164 >= -1 ;
1 p_r1_g73_h11_t62 -1 x_r1_g73 <= 0 ;
1 p_r1_g73_h11_t62 -1 x_r1_g11 <= 0 ;
1 p_r1_g73_h11_t62 -1 x_r1_g73 -1 x_r1_g11 >= -1 ;
1 p_r1_g91_h29_t62 -1 x_r1_g91 <= 0 ;
1 p_r1_g91_h29_t62 -1 x_r1_g29 <= 0 ;
1 p_r1_g91_h29_t62 -1 x_r1_g91 -1 x_r1_g29 >= -1 ;
1 p_r1_g95_h33_t62 -1 x_r1_g95 <= 0 ;
1 p_r1_g95_h33_t62 -1 x_r1_g33 <= 0 ;
1 p_r1_g95_h33_t62 -1 x_r1_g95 -1 x_r1_g33 >= -1 ;
1 p_r1_g113_h51_t62 -1 x_r1_g113 <= 0 ;
1 p_r1_g113_h51_t62 -1 x_r1_g51 <= 0 ;
1 p_r1_g113_h51_t62 -1 x_r1_g113 -1 x_r1_g51 >= -1 ;
1 p_r2_g2_h107_t62 -1 x_r2_g2 <= 0 ;
1 p_r2_g2_h107_t62 -1 x_r2_g107 <= 0 ;
1 p_r2_g2_h107_t62 -1 x_r2_g2 -1 x_r2_g107 >= -1 ;
1 p_r2_g21_h126_t62 -1 x_r2_g21 <= 0 ;
1 p_r2_g21_h126_t62 -1 x_r2_g126 <= 0 ;
1 p_r2_g21_h126_t62 -1 x_r2_g21 -1 x_r2_g126 >= -1 ;
1 p_r2_g60_h165_t62 -1 x_r2_g60 <= 0 ;
1 p_r2_g60_h165_t62 -1 x_r2_g165 <= 0 ;
1 p_r2_g60_h165_t62 -1 x_r2_g60 -1 x_r2_g165 >= -1 ;
1 p_r2_g69_h7_t62 -1 x_r2_g69 <= 0 ;
1 p_r2_g69_h7_t62 -1 x_r2_g7 <= 0 ;
1 p_r2_g69_h7_t62 -1 x_r2_g69 -1 x_r2_g7 >= -1 ;
1 p_r2_g80_h18_t62 -1 x_r2_g80 <= 0 ;
1 p_r2_g80_h18_t62 -1 x_r2_g18 <= 0 ;
1 p_r2_g80_h18_t62 -1 x_r2_g80 -1 x_r2_g18 >= -1 ;
1 p_r2_g92_h30_t62 -1 x_r2_g92 <= 0 ;
1 p_r2_g92_h30_t62 -1 x_r2_g30 <= 0 ;
1 p_r2_g92_h30_t62 -1 x_r2_g92 -1 x_r2_g30 >= -1 ;
1 p_r2_g110_h48_t62 -1 x_r2_g110 <= 0 ;
1 p_r2_g110_h48_t62 -1 x_r2_g48 <= 0 ;
1 p_r2_g110_h48_t62 -1 x_r2_g110 -1 x_r2_g48 >= -1 ;
1 p_r2_g142_h80_t62 -1 x_r2_g142 <= 0 ;
1 p_r2_g142_h80_t62 -1 x_r2_g80 <= 0 ;
1 p_r2_g142_h80_t62 -1 x_r2_g142 -1 x_r2_g80 >= -1 ;
1 p_r2_g162_h100_t62 -1 x_r2_g162 <= 0 ;
1 p_r2_g162_h100_t62 -1 x_r2_g100 <= 0 ;
1 p_r2_g162_h100_t62 -1 x_r2_g162 -1 x_r2_g100 >= -1 ;
1 p_r3_g19_h124_t62 -1 x_r3_g19 <= 0 ;
1 p_r3_g19_h124_t62 -1 x_r3_g124 <= 0 ;
1 p_r3_g19_h124_t62 -1 x_r3_g19 -1 x_r3_g124 >= -1 ;
1 p_r3_g33_h138_t62 -1 x_r3_g33 <= 0 ;
1 p_r3_g33_h138_t62 -1 x_r3_g138 <= 0 ;
1 p_r3_g33_h138_t62 -1 x_r3_g33 -1 x_r3_g138 >= -1 ;
1 p_r3_g40_h145_t62 -1 x_r3_g40 <= 0 ;
1 p_r3_g40_h145_t62 -1 x_r3_g145 <= 0 ;
1 p_r3_g40_h145_t62 -1 x_r3_g40 -1 x_r3_g145 >= -1 ;
1 p_r3_g52_h157_t62 -1 x_r3_g52 <= 0 ;
1 p_r3_g52_h157_t62 -1 x_r3_g157 <= 0 ;
1 p_r3_g52_h157_t62 -1 x_r3_g52 -1 x_r3_g157 >= -1 ;
1 p_r3_g56_h161_t62 -1 x_r3_g56 <= 0 ;
1 p_r3_g56_h161_t62 -1 x_r3_g161 <= 0 ;
1 p_r3_g56_h161_t62 -1 x_r3_g56 -1 x_r3_g161 >= -1 ;
1 p_r3_g69_h7_t62 -1 x_r3_g69 <= 0 ;
1 p_r3_g69_h7_t62 -1 x_r3_g7 <= 0 ;
1 p_r3_g69_h7_t62 -1 x_r3_g69 -1 x_r3_g7 >= -1 ;
1 p_r3_g95_h33_t62 -1 x_r3_g95 <= 0 ;
1 p_r3_g95_h33_t62 -1 x_r3_g33 <= 0 ;
1 p_r3_g95_h33_t62 -1 x_r3_g95 -1 x_r3_g33 >= -1 ;
1 p_r3_g138_h76_t62 -1 x_r3_g138 <= 0 ;
1 p_r3_g138_h76_t62 -1 x_r3_g76 <= 0 ;
1 p_r3_g138_h76_t62 -1 x_r3_g138 -1 x_r3_g76 >= -1 ;
1 p_r3_g157_h95_t62 -1 x_r3_g157 <= 0 ;
1 p_r3_g157_h95_t62 -1 x_r3_g95 <= 0 ;
1 p_r3_g157_h95_t62 -1 x_r3_g157 -1 x_r3_g95 >= -1 ;
1 p_r3_g165_h103_t62 -1 x_r3_g165 <= 0 ;
1 p_r3_g165_h103_t62 -1 x_r3_g103 <= 0 ;
1 p_r3_g165_h103_t62 -1 x_r3_g165 -1 x_r3_g103 >= -1 ;
1 d_62 -2 x_r0_g1 -1 x_r0_g8 -1 x_r0_g22 -1 x_r0_g26 -2 x_r0_g38 -1 x_r0_g51 -1 x_r0_g54 -2 x_r0_g60 -1 x_r0_g67 -1 x_r0_g68 -2 x_r0_g69 -2 x_r0_g87 -1 x_r0_g89 -1 x_r0_g92 -1 x_r0_g93 -1 x_r0_g95 -1 x_r0_g97 -1 x_r0_g101 -1 x_r0_g108 -1 x_r0_g114 -1 x_r0_g116 -1 x_r0_g118 -1 x_r0_g130 -1 x_r0_g139 -1 x_r0_g152 -2 x_r1_g2 -1 x_r1_g8 -1 x_r1_g10 -1 x_r1_g11 -1 x_r1_g17 -1 x_r1_g20 -2 x_r1_g27 -1 x_r1_g28 -1 x_r1_g38 -2 x_r1_g41 -1 x_r1_g47 -1 x_r1_g51 -1 x_r1_g57 -2 x_r1_g108 -1 x_r1_g152 -1 x_r1_g160 -1 x_r1_g161 -1 x_r2_g0 -1 x_r2_g2 -1 x_r2_g7 -2 x_r2_g8 -1 x_r2_g12 -1 x_r2_g21 -1 x_r2_g30 -1 x_r2_g48 -1 x_r2_g60 -1 x_r2_g72 -1 x_r2_g73 -1 x_r2_g77 -1 x_r2_g82 -1 x_r2_g111 -1 x_r2_g126 -2 x_r2_g132 -2 x_r2_g136 -1 x_r2_g140 -1 x_r2_g145 -1 x_r2_g146 -1 x_r2_g149 -1 x_r2_g152 -1 x_r2_g164 -1 x_r3_g7 -2 x_r3_g13 -1 x_r3_g15 -1 x_r3_g16 -1 x_r3_g19 -2 x_r3_g24 -1 x_r3_g36 -1 x_r3_g56 -2 x_r3_g57 -1 x_r3_g65 -2 x_r3_g67 -1 x_r3_g68 -2 x_r3_g80 -1 x_r3_g90 -2 x_r3_g100 -1 x_r3_g103 -1 x_r3_g105 -2 x_r3_g111 -1 x_r3_g124 -1 x_r3_g128 -2 x_r3_g137 -1 x_r3_g144 -1 x_r3_g145 -1 x_r3_g156 -1 x_r3_g161 -1 p_r0_g34_h139_t62 -1 p_r0_g45_h150_t62 -1 p_r0_g47_h152_t62 -1 p_r0_g70_h8_t62 -1 p_r0_g88_h26_t62 -1 p_r0_g97_h35_t62 -1 p_r0_g116_h54_t62 -1 p_r0_g130_h68_t62 -1 p_r0_g132_h70_t62 -1 p_r0_g150_h88_t62 -1 p_r1_g8_h113_t62 -1 p_r1_g20_h125_t62 -1 p_r1_g33_h138_t62 -1 p_r1_g47_h152_t62 -1 p_r1_g59_h164_t62 -1 p_r1_g73_h11_t62 -1 p_r1_g91_h29_t62 -1 p_r1_g95_h33_t62 -1 p_r1_g113_h51_t62 -1 p_r2_g2_h107_t62 -1 p_r2_g21_h126_t62 -1 p_r2_g60_h165_t62 -1 p_r2_g69_h7_t62 -1 p_r2_g80_h18_t62 -1 p_r2_g92_h30_t62 -1 p_r2_g110_h48_t62 -1 p_r2_g142_h80_t62 -1 p_r2_g162_h100_t62 -1 p_r3_g19_h124_t62 -1 p_r3_g33_h138_t62 -1 p_r3_g40_h145_t62 -1 p_r3_g52_h157_t62 -1 p_r3_g56_h161_t62 -1 p_r3_g69_h7_t62 -1 p_r3_g95_h33_t62 -1 p_r3_g138_h76_t62 -1 p_r3_g157_h95_t62 -1 p_r3_g165_h103_t62 = -64 ;
1 d_62 -1 u_62 <= 0 ;
-1 d_62 -1 u_62 <= 0 ;
1 u_62 -1 M <= 0 ;
1 u_62 <= 0 ;
1 p_r0_g47_h150_t64 -1 x_r0_g47 <= 0 ;
1 p_r0_g47_h150_t64 -1 x_r0_g150 <= 0 ;
1 p_r0_g47_h150_t64 -1 x_r0_g47 -1 x_r0_g150 >= -1 ;
1 p_r0_g87_h23_t64 -1 x_r0_g87 <= 0 ;
1 p_r0_g87_h23_t64 -1 x_r0_g23 <= 0 ;
1 p_r0_g87_h23_t64 -1 x_r0_g87 -1 x_r0_g23 >= -1 ;
1 p_r0_g118_h54_t64 -1 x_r0_g118 <= 0 ;
1 p_r0_g118_h54_t64 -1 x_r0_g54 <= 0 ;
1 p_r0_g118_h54_t64 -1 x_r0_g118 -1 x_r0_g54 >= -1 ;
1 p_r0_g132_h68_t64 -1 x_r0_g132 <= 0 ;
1 p_r0_g132_h68_t64 -1 x_r0_g68 <= 0 ;
1 p_r0_g132_h68_t64 -1 x_r0_g132 -1 x_r0_g68 >= -1 ;
1 p_r0_g152_h88_t64 -1 x_r0_g152 <= 0 ;
1 p_r0_g152_h88_t64 -1 x_r0_g88 <= 0 ;
1 p_r0_g152_h88_t64 -1 x_r0_g152 -1 x_r0_g88 >= -1 ;
1 p_r1_g10_h113_t64 -1 x_r1_g10 <= 0 ;
1 p_r1_g10_h113_t64 -1 x_r1_g113 <= 0 ;
1 p_r1_g10_h113_t64 -1 x_r1_g10 -1 x_r1_g113 >= -1 ;
1 p_r1_g11_h114_t64 -1 x_r1_g11 <= 0 ;
1 p_r1_g11_h114_t64 -1 x_r1_g114 <= 0 ;
1 p_r1_g11_h114_t64 -1 x_r1_g11 -1 x_r1_g114 >= -1 ;
1 p_r1_g57_h160_t64 -1 x_r1_g57 <= 0 ;
1 p_r1_g57_h160_t64 -1 x_r1_g160 <= 0 ;
1 p_r1_g57_h160_t64 -1 x_r1_g57 -1 x_r1_g160 >= -1 ;
1 p_r1_g75_h11_t64 -1 x_r1_g75 <= 0 ;
1 p_r1_g75_h11_t64 -1 x_r1_g11 <= 0 ;
1 p_r1_g75_h11_t64 -1 x_r1_g75 -1 x_r1_g11 >= -1 ;
1 p_r1_g91_h27_t64 -1 x_r1_g91 <= 0 ;
1 p_r1_g91_h27_t64 -1 x_r1_g27 <= 0 ;
1 p_r1_g91_h27_t64 -1 x_r1_g91 -1 x_r1_g27 >= -1 ;
1 p_r1_g95_h31_t64 -1 x_r1_g95 <= 0 ;
1 p_r1_g95_h31_t64 -1 x_r1_g31 <= 0 ;
1 p_r1_g95_h31_t64 -1 x_r1_g95 -1 x_r1_g31 >= -1 ;
1 p_r1_g160_h96_t64 -1 x_r1_g160 <= 0 ;
1 p_r1_g160_h96_t64 -1 x_r1_g96 <= 0 ;
1 p_r1_g160_h96_t64 -1 x_r1_g160 -1 x_r1_g96 >= -1 ;
1 p_r2_g7_h110_t64 -1 x_r2_g7 <= 0 ;
1 p_r2_g7_h110_t64 -1 x_r2_g110 <= 0 ;
1 p_r2_g7_h110_t64 -1 x_r2_g7 -1 x_r2_g110 >= -1 ;
1 p_r2_g8_h111_t64 -1 x_r2_g8 <= 0 ;
1 p_r2_g8_h111_t64 -1 x_r2_g111 <= 0 ;
1 p_r2_g8_h111_t64 -1 x_r2_g8 -1 x_r2_g111 >= -1 ;
1 p_r2_g72_h8_t64 -1 x_r2_g72 <= 0 ;
1 p_r2_g72_h8_t64 -1 x_r2_g8 <= 0 ;
1 p_r2_g72_h8_t64 -1 x_r2_g72 -1 x_r2_g8 >= -1 ;
1 p_r2_g82_h18_t64 -1 x_r2_g82 <= 0 ;
1 p_r2_g82_h18_t64 -1 x_r2_g18 <= 0 ;
1 p_r2_g82_h18_t64 -1 x_r2_g82 -1 x_r2_g18 >= -1 ;
1 p_r2_g94_h30_t64 -1 x_r2_g94 <= 0 ;
1 p_r2_g94_h30_t64 -1 x_r2_g30 <= 0 ;
1 p_r2_g94_h30_t64 -1 x_r2_g94 -1 x_r2_g30 >= -1 ;
1 p_r2_g129_h65_t64 -1 x_r2_g129 <= 0 ;
1 p_r2_g129_h65_t64 -1 x_r2_g65 <= 0 ;
1 p_r2_g129_h65_t64 -1 x_r2_g129 -1 x_r2_g65 >= -1 ;
1 p_r2_g136_h72_t64 -1 x_r2_g136 <= 0 ;
1 p_r2_g136_h72_t64 -1 x_r2_g72 <= 0 ;
1 p_r2_g136_h72_t64 -1 x_r2_g136 -1 x_r2_g72 >= -1 ;
1 p_r2_g146_h82_t64 -1 x_r2_g146 <= 0 ;
1 p_r2_g146_h82_t64 -1 x_r2_g82 <= 0 ;
1 p_r2_g146_h82_t64 -1 x_r2_g146 -1 x_r2_g82 >= -1 ;
1 p_r2_g158_h94_t64 -1 x_r2_g158 <= 0 ;
1 p_r2_g158_h94_t64 -1 x_r2_g94 <= 0 ;
1 p_r2_g158_h94_t64 -1 x_r2_g158 -1 x_r2_g94 >= -1 ;
1 p_r2_g164_h100_t64 -1 x_r2_g164 <= 0 ;
1 p_r2_g164_h100_t64 -1 x_r2_g100 <= 0 ;
1 p_r2_g164_h100_t64 -1 x_r2_g164 -1 x_r2_g100 >= -1 ;
1 p_r3_g8_h111_t64 -1 x_r3_g8 <= 0 ;
1 p_r3_g8_h111_t64 -1 x_r3_g111 <= 0 ;
1 p_r3_g8_h111_t64 -1 x_r3_g8 -1 x_r3_g111 >= -1 ;
1 p_r3_g53_h156_t64 -1 x_r3_g53 <= 0 ;
1 p_r3_g53_h156_t64 -1 x_r3_g156 <= 0 ;
1 p_r3_g53_h156_t64 -1 x_r3_g53 -1 x_r3_g156 >= -1 ;
1 p_r3_g80_h16_t64 -1 x_r3_g80 <= 0 ;
1 p_r3_g80_h16_t64 -1 x_r3_g16 <= 0 ;
1 p_r3_g80_h16_t64 -1 x_r3_g80 -1 x_r3_g16 >= -1 ;
1 p_r3_g100_h36_t64 -1 x_r3_g100 <= 0 ;
1 p_r3_g100_h36_t64 -1 x_r3_g36 <= 0 ;
1 p_r3_g100_h36_t64 -1 x_r3_g100 -1 x_r3_g36 >= -1 ;
1 p_r3_g144_h80_t64 -1 x_r3_g144 <= 0 ;
1 p_r3_g144_h80_t64 -1 x_r3_g80 <= 0 ;
1 p_r3_g144_h80_t64 -1 x_r3_g144 -1 x_r3_g80 >= -1 ;
1 d_64 -1 x_r0_g1 -1 x_r0_g22 -1 x_r0_g23 -1 x_r0_g26 -2 x_r0_g34 -1 x_r0_g38 -1 x_r0_g54 -1 x_r0_g60 -2 x_r0_g62 -2 x_r0_g67 -1 x_r0_g69 -1 x_r0_g70 -2 x_r0_g79 -1 x_r0_g87 -1 x_r0_g89 -1 x_r0_g91 -1 x_r0_g93 -1 x_r0_g95 -2 x_r0_g101 -1 x_r0_g108 -1 x_r0_g114 -2 x_r0_g116 -1 x_r0_g118 -2 x_r0_g123 -1 x_r0_g139 -1 x_r0_g146 -1 x_r0_g152 -1 x_r1_g2 -1 x_r1_g15 -1 x_r1_g17 -2 x_r1_g20 -1 x_r1_g27 -1 x_r1_g29 -1 x_r1_g38 -2 x_r1_g51 -1 x_r1_g59 -2 x_r1_g60 -1 x_r1_g67 -1 x_r1_g91 -1 x_r1_g95 -1 x_r1_g96 -1 x_r1_g108 -1 x_r1_g113 -1 x_r1_g117 -2 x_r1_g152 -1 x_r1_g164 -1 x_r2_g0 -1 x_r2_g2 -1 x_r2_g12 -1 x_r2_g18 -2 x_r2_g19 -1 x_r2_g21 -2 x_r2_g48 -1 x_r2_g60 -1 x_r2_g65 -1 x_r2_g73 -1 x_r2_g92 -2 x_r2_g97 -2 x_r2_g107 -1 x_r2_g110 -2 x_r2_g128 -1 x_r2_g129 -1 x_r2_g132 -1 x_r2_g136 -2 x_r2_g142 -1 x_r2_g146 -2 x_r2_g149 -1 x_r2_g152 -1 x_r2_g162 -1 x_r2_g164 -1 x_r2_g165 -1 x_r3_g7 -1 x_r3_g11 -1 x_r3_g13 -1 x_r3_g15 -1 x_r3_g16 -2 x_r3_g19 -1 x_r3_g20 -1 x_r3_g24 -1 x_r3_g36 -1 x_r3_g40 -1 x_r3_g57 -2 x_r3_g59 -2 x_r3_g65 -2 x_r3_g68 -1 x_r3_g69 -2 x_r3_g76 -2 x_r3_g90 -1 x_r3_g103 -2 x_r3_g105 -1 x_r3_g111 -1 x_r3_g138 -1 x_r3_g144 -1 x_r3_g145 -1 x_r3_g165 -1 p_r0_g47_h150_t64 -1 p_r0_g87_h23_t64 -1 p_r0_g118_h54_t64 -1 p_r0_g132_h68_t64 -1 p_r0_g152_h88_t64 -1 p_r1_g10_h113_t64 -1 p_r1_g11_h114_t64 -1 p_r1_g57_h160_t64 -1 p_r1_g75_h11_t64 -1 p_r1_g91_h27_t64 -1 p_r1_g95_h31_t64 -1 p_r1_g160_h96_t64 -1 p_r2_g7_h110_t64 -1 p_r2_g8_h111_t64 -1 p_r2_g72_h8_t64 -1 p_r2_g82_h18_t64 -1 p_r2_g94_h30_t64 -1 p_r2_g129_h65_t64 -1 p_r2_g136_h72_t64 -1 p_r2_g146_h82_t64 -1 p_r2_g158_h94_t64 -1 p_r2_g164_h100_t64 -1 p_r3_g8_h111_t64 -1 p_r3_g53_h156_t64 -1 p_r3_g80_h16_t64 -1 p_r3_g100_h36_t64 -1 p_r3_g144_h80_t64 = -81 ;
1 d_64 -1 u_64 <= 0 ;
-1 d_64 -1 u_64 <= 0 ;
1 u_64 -1 M <= 0 ;
1 u_64 <= 1 ;
1 p_r0_g34_h132_t69 -1 x_r0_g34 <= 0 ;
1 p_r0_g34_h132_t69 -1 x_r0_g132 <= 0 ;
1 p_r0_g34_h132_t69 -1 x_r0_g34 -1 x_r0_g132 >= -1 ;
1 p_r0_g54_h152_t69 -1 x_r0_g54 <= 0 ;
1 p_r0_g54_h152_t69 -1 x_r0_g152 <= 0 ;
1 p_r0_g54_h152_t69 -1 x_r0_g54 -1 x_r0_g152 >= -1 ;
1 p_r0_g70_h1_t69 -1 x_r0_g70 <= 0 ;
1 p_r0_g70_h1_t69 -1 x_r0_g1 <= 0 ;
1 p_r0_g70_h1_t69 -1 x_r0_g70 -1 x_r0_g1 >= -1 ;
1 p_r0_g91_h22_t69 -1 x_r0_g91 <= 0 ;
1 p_r0_g91_h22_t69 -1 x_r0_g22 <= 0 ;
1 p_r0_g91_h22_t69 -1 x_r0_g91 -1 x_r0_g22 >= -1 ;
1 p_r0_g92_h23_t69 -1 x_r0_g92 <= 0 ;
1 p_r0_g92_h23_t69 -1 x_r0_g23 <= 0 ;
1 p_r0_g92_h23_t69 -1 x_r0_g92 -1 x_r0_g23 >= -1 ;
1 p_r0_g95_h26_t69 -1 x_r0_g95 <= 0 ;
1 p_r0_g95_h26_t69 -1 x_r0_g26 <= 0 ;
1 p_r0_g95_h26_t69 -1 x_r0_g95 -1 x_r0_g26 >= -1 ;
1 p_r0_g114_h45_t69 -1 x_r0_g114 <= 0 ;
1 p_r0_g114_h45_t69 -1 x_r0_g45 <= 0 ;
1 p_r0_g114_h45_t69 -1 x_r0_g114 -1 x_r0_g45 >= -1 ;
1 p_r0_g116_h47_t69 -1 x_r0_g116 <= 0 ;
1 p_r0_g116_h47_t69 -1 x_r0_g47 <= 0 ;
1 p_r0_g116_h47_t69 -1 x_r0_g116 -1 x_r0_g47 >= -1 ;
1 p_r0_g123_h54_t69 -1 x_r0_g123 <= 0 ;
1 p_r0_g123_h54_t69 -1 x_r0_g54 <= 0 ;
1 p_r0_g123_h54_t69 -1 x_r0_g123 -1 x_r0_g54 >= -1 ;
1 p_r0_g139_h70_t69 -1 x_r0_g139 <= 0 ;
1 p_r0_g139_h70_t69 -1 x_r0_g70 <= 0 ;
1 p_r0_g139_h70_t69 -1 x_r0_g139 -1 x_r0_g70 >= -1 ;
1 p_r1_g10_h108_t69 -1 x_r1_g10 <= 0 ;
1 p_r1_g10_h108_t69 -1 x_r1_g108 <= 0 ;
1 p_r1_g10_h108_t69 -1 x_r1_g10 -1 x_r1_g108 >= -1 ;
1 p_r1_g15_h113_t69 -1 x_r1_g15 <= 0 ;
1 p_r1_g15_h113_t69 -1 x_r1_g113 <= 0 ;
1 p_r1_g15_h113_t69 -1 x_r1_g15 -1 x_r1_g113 >= -1 ;
1 p_r1_g27_h125_t69 -1 x_r1_g27 <= 0 ;
1 p_r1_g27_h125_t69 -1 x_r1_g125 <= 0 ;
1 p_r1_g27_h125_t69 -1 x_r1_g27 -1 x_r1_g125 >= -1 ;
1 p_r1_g71_h2_t69 -1 x_r1_g71 <= 0 ;
1 p_r1_g71_h2_t69 -1 x_r1_g2 <= 0 ;
1 p_r1_g71_h2_t69 -1 x_r1_g71 -1 x_r1_g2 >= -1 ;
1 p_r1_g86_h17_t69 -1 x_r1_g86 <= 0 ;
1 p_r1_g86_h17_t69 -1 x_r1_g17 <= 0 ;
1 p_r1_g86_h17_t69 -1 x_r1_g86 -1 x_r1_g17 >= -1 ;
1 p_r1_g96_h27_t69 -1 x_r1_g96 <= 0 ;
1 p_r1_g96_h27_t69 -1 x_r1_g27 <= 0 ;
1 p_r1_g96_h27_t69 -1 x_r1_g96 -1 x_r1_g27 >= -1 ;
1 p_r1_g152_h83_t69 -1 x_r1_g152 <= 0 ;
1 p_r1_g152_h83_t69 -1 x_r1_g83 <= 0 ;
1 p_r1_g152_h83_t69 -1 x_r1_g152 -1 x_r1_g83 >= -1 ;
1 p_r1_g160_h91_t69 -1 x_r1_g160 <= 0 ;
1 p_r1_g160_h91_t69 -1 x_r1_g91 <= 0 ;
1 p_r1_g160_h91_t69 -1 x_r1_g160 -1 x_r1_g91 >= -1 ;
1 p_r1_g164_h95_t69 -1 x_r1_g164 <= 0 ;
1 p_r1_g164_h95_t69 -1 x_r1_g95 <= 0 ;
1 p_r1_g164_h95_t69 -1 x_r1_g164 -1 x_r1_g95 >= -1 ;
1 p_r2_g2_h100_t69 -1 x_r2_g2 <= 0 ;
1 p_r2_g2_h100_t69 -1 x_r2_g100 <= 0 ;
1 p_r2_g2_h100_t69 -1 x_r2_g2 -1 x_r2_g100 >= -1 ;
1 p_r2_g12_h110_t69 -1 x_r2_g12 <= 0 ;
1 p_r2_g12_h110_t69 -1 x_r2_g110 <= 0 ;
1 p_r2_g12_h110_t69 -1 x_r2_g12 -1 x_r2_g110 >= -1 ;
1 p_r2_g30_h128_t69 -1 x_r2_g30 <= 0 ;
1 p_r2_g30_h128_t69 -1 x_r2_g128 <= 0 ;
1 p_r2_g30_h128_t69 -1 x_r2_g30 -1 x_r2_g128 >= -1 ;
1 p_r2_g48_h146_t69 -1 x_r2_g48 <= 0 ;
1 p_r2_g48_h146_t69 -1 x_r2_g146 <= 0 ;
1 p_r2_g48_h146_t69 -1 x_r2_g48 -1 x_r2_g146 >= -1 ;
1 p_r2_g60_h158_t69 -1 x_r2_g60 <= 0 ;
1 p_r2_g60_h158_t69 -1 x_r2_g158 <= 0 ;
1 p_r2_g60_h158_t69 -1 x_r2_g60 -1 x_r2_g158 >= -1 ;
1 p_r2_g69_h0_t69 -1 x_r2_g69 <= 0 ;
1 p_r2_g69_h0_t69 -1 x_r2_g0 <= 0 ;
1 p_r2_g69_h0_t69 -1 x_r2_g69 -1 x_r2_g0 >= -1 ;
1 p_r2_g77_h8_t69 -1 x_r2_g77 <= 0 ;
1 p_r2_g77_h8_t69 -1 x_r2_g8 <= 0 ;
1 p_r2_g77_h8_t69 -1 x_r2_g77 -1 x_r2_g8 >= -1 ;
1 p_r2_g129_h60_t69 -1 x_r2_g129 <= 0 ;
1 p_r2_g129_h60_t69 -1 x_r2_g60 <= 0 ;
1 p_r2_g129_h60_t69 -1 x_r2_g129 -1 x_r2_g60 >= -1 ;
1 p_r2_g142_h73_t69 -1 x_r2_g142 <= 0 ;
1 p_r2_g142_h73_t69 -1 x_r2_g73 <= 0 ;
1 p_r2_g142_h73_t69 -1 x_r2_g142 -1 x_r2_g73 >= -1 ;
1 p_r2_g146_h77_t69 -1 x_r2_g146 <= 0 ;
1 p_r2_g146_h77_t69 -1 x_r2_g77 <= 0 ;
1 p_r2_g146_h77_t69 -1 x_r2_g146 -1 x_r2_g77 >= -1 ;
1 p_r2_g149_h80_t69 -1 x_r2_g149 <= 0 ;
1 p_r2_g149_h80_t69 -1 x_r2_g80 <= 0 ;
1 p_r2_g149_h80_t69 -1 x_r2_g149 -1 x_r2_g80 >= -1 ;
1 p_r3_g7_h105_t69 -1 x_r3_g7 <= 0 ;
1 p_r3_g7_h105_t69 -1 x_r3_g105 <= 0 ;
1 p_r3_g7_h105_t69 -1 x_r3_g7 -1 x_r3_g105 >= -1 ;
1 p_r3_g13_h111_t69 -1 x_r3_g13 <= 0 ;
1 p_r3_g13_h111_t69 -1 x_r3_g111 <= 0 ;
1 p_r3_g13_h111_t69 -1 x_r3_g13 -1 x_r3_g111 >= -1 ;
1 p_r3_g36_h134_t69 -1 x_r3_g36 <= 0 ;
1 p_r3_g36_h134_t69 -1 x_r3_g134 <= 0 ;
1 p_r3_g36_h134_t69 -1 x_r3_g36 -1 x_r3_g134 >= -1 ;
1 p_r3_g40_h138_t69 -1 x_r3_g40 <= 0 ;
1 p_r3_g40_h138_t69 -1 x_r3_g138 <= 0 ;
1 p_r3_g40_h138_t69 -1 x_r3_g40 -1 x_r3_g138 >= -1 ;
1 p_r3_g59_h157_t69 -1 x_r3_g59 <= 0 ;
1 p_r3_g59_h157_t69 -1 x_r3_g157 <= 0 ;
1 p_r3_g59_h157_t69 -1 x_r3_g59 -1 x_r3_g157 >= -1 ;
1 p_r3_g67_h165_t69 -1 x_r3_g67 <= 0 ;
1 p_r3_g67_h165_t69 -1 x_r3_g165 <= 0 ;
1 p_r3_g67_h165_t69 -1 x_r3_g67 -1 x_r3_g165 >= -1 ;
1 p_r3_g76_h7_t69 -1 x_r3_g76 <= 0 ;
1 p_r3_g76_h7_t69 -1 x_r3_g7 <= 0 ;
1 p_r3_g76_h7_t69 -1 x_r3_g76 -1 x_r3_g7 >= -1 ;
1 p_r3_g80_h11_t69 -1 x_r3_g80 <= 0 ;
1 p_r3_g80_h11_t69 -1 x_r3_g11 <= 0 ;
1 p_r3_g80_h11_t69 -1 x_r3_g80 -1 x_r3_g11 >= -1 ;
1 p_r3_g105_h36_t69 -1 x_r3_g105 <= 0 ;
1 p_r3_g105_h36_t69 -1 x_r3_g36 <= 0 ;
1 p_r3_g105_h36_t69 -1 x_r3_g105 -1 x_r3_g36 >= -1 ;
1 p_r3_g128_h59_t69 -1 x_r3_g128 <= 0 ;
1 p_r3_g128_h59_t69 -1 x_r3_g59 <= 0 ;
1 p_r3_g128_h59_t69 -1 x_r3_g128 -1 x_r3_g59 >= -1 ;
1 p_r3_g134_h65_t69 -1 x_r3_g134 <= 0 ;
1 p_r3_g134_h65_t69 -1 x_r3_g65 <= 0 ;
1 p_r3_g134_h65_t69 -1 x_r3_g134 -1 x_r3_g65 >= -1 ;
1 p_r3_g137_h68_t69 -1 x_r3_g137 <= 0 ;
1 p_r3_g137_h68_t69 -1 x_r3_g68 <= 0 ;
1 p_r3_g137_h68_t69 -1 x_r3_g137 -1 x_r3_g68 >= -1 ;
1 p_r3_g138_h69_t69 -1 x_r3_g138 <= 0 ;
1 p_r3_g138_h69_t69 -1 x_r3_g69 <= 0 ;
1 p_r3_g138_h69_t69 -1 x_r3_g138 -1 x_r3_g69 >= -1 ;
1 p_r3_g145_h76_t69 -1 x_r3_g145 <= 0 ;
1 p_r3_g145_h76_t69 -1 x_r3_g76 <= 0 ;
1 p_r3_g145_h76_t69 -1 x_r3_g145 -1 x_r3_g76 >= -1 ;
1 d_69 -2 x_r0_g8 -1 x_r0_g22 -1 x_r0_g34 -1 x_r0_g38 -1 x_r0_g45 -2 x_r0_g51 -1 x_r0_g60 -2 x_r0_g62 -2 x_r0_g67 -1 x_r0_g68 -2 x_r0_g88 -2 x_r0_g89 -1 x_r0_g91 -1 x_r0_g101 -2 x_r0_g118 -1 x_r0_g123 -1 x_r0_g132 -2 x_r0_g146 -1 x_r0_g150 -1 x_r1_g2 -1 x_r1_g10 -2 x_r1_g11 -1 x_r1_g15 -1 x_r1_g17 -1 x_r1_g20 -2 x_r1_g29 -1 x_r1_g31 -1 x_r1_g38 -1 x_r1_g42 -1 x_r1_g47 -1 x_r1_g57 -1 x_r1_g59 -1 x_r1_g71 -1 x_r1_g86 -1 x_r1_g95 -1 x_r1_g108 -1 x_r1_g113 -1 x_r1_g114 -1 x_r1_g125 -2 x_r1_g138 -1 x_r1_g160 -1 x_r1_g164 -1 x_r1_g166 -1 x_r2_g0 -1 x_r2_g7 -2 x_r2_g18 -2 x_r2_g21 -2 x_r2_g65 -1 x_r2_g73 -1 x_r2_g82 -1 x_r2_g92 -2 x_r2_g94 -1 x_r2_g97 -1 x_r2_g100 -1 x_r2_g110 -1 x_r2_g126 -1 x_r2_g129 -2 x_r2_g132 -1 x_r2_g152 -2 x_r2_g162 -2 x_r3_g8 -2 x_r3_g20 -1 x_r3_g24 -2 x_r3_g53 -1 x_r3_g56 -1 x_r3_g65 -1 x_r3_g68 -1 x_r3_g80 -1 x_r3_g95 -1 x_r3_g100 -1 x_r3_g103 -2 x_r3_g124 -1 x_r3_g128 -1 x_r3_g137 -2 x_r3_g144 -1 x_r3_g145 -1 p_r0_g34_h132_t69 -1 p_r0_g54_h152_t69 -1 p_r0_g70_h1_t69 -1 p_r0_g91_h22_t69 -1 p_r0_g92_h23_t69 -1 p_r0_g95_h26_t69 -1 p_r0_g114_h45_t69 -1 p_r0_g116_h47_t69 -1 p_r0_g123_h54_t69 -1 p_r0_g139_h70_t69 -1 p_r1_g10_h108_t69 -1 p_r1_g15_h113_t69 -1 p_r1_g27_h125_t69 -1 p_r1_g71_h2_t69 -1 p_r1_g86_h17_t69 -1 p_r1_g96_h27_t69 -1 p_r1_g152_h83_t69 -1 p_r1_g160_h91_t69 -1 p_r1_g164_h95_t69 -1 p_r2_g2_h100_t69 -1 p_r2_g12_h110_t69 -1 p_r2_g30_h128_t69 -1 p_r2_g48_h146_t69 -1 p_r2_g60_h158_t69 -1 p_r2_g69_h0_t69 -1 p_r2_g77_h8_t69 -1 p_r2_g129_h60_t69 -1 p_r2_g142_h73_t69 -1 p_r2_g146_h77_t69 -1 p_r2_g149_h80_t69 -1 p_r3_g7_h105_t69 -1 p_r3_g13_h111_t69 -1 p_r3_g36_h134_t69 -1 p_r3_g40_h138_t69 -1 p_r3_g59_h157_t69 -1 p_r3_g67_h165_t69 -1 p_r3_g76_h7_t69 -1 p_r3_g80_h11_t69 -1 p_r3_g105_h36_t69 -1 p_r3_g128_h59_t69 -1 p_r3_g134_h65_t69 -1 p_r3_g137_h68_t69 -1 p_r3_g138_h69_t69 -1 p_r3_g145_h76_t69 = -93 ;
1 d_69 -1 u_69 <= 0 ;
-1 d_69 -1 u_69 <= 0 ;
1 u_69 -1 M <= 0 ;
1 u_69 <= 2 ;
1 p_r0_g1_h93_t75 -1 x_r0_g1 <= 0 ;
1 p_r0_g1_h93_t75 -1 x_r0_g93 <= 0 ;
1 p_r0_g1_h93_t75 -1 x_r0_g1 -1 x_r0_g93 >= -1 ;
1 p_r0_g22_h114_t75 -1 x_r0_g22 <= 0 ;
1 p_r0_g22_h114_t75 -1 x_r0_g114 <= 0 ;
1 p_r0_g22_h114_t75 -1 x_r0_g22 -1 x_r0_g114 >= -1 ;
1 p_r0_g26_h118_t75 -1 x_r0_g26 <= 0 ;
1 p_r0_g26_h118_t75 -1 x_r0_g118 <= 0 ;
1 p_r0_g26_h118_t75 -1 x_r0_g26 -1 x_r0_g118 >= -1 ;
1 p_r0_g38_h130_t75 -1 x_r0_g38 <= 0 ;
1 p_r0_g38_h130_t75 -1 x_r0_g130 <= 0 ;
1 p_r0_g38_h130_t75 -1 x_r0_g38 -1 x_r0_g130 >= -1 ;
1 p_r0_g47_h139_t75 -1 x_r0_g47 <= 0 ;
1 p_r0_g47_h139_t75 -1 x_r0_g139 <= 0 ;
1 p_r0_g47_h139_t75 -1 x_r0_g47 -1 x_r0_g139 >= -1 ;
1 p_r0_g54_h146_t75 -1 x_r0_g54 <= 0 ;
1 p_r0_g54_h146_t75 -1 x_r0_g146 <= 0 ;
1 p_r0_g54_h146_t75 -1 x_r0_g54 -1 x_r0_g146 >= -1 ;
1 p_r0_g60_h152_t75 -1 x_r0_g60 <= 0 ;
1 p_r0_g60_h152_t75 -1 x_r0_g152 <= 0 ;
1 p_r0_g60_h152_t75 -1 x_r0_g60 -1 x_r0_g152 >= -1 ;
1 p_r0_g97_h22_t75 -1 x_r0_g97 <= 0 ;
1 p_r0_g97_h22_t75 -1 x_r0_g22 <= 0 ;
1 p_r0_g97_h22_t75 -1 x_r0_g97 -1 x_r0_g22 >= -1 ;
1 p_r0_g101_h26_t75 -1 x_r0_g101 <= 0 ;
1 p_r0_g101_h26_t75 -1 x_r0_g26 <= 0 ;
1 p_r0_g101_h26_t75 -1 x_r0_g101 -1 x_r0_g26 >= -1 ;
1 p_r0_g144_h69_t75 -1 x_r0_g144 <= 0 ;
1 p_r0_g144_h69_t75 -1 x_r0_g69 <= 0 ;
1 p_r0_g144_h69_t75 -1 x_r0_g144 -1 x_r0_g69 >= -1 ;
1 p_r1_g33_h125_t75 -1 x_r1_g33 <= 0 ;
1 p_r1_g33_h125_t75 -1 x_r1_g125 <= 0 ;
1 p_r1_g33_h125_t75 -1 x_r1_g33 -1 x_r1_g125 >= -1 ;
1 p_r1_g60_h152_t75 -1 x_r1_g60 <= 0 ;
1 p_r1_g60_h152_t75 -1 x_r1_g152 <= 0 ;
1 p_r1_g60_h152_t75 -1 x_r1_g60 -1 x_r1_g152 >= -1 ;
1 p_r1_g83_h8_t75 -1 x_r1_g83 <= 0 ;
1 p_r1_g83_h8_t75 -1 x_r1_g8 <= 0 ;
1 p_r1_g83_h8_t75 -1 x_r1_g83 -1 x_r1_g8 >= -1 ;
1 p_r1_g86_h11_t75 -1 x_r1_g86 <= 0 ;
1 p_r1_g86_h11_t75 -1 x_r1_g11 <= 0 ;
1 p_r1_g86_h11_t75 -1 x_r1_g86 -1 x_r1_g11 >= -1 ;
1 p_r1_g95_h20_t75 -1 x_r1_g95 <= 0 ;
1 p_r1_g95_h20_t75 -1 x_r1_g20 <= 0 ;
1 p_r1_g95_h20_t75 -1 x_r1_g95 -1 x_r1_g20 >= -1 ;
1 p_r1_g108_h33_t75 -1 x_r1_g108 <= 0 ;
1 p_r1_g108_h33_t75 -1 x_r1_g33 <= 0 ;
1 p_r1_g108_h33_t75 -1 x_r1_g108 -1 x_r1_g33 >= -1 ;
1 p_r1_g113_h38_t75 -1 x_r1_g113 <= 0 ;
1 p_r1_g113_h38_t75 -1 x_r1_g38 <= 0 ;
1 p_r1_g113_h38_t75 -1 x_r1_g113 -1 x_r1_g38 >= -1 ;
1 p_r1_g117_h42_t75 -1 x_r1_g117 <= 0 ;
1 p_r1_g117_h42_t75 -1 x_r1_g42 <= 0 ;
1 p_r1_g117_h42_t75 -1 x_r1_g117 -1 x_r1_g42 >= -1 ;
1 p_r1_g161_h86_t75 -1 x_r1_g161 <= 0 ;
1 p_r1_g161_h86_t75 -1 x_r1_g86 <= 0 ;
1 p_r1_g161_h86_t75 -1 x_r1_g161 -1 x_r1_g86 >= -1 ;
1 p_r1_g166_h91_t75 -1 x_r1_g166 <= 0 ;
1 p_r1_g166_h91_t75 -1 x_r1_g91 <= 0 ;
1 p_r1_g166_h91_t75 -1 x_r1_g166 -1 x_r1_g91 >= -1 ;
1 p_r2_g0_h92_t75 -1 x_r2_g0 <= 0 ;
1 p_r2_g0_h92_t75 -1 x_r2_g92 <= 0 ;
1 p_r2_g0_h92_t75 -1 x_r2_g0 -1 x_r2_g92 >= -1 ;
1 p_r2_g2_h94_t75 -1 x_r2_g2 <= 0 ;
1 p_r2_g2_h94_t75 -1 x_r2_g94 <= 0 ;
1 p_r2_g2_h94_t75 -1 x_r2_g2 -1 x_r2_g94 >= -1 ;
1 p_r2_g8_h100_t75 -1 x_r2_g8 <= 0 ;
1 p_r2_g8_h100_t75 -1 x_r2_g100 <= 0 ;
1 p_r2_g8_h100_t75 -1 x_r2_g8 -1 x_r2_g100 >= -1 ;
1 p_r2_g18_h110_t75 -1 x_r2_g18 <= 0 ;
1 p_r2_g18_h110_t75 -1 x_r2_g110 <= 0 ;
1 p_r2_g18_h110_t75 -1 x_r2_g18 -1 x_r2_g110 >= -1 ;
1 p_r2_g19_h111_t75 -1 x_r2_g19 <= 0 ;
1 p_r2_g19_h111_t75 -1 x_r2_g111 <= 0 ;
1 p_r2_g19_h111_t75 -1 x_r2_g19 -1 x_r2_g111 >= -1 ;
1 p_r2_g48_h140_t75 -1 x_r2_g48 <= 0 ;
1 p_r2_g48_h140_t75 -1 x_r2_g140 <= 0 ;
1 p_r2_g48_h140_t75 -1 x_r2_g48 -1 x_r2_g140 >= -1 ;
1 p_r2_g60_h152_t75 -1 x_r2_g60 <= 0 ;
1 p_r2_g60_h152_t75 -1 x_r2_g152 <= 0 ;
1 p_r2_g60_h152_t75 -1 x_r2_g60 -1 x_r2_g152 >= -1 ;
1 p_r2_g72_h164_t75 -1 x_r2_g72 <= 0 ;
1 p_r2_g72_h164_t75 -1 x_r2_g164 <= 0 ;
1 p_r2_g72_h164_t75 -1 x_r2_g72 -1 x_r2_g164 >= -1 ;
1 p_r2_g73_h165_t75 -1 x_r2_g73 <= 0 ;
1 p_r2_g73_h165_t75 -1 x_r2_g165 <= 0 ;
1 p_r2_g73_h165_t75 -1 x_r2_g73 -1 x_r2_g165 >= -1 ;
1 p_r2_g77_h2_t75 -1 x_r2_g77 <= 0 ;
1 p_r2_g77_h2_t75 -1 x_r2_g2 <= 0 ;
1 p_r2_g77_h2_t75 -1 x_r2_g77 -1 x_r2_g2 >= -1 ;
1 p_r2_g82_h7_t75 -1 x_r2_g82 <= 0 ;
1 p_r2_g82_h7_t75 -1 x_r2_g7 <= 0 ;
1 p_r2_g82_h7_t75 -1 x_r2_g82 -1 x_r2_g7 >= -1 ;
1 p_r2_g94_h19_t75 -1 x_r2_g94 <= 0 ;
1 p_r2_g94_h19_t75 -1 x_r2_g19 <= 0 ;
1 p_r2_g94_h19_t75 -1 x_r2_g94 -1 x_r2_g19 >= -1 ;
1 p_r2_g140_h65_t75 -1 x_r2_g140 <= 0 ;
1 p_r2_g140_h65_t75 -1 x_r2_g65 <= 0 ;
1 p_r2_g140_h65_t75 -1 x_r2_g140 -1 x_r2_g65 >= -1 ;
1 p_r2_g152_h77_t75 -1 x_r2_g152 <= 0 ;
1 p_r2_g152_h77_t75 -1 x_r2_g77 <= 0 ;
1 p_r2_g152_h77_t75 -1 x_r2_g152 -1 x_r2_g77 >= -1 ;
1 p_r3_g8_h100_t75 -1 x_r3_g8 <= 0 ;
1 p_r3_g8_h100_t75 -1 x_r3_g100 <= 0 ;
1 p_r3_g8_h100_t75 -1 x_r3_g8 -1 x_r3_g100 >= -1 ;
1 p_r3_g11_h103_t75 -1 x_r3_g11 <= 0 ;
1 p_r3_g11_h103_t75 -1 x_r3_g103 <= 0 ;
1 p_r3_g11_h103_t75 -1 x_r3_g11 -1 x_r3_g103 >= -1 ;
1 p_r3_g13_h105_t75 -1 x_r3_g13 <= 0 ;
1 p_r3_g13_h105_t75 -1 x_r3_g105 <= 0 ;
1 p_r3_g13_h105_t75 -1 x_r3_g13 -1 x_r3_g105 >= -1 ;
1 p_r3_g19_h111_t75 -1 x_r3_g19 <= 0 ;
1 p_r3_g19_h111_t75 -1 x_r3_g111 <= 0 ;
1 p_r3_g19_h111_t75 -1 x_r3_g19 -1 x_r3_g111 >= -1 ;
1 p_r3_g36_h128_t75 -1 x_r3_g36 <= 0 ;
1 p_r3_g36_h128_t75 -1 x_r3_g128 <= 0 ;
1 p_r3_g36_h128_t75 -1 x_r3_g36 -1 x_r3_g128 >= -1 ;
1 p_r3_g52_h144_t75 -1 x_r3_g52 <= 0 ;
1 p_r3_g52_h144_t75 -1 x_r3_g144 <= 0 ;
1 p_r3_g52_h144_t75 -1 x_r3_g52 -1 x_r3_g144 >= -1 ;
1 p_r3_g53_h145_t75 -1 x_r3_g53 <= 0 ;
1 p_r3_g53_h145_t75 -1 x_r3_g145 <= 0 ;
1 p_r3_g53_h145_t75 -1 x_r3_g53 -1 x_r3_g145 >= -1 ;
1 p_r3_g65_h157_t75 -1 x_r3_g65 <= 0 ;
1 p_r3_g65_h157_t75 -1 x_r3_g157 <= 0 ;
1 p_r3_g65_h157_t75 -1 x_r3_g65 -1 x_r3_g157 >= -1 ;
1 p_r3_g69_h161_t75 -1 x_r3_g69 <= 0 ;
1 p_r3_g69_h161_t75 -1 x_r3_g161 <= 0 ;
1 p_r3_g69_h161_t75 -1 x_r3_g69 -1 x_r3_g161 >= -1 ;
1 p_r3_g90_h15_t75 -1 x_r3_g90 <= 0 ;
1 p_r3_g90_h15_t75 -1 x_r3_g15 <= 0 ;
1 p_r3_g90_h15_t75 -1 x_r3_g90 -1 x_r3_g15 >= -1 ;
1 p_r3_g95_h20_t75 -1 x_r3_g95 <= 0 ;
1 p_r3_g95_h20_t75 -1 x_r3_g20 <= 0 ;
1 p_r3_g95_h20_t75 -1 x_r3_g95 -1 x_r3_g20 >= -1 ;
1 p_r3_g111_h36_t75 -1 x_r3_g111 <= 0 ;
1 p_r3_g111_h36_t75 -1 x_r3_g36 <= 0 ;
1 p_r3_g111_h36_t75 -1 x_r3_g111 -1 x_r3_g36 >= -1 ;
1 p_r3_g128_h53_t75 -1 x_r3_g128 <= 0 ;
1 p_r3_g128_h53_t75 -1 x_r3_g53 <= 0 ;
1 p_r3_g128_h53_t75 -1 x_r3_g128 -1 x_r3_g53 >= -1 ;
1 p_r3_g134_h59_t75 -1 x_r3_g134 <= 0 ;
1 p_r3_g134_h59_t75 -1 x_r3_g59 <= 0 ;
1 p_r3_g134_h59_t75 -1 x_r3_g134 -1 x_r3_g59 >= -1 ;
1 p_r3_g144_h69_t75 -1 x_r3_g144 <= 0 ;
1 p_r3_g144_h69_t75 -1 x_r3_g69 <= 0 ;
1 p_r3_g144_h69_t75 -1 x_r3_g144 -1 x_r3_g69 >= -1 ;
1 p_r3_g165_h90_t75 -1 x_r3_g165 <= 0 ;
1 p_r3_g165_h90_t75 -1 x_r3_g90 <= 0 ;
1 p_r3_g165_h90_t75 -1 x_r3_g165 -1 x_r3_g90 >= -1 ;
1 d_75 -1 x_r0_g8 -1 x_r0_g23 -1 x_r0_g34 -1 x_r0_g35 -1 x_r0_g38 -2 x_r0_g45 -1 x_r0_g47 -2 x_r0_g51 -1 x_r0_g62 -2 x_r0_g67 -2 x_r0_g68 -1 x_r0_g87 -2 x_r0_g88 -1 x_r0_g89 -2 x_r0_g95 -1 x_r0_g97 -1 x_r0_g118 -1 x_r0_g123 -1 x_r0_g130 -1 x_r0_g132 -1 x_r0_g144 -1 x_r0_g150 -1 x_r0_g152 -1 x_r1_g8 -1 x_r1_g11 -2 x_r1_g15 -1 x_r1_g17 -1 x_r1_g20 -1 x_r1_g27 -1 x_r1_g28 -1 x_r1_g31 -1 x_r1_g38 -1 x_r1_g41 -1 x_r1_g57 -1 x_r1_g67 -2 x_r1_g71 -1 x_r1_g91 -1 x_r1_g95 -1 x_r1_g108 -1 x_r1_g114 -1 x_r1_g138 -1 x_r1_g160 -1 x_r1_g161 -1 x_r1_g164 -1 x_r2_g0 -1 x_r2_g8 -2 x_r2_g12 -1 x_r2_g18 -1 x_r2_g21 -2 x_r2_g30 -1 x_r2_g60 -1 x_r2_g65 -1 x_r2_g69 -1 x_r2_g73 -1 x_r2_g82 -1 x_r2_g100 -1 x_r2_g126 -1 x_r2_g136 -1 x_r2_g145 -1 x_r2_g149 -1 x_r2_g158 -2 x_r2_g162 -1 x_r2_g165 -1 x_r3_g7 -1 x_r3_g8 -1 x_r3_g11 -1 x_r3_g16 -1 x_r3_g19 -1 x_r3_g20 -1 x_r3_g24 -1 x_r3_g33 -1 x_r3_g40 -1 x_r3_g52 -1 x_r3_g56 -2 x_r3_g57 -1 x_r3_g59 -1 x_r3_g65 -1 x_r3_g67 -2 x_r3_g68 -2 x_r3_g76 -1 x_r3_g80 -1 x_r3_g103 -1 x_r3_g105 -2 x_r3_g124 -2 x_r3_g137 -1 x_r3_g138 -1 x_r3_g156 -1 x_r3_g161 -1 p_r0_g1_h93_t75 -1 p_r0_g22_h114_t75 -1 p_r0_g26_h118_t75 -1 p_r0_g38_h130_t75 -1 p_r0_g47_h139_t75 -1 p_r0_g54_h146_t75 -1 p_r0_g60_h152_t75 -1 p_r0_g97_h22_t75 -1 p_r0_g101_h26_t75 -1 p_r0_g144_h69_t75 -1 p_r1_g33_h125_t75 -1 p_r1_g60_h152_t75 -1 p_r1_g83_h8_t75 -1 p_r1_g86_h11_t75 -1 p_r1_g95_h20_t75 -1 p_r1_g108_h33_t75 -1 p_r1_g113_h38_t75 -1 p_r1_g117_h42_t75 -1 p_r1_g161_h86_t75 -1 p_r1_g166_h91_t75 -1 p_r2_g0_h92_t75 -1 p_r2_g2_h94_t75 -1 p_r2_g8_h100_t75 -1 p_r2_g18_h110_t75 -1 p_r2_g19_h111_t75 -1 p_r2_g48_h140_t75 -1 p_r2_g60_h152_t75 -1 p_r2_g72_h164_t75 -1 p_r2_g73_h165_t75 -1 p_r2_g77_h2_t75 -1 p_r2_g82_h7_t75 -1 p_r2_g94_h19_t75 -1 p_r2_g140_h65_t75 -1 p_r2_g152_h77_t75 -1 p_r3_g8_h100_t75 -1 p_r3_g11_h103_t75 -1 p_r3_g13_h105_t75 -1 p_r3_g19_h111_t75 -1 p_r3_g36_h128_t75 -1 p_r3_g52_h144_t75 -1 p_r3_g53_h145_t75 -1 p_r3_g65_h157_t75 -1 p_r3_g69_h161_t75 -1 p_r3_g90_h15_t75 -1 p_r3_g95_h20_t75 -1 p_r3_g111_h36_t75 -1 p_r3_g128_h53_t75 -1 p_r3_g134_h59_t75 -1 p_r3_g144_h69_t75 -1 p_r3_g165_h90_t75 = -77 ;
1 d_75 -1 u_75 <= 0 ;
-1 d_75 -1 u_75 <= 0 ;
1 u_75 -1 M <= 0 ;
1 u_75 <= 1 ;
1 M <= 3 ;
1 u_4 1 u_13 1 u_26 10 u_29 1 u_37 1 u_38 1 u_44 1 u_58 1 u_62 1 u_64 10 u_69 1 u_75 <= 46 ;
1 F -1 x_r0_g1 -1 x_r0_g8 -1 x_r0_g22 -1 x_r0_g23 -1 x_r0_g26 -1 x_r0_g35 -1 x_r0_g69 -1 x_r0_g79 -1 x_r0_g87 -1 x_r0_g89 -1 x_r0_g91 -1 x_r0_g92 -1 x_r0_g93 -1 x_r0_g95 -1 x_r0_g97 -1 x_r0_g108 -1 x_r0_g114 -1 x_r0_g130 -1 x_r0_g144 -1 x_r0_g150 -1 x_r1_g2 -1 x_r1_g8 -1 x_r1_g17 -1 x_r1_g28 -1 x_r1_g33 -1 x_r1_g41 -1 x_r1_g47 -1 x_r1_g51 -1 x_r1_g59 -1 x_r1_g60 -1 x_r1_g67 -1 x_r1_g71 -1 x_r1_g73 -1 x_r1_g75 -1 x_r1_g83 -1 x_r1_g86 -1 x_r1_g117 -1 x_r1_g125 -1 x_r1_g152 -1 x_r1_g161 -1 x_r2_g2 -1 x_r2_g8 -1 x_r2_g12 -1 x_r2_g19 -1 x_r2_g69 -1 x_r2_g72 -1 x_r2_g73 -1 x_r2_g77 -1 x_r2_g80 -1 x_r2_g92 -1 x_r2_g97 -1 x_r2_g100 -1 x_r2_g107 -1 x_r2_g111 -1 x_r2_g142 -1 x_r2_g145 -1 x_r2_g149 -1 x_r2_g158 -1 x_r2_g164 -1 x_r2_g165 -1 x_r3_g7 -1 x_r3_g11 -1 x_r3_g15 -1 x_r3_g16 -1 x_r3_g24 -1 x_r3_g33 -1 x_r3_g52 -1 x_r3_g56 -1 x_r3_g57 -1 x_r3_g67 -1 x_r3_g69 -1 x_r3_g90 -1 x_r3_g95 -1 x_r3_g100 -1 x_r3_g103 -1 x_r3_g105 -1 x_r3_g156 -1 x_r3_g157 -1 x_r3_g161 -1 x_r3_g165 1 x_r0_g34 1 x_r0_g38 1 x_r0_g45 1 x_r0_g47 1 x_r0_g51 1 x_r0_g54 1 x_r0_g60 1 x_r0_g62 1 x_r0_g67 1 x_r0_g68 1 x_r0_g70 1 x_r0_g88 1 x_r0_g101 1 x_r0_g116 1 x_r0_g118 1 x_r0_g123 1 x_r0_g132 1 x_r0_g139 1 x_r0_g146 1 x_r0_g152 1 x_r1_g10 1 x_r1_g11 1 x_r1_g15 1 x_r1_g20 1 x_r1_g27 1 x_r1_g29 1 x_r1_g31 1 x_r1_g38 1 x_r1_g42 1 x_r1_g57 1 x_r1_g91 1 x_r1_g95 1 x_r1_g96 1 x_r1_g108 1 x_r1_g113 1 x_r1_g114 1 x_r1_g138 1 x_r1_g160 1 x_r1_g164 1 x_r1_g166 1 x_r2_g0 1 x_r2_g7 1 x_r2_g18 1 x_r2_g21 1 x_r2_g30 1 x_r2_g48 1 x_r2_g60 1 x_r2_g65 1 x_r2_g82 1 x_r2_g94 1 x_r2_g110 1 x_r2_g126 1 x_r2_g128 1 x_r2_g129 1 x_r2_g132 1 x_r2_g136 1 x_r2_g140 1 x_r2_g146 1 x_r2_g152 1 x_r2_g162 1 x_r3_g8 1 x_r3_g13 1 x_r3_g19 1 x_r3_g20 1 x_r3_g36 1 x_r3_g40 1 x_r3_g53 1 x_r3_g59 1 x_r3_g65 1 x_r3_g68 1 x_r3_g76 1 x_r3_g80 1 x_r3_g111 1 x_r3_g124 1 x_r3_g128 1 x_r3_g134 1 x_r3_g137 1 x_r3_g138 1 x_r3_g144 1 x_r3_g145 = 80 ;
1 F <= 6 ;
