* #variable= 1031 #constraint= 2594
* int d_1 d_2 d_3 d_4 d_7 d_13 d_18 d_19 d_21 d_26 d_29 d_37 d_38 d_39 d_44 d_58 d_62 d_64 d_69 d_73 d_75 u_1 u_2 u_3 u_4 u_7 u_13 u_18 u_19 u_21 u_26 u_29 u_37 u_38 u_39 u_44 u_58 u_62 u_64 u_69 u_73 u_75 M F ;
min: 1 M ;
1 x_r0_g1 1 x_r0_g4 1 x_r0_g7 1 x_r0_g9 1 x_r0_g17 1 x_r0_g20 1 x_r0_g22 1 x_r0_g26 1 x_r0_g28 1 x_r0_g34 1 x_r0_g35 1 x_r0_g37 1 x_r0_g46 1 x_r0_g47 1 x_r0_g48 1 x_r0_g54 1 x_r0_g60 1 x_r0_g62 1 x_r0_g67 1 x_r0_g68 1 x_r0_g69 1 x_r0_g70 1 x_r0_g79 1 x_r0_g81 1 x_r0_g84 1 x_r0_g87 1 x_r0_g88 1 x_r0_g93 1 x_r0_g97 1 x_r0_g101 1 x_r0_g118 1 x_r0_g123 1 x_r0_g126 1 x_r0_g130 1 x_r0_g131 1 x_r0_g132 1 x_r0_g144 1 x_r0_g146 1 x_r0_g153 1 x_r0_g162 = 20 ;
1 x_r1_g8 1 x_r1_g11 1 x_r1_g13 1 x_r1_g15 1 x_r1_g17 1 x_r1_g25 1 x_r1_g26 1 x_r1_g31 1 x_r1_g38 1 x_r1_g41 1 x_r1_g44 1 x_r1_g56 1 x_r1_g59 1 x_r1_g62 1 x_r1_g64 1 x_r1_g67 1 x_r1_g75 1 x_r1_g76 1 x_r1_g80 1 x_r1_g86 1 x_r1_g93 1 x_r1_g96 1 x_r1_g108 1 x_r1_g110 1 x_r1_g111 1 x_r1_g113 1 x_r1_g114 1 x_r1_g117 1 x_r1_g121 1 x_r1_g123 1 x_r1_g126 1 x_r1_g128 1 x_r1_g135 1 x_r1_g143 1 x_r1_g146 1 x_r1_g155 1 x_r1_g157 1 x_r1_g160 1 x_r1_g161 1 x_r1_g164 = 20 ;
1 x_r2_g1 1 x_r2_g2 1 x_r2_g18 1 x_r2_g30 1 x_r2_g48 1 x_r2_g60 1 x_r2_g62 1 x_r2_g64 1 x_r2_g66 1 x_r2_g67 1 x_r2_g73 1 x_r2_g74 1 x_r2_g77 1 x_r2_g80 1 x_r2_g82 1 x_r2_g86 1 x_r2_g91 1 x_r2_g94 1 x_r2_g95 1 x_r2_g100 1 x_r2_g107 1 x_r2_g110 1 x_r2_g120 1 x_r2_g128 1 x_r2_g130 1 x_r2_g131 1 x_r2_g136 1 x_r2_g139 1 x_r2_g141 1 x_r2_g142 1 x_r2_g146 1 x_r2_g149 1 x_r2_g152 1 x_r2_g155 1 x_r2_g158 1 x_r2_g159 1 x_r2_g162 1 x_r2_g163 1 x_r2_g164 1 x_r2_g165 = 20 ;
1 x_r3_g3 1 x_r3_g7 1 x_r3_g8 1 x_r3_g11 1 x_r3_g12 1 x_r3_g13 1 x_r3_g15 1 x_r3_g16 1 x_r3_g19 1 x_r3_g24 1 x_r3_g25 1 x_r3_g27 1 x_r3_g33 1 x_r3_g34 1 x_r3_g36 1 x_r3_g53 1 x_r3_g57 1 x_r3_g65 1 x_r3_g72 1 x_r3_g76 1 x_r3_g81 1 x_r3_g86 1 x_r3_g94 1 x_r3_g103 1 x_r3_g105 1 x_r3_g111 1 x_r3_g112 1 x_r3_g113 1 x_r3_g121 1 x_r3_g123 1 x_r3_g124 1 x_r3_g125 1 x_r3_g128 1 x_r3_g138 1 x_r3_g141 1 x_r3_g144 1 x_r3_g145 1 x_r3_g147 1 x_r3_g156 1 x_r3_g165 = 20 ;
1 p_r0_g35_h34_t1 -1 x_r0_g35 <= 0 ;
1 p_r0_g35_h34_t1 -1 x_r0_g34 <= 0 ;
1 p_r0_g35_h34_t1 -1 x_r0_g35 -1 x_r0_g34 >= -1 ;
1 p_r0_g47_h46_t1 -1 x_r0_g47 <= 0 ;
1 p_r0_g47_h46_t1 -1 x_r0_g46 <= 0 ;
1 p_r0_g47_h46_t1 -1 x_r0_g47 -1 x_r0_g46 >= -1 ;
1 p_r0_g48_h47_t1 -1 x_r0_g48 <= 0 ;
1 p_r0_g48_h47_t1 -1 x_r0_g47 <= 0 ;
1 p_r0_g48_h47_t1 -1 x_r0_g48 -1 x_r0_g47 >= -1 ;
1 p_r0_g68_h67_t1 -1 x_r0_g68 <= 0 ;
1 p_r0_g68_h67_t1 -1 x_r0_g67 <= 0 ;
1 p_r0_g68_h67_t1 -1 x_r0_g68 -1 x_r0_g67 >= -1 ;
1 p_r0_g69_h68_t1 -1 x_r0_g69 <= 0 ;
1 p_r0_g69_h68_t1 -1 x_r0_g68 <= 0 ;
1 p_r0_g69_h68_t1 -1 x_r0_g69 -1 x_r0_g68 >= -1 ;
1 p_r0_g70_h69_t1 -1 x_r0_g70 <= 0 ;
1 p_r0_g70_h69_t1 -1 x_r0_g69 <= 0 ;
1 p_r0_g70_h69_t1 -1 x_r0_g70 -1 x_r0_g69 >= -1 ;
1 p_r0_g88_h87_t1 -1 x_r0_g88 <= 0 ;
1 p_r0_g88_h87_t1 -1 x_r0_g87 <= 0 ;
1 p_r0_g88_h87_t1 -1 x_r0_g88 -1 x_r0_g87 >= -1 ;
1 p_r0_g131_h130_t1 -1 x_r0_g131 <= 0 ;
1 p_r0_g131_h130_t1 -1 x_r0_g130 <= 0 ;
1 p_r0_g131_h130_t1 -1 x_r0_g131 -1 x_r0_g130 >= -1 ;
1 p_r0_g132_h131_t1 -1 x_r0_g132 <= 0 ;
1 p_r0_g132_h131_t1 -1 x_r0_g131 <= 0 ;
1 p_r0_g132_h131_t1 -1 x_r0_g132 -1 x_r0_g131 >= -1 ;
1 p_r1_g26_h25_t1 -1 x_r1_g26 <= 0 ;
1 p_r1_g26_h25_t1 -1 x_r1_g25 <= 0 ;
1 p_r1_g26_h25_t1 -1 x_r1_g26 -1 x_r1_g25 >= -1 ;
1 p_r1_g76_h75_t1 -1 x_r1_g76 <= 0 ;
1 p_r1_g76_h75_t1 -1 x_r1_g75 <= 0 ;
1 p_r1_g76_h75_t1 -1 x_r1_g76 -1 x_r1_g75 >= -1 ;
1 p_r1_g111_h110_t1 -1 x_r1_g111 <= 0 ;
1 p_r1_g111_h110_t1 -1 x_r1_g110 <= 0 ;
1 p_r1_g111_h110_t1 -1 x_r1_g111 -1 x_r1_g110 >= -1 ;
1 p_r1_g114_h113_t1 -1 x_r1_g114 <= 0 ;
1 p_r1_g114_h113_t1 -1 x_r1_g113 <= 0 ;
1 p_r1_g114_h113_t1 -1 x_r1_g114 -1 x_r1_g113 >= -1 ;
1 p_r1_g161_h160_t1 -1 x_r1_g161 <= 0 ;
1 p_r1_g161_h160_t1 -1 x_r1_g160 <= 0 ;
1 p_r1_g161_h160_t1 -1 x_r1_g161 -1 x_r1_g160 >= -1 ;
1 p_r2_g2_h1_t1 -1 x_r2_g2 <= 0 ;
1 p_r2_g2_h1_t1 -1 x_r2_g1 <= 0 ;
1 p_r2_g2_h1_t1 -1 x_r2_g2 -1 x_r2_g1 >= -1 ;
1 p_r2_g67_h66_t1 -1 x_r2_g67 <= 0 ;
1 p_r2_g67_h66_t1 -1 x_r2_g66 <= 0 ;
1 p_r2_g67_h66_t1 -1 x_r2_g67 -1 x_r2_g66 >= -1 ;
1 p_r2_g74_h73_t1 -1 x_r2_g74 <= 0 ;
1 p_r2_g74_h73_t1 -1 x_r2_g73 <= 0 ;
1 p_r2_g74_h73_t1 -1 x_r2_g74 -1 x_r2_g73 >= -1 ;
1 p_r2_g95_h94_t1 -1 x_r2_g95 <= 0 ;
1 p_r2_g95_h94_t1 -1 x_r2_g94 <= 0 ;
1 p_r2_g95_h94_t1 -1 x_r2_g95 -1 x_r2_g94 >= -1 ;
1 p_r2_g131_h130_t1 -1 x_r2_g131 <= 0 ;
1 p_r2_g131_h130_t1 -1 x_r2_g130 <= 0 ;
1 p_r2_g131_h130_t1 -1 x_r2_g131 -1 x_r2_g130 >= -1 ;
1 p_r2_g142_h141_t1 -1 x_r2_g142 <= 0 ;
1 p_r2_g142_h141_t1 -1 x_r2_g141 <= 0 ;
1 p_r2_g142_h141_t1 -1 x_r2_g142 -1 x_r2_g141 >= -1 ;
1 p_r2_g159_h158_t1 -1 x_r2_g159 <= 0 ;
1 p_r2_g159_h158_t1 -1 x_r2_g158 <= 0 ;
1 p_r2_g159_h158_t1 -1 x_r2_g159 -1 x_r2_g158 >= -1 ;
1 p_r2_g163_h162_t1 -1 x_r2_g163 <= 0 ;
1 p_r2_g163_h162_t1 -1 x_r2_g162 <= 0 ;
1 p_r2_g163_h162_t1 -1 x_r2_g163 -1 x_r2_g162 >= -1 ;
1 p_r2_g164_h163_t1 -1 x_r2_g164 <= 0 ;
1 p_r2_g164_h163_t1 -1 x_r2_g163 <= 0 ;
1 p_r2_g164_h163_t1 -1 x_r2_g164 -1 x_r2_g163 >= -1 ;
1 p_r2_g165_h164_t1 -1 x_r2_g165 <= 0 ;
1 p_r2_g165_h164_t1 -1 x_r2_g164 <= 0 ;
1 p_r2_g165_h164_t1 -1 x_r2_g165 -1 x_r2_g164 >= -1 ;
1 p_r3_g8_h7_t1 -1 x_r3_g8 <= 0 ;
1 p_r3_g8_h7_t1 -1 x_r3_g7 <= 0 ;
1 p_r3_g8_h7_t1 -1 x_r3_g8 -1 x_r3_g7 >= -1 ;
1 p_r3_g12_h11_t1 -1 x_r3_g12 <= 0 ;
1 p_r3_g12_h11_t1 -1 x_r3_g11 <= 0 ;
1 p_r3_g12_h11_t1 -1 x_r3_g12 -1 x_r3_g11 >= -1 ;
1 p_r3_g13_h12_t1 -1 x_r3_g13 <= 0 ;
1 p_r3_g13_h12_t1 -1 x_r3_g12 <= 0 ;
1 p_r3_g13_h12_t1 -1 x_r3_g13 -1 x_r3_g12 >= -1 ;
1 p_r3_g16_h15_t1 -1 x_r3_g16 <= 0 ;
1 p_r3_g16_h15_t1 -1 x_r3_g15 <= 0 ;
1 p_r3_g16_h15_t1 -1 x_r3_g16 -1 x_r3_g15 >= -1 ;
1 p_r3_g25_h24_t1 -1 x_r3_g25 <= 0 ;
1 p_r3_g25_h24_t1 -1 x_r3_g24 <= 0 ;
1 p_r3_g25_h24_t1 -1 x_r3_g25 -1 x_r3_g24 >= -1 ;
1 p_r3_g34_h33_t1 -1 x_r3_g34 <= 0 ;
1 p_r3_g34_h33_t1 -1 x_r3_g33 <= 0 ;
1 p_r3_g34_h33_t1 -1 x_r3_g34 -1 x_r3_g33 >= -1 ;
1 p_r3_g112_h111_t1 -1 x_r3_g112 <= 0 ;
1 p_r3_g112_h111_t1 -1 x_r3_g111 <= 0 ;
1 p_r3_g112_h111_t1 -1 x_r3_g112 -1 x_r3_g111 >= -1 ;
1 p_r3_g113_h112_t1 -1 x_r3_g113 <= 0 ;
1 p_r3_g113_h112_t1 -1 x_r3_g112 <= 0 ;
1 p_r3_g113_h112_t1 -1 x_r3_g113 -1 x_r3_g112 >= -1 ;
1 p_r3_g124_h123_t1 -1 x_r3_g124 <= 0 ;
1 p_r3_g124_h123_t1 -1 x_r3_g123 <= 0 ;
1 p_r3_g124_h123_t1 -1 x_r3_g124 -1 x_r3_g123 >= -1 ;
1 p_r3_g125_h124_t1 -1 x_r3_g125 <= 0 ;
1 p_r3_g125_h124_t1 -1 x_r3_g124 <= 0 ;
1 p_r3_g125_h124_t1 -1 x_r3_g125 -1 x_r3_g124 >= -1 ;
1 p_r3_g145_h144_t1 -1 x_r3_g145 <= 0 ;
1 p_r3_g145_h144_t1 -1 x_r3_g144 <= 0 ;
1 p_r3_g145_h144_t1 -1 x_r3_g145 -1 x_r3_g144 >= -1 ;
1 d_1 -2 x_r0_g4 -1 x_r0_g7 -1 x_r0_g20 -1 x_r0_g26 -1 x_r0_g35 -2 x_r0_g37 -1 x_r0_g46 -1 x_r0_g48 -1 x_r0_g54 -1 x_r0_g60 -1 x_r0_g62 -1 x_r0_g97 -2 x_r0_g101 -1 x_r0_g118 -1 x_r0_g123 -2 x_r0_g126 -1 x_r0_g144 -1 x_r0_g153 -1 x_r0_g162 -1 x_r1_g11 -1 x_r1_g15 -2 x_r1_g17 -1 x_r1_g26 -1 x_r1_g31 -2 x_r1_g38 -2 x_r1_g41 -1 x_r1_g56 -1 x_r1_g64 -2 x_r1_g67 -2 x_r1_g80 -1 x_r1_g86 -1 x_r1_g96 -2 x_r1_g108 -1 x_r1_g110 -1 x_r1_g111 -1 x_r1_g113 -1 x_r1_g114 -1 x_r1_g117 -1 x_r1_g123 -1 x_r1_g126 -1 x_r1_g128 -2 x_r1_g155 -1 x_r1_g157 -1 x_r1_g160 -1 x_r1_g164 -1 x_r2_g1 -1 x_r2_g30 -1 x_r2_g48 -1 x_r2_g60 -2 x_r2_g62 -2 x_r2_g64 -1 x_r2_g66 -1 x_r2_g67 -1 x_r2_g74 -1 x_r2_g77 -1 x_r2_g82 -2 x_r2_g86 -1 x_r2_g91 -1 x_r2_g94 -1 x_r2_g100 -2 x_r2_g120 -1 x_r2_g128 -1 x_r2_g130 -1 x_r2_g131 -2 x_r2_g136 -1 x_r2_g139 -1 x_r2_g141 -2 x_r2_g149 -2 x_r2_g152 -1 x_r2_g158 -1 x_r2_g159 -1 x_r2_g162 -2 x_r3_g3 -1 x_r3_g7 -1 x_r3_g8 -1 x_r3_g16 -2 x_r3_g19 -1 x_r3_g25 -2 x_r3_g27 -1 x_r3_g33 -1 x_r3_g36 -1 x_r3_g65 -2 x_r3_g76 -1 x_r3_g81 -1 x_r3_g105 -1 x_r3_g111 -1 x_r3_g121 -1 x_r3_g123 -2 x_r3_g128 -2 x_r3_g138 -2 x_r3_g141 -1 x_r3_g144 -1 x_r3_g147 -1 x_r3_g165 -1 p_r0_g35_h34_t1 -1 p_r0_g47_h46_t1 -1 p_r0_g48_h47_t1 -1 p_r0_g68_h67_t1 -1 p_r0_g69_h68_t1 -1 p_r0_g70_h69_t1 -1 p_r0_g88_h87_t1 -1 p_r0_g131_h130_t1 -1 p_r0_g132_h131_t1 -1 p_r1_g26_h25_t1 -1 p_r1_g76_h75_t1 -1 p_r1_g111_h110_t1 -1 p_r1_g114_h113_t1 -1 p_r1_g161_h160_t1 -1 p_r2_g2_h1_t1 -1 p_r2_g67_h66_t1 -1 p_r2_g74_h73_t1 -1 p_r2_g95_h94_t1 -1 p_r2_g131_h130_t1 -1 p_r2_g142_h141_t1 -1 p_r2_g159_h158_t1 -1 p_r2_g163_h162_t1 -1 p_r2_g164_h163_t1 -1 p_r2_g165_h164_t1 -1 p_r3_g8_h7_t1 -1 p_r3_g12_h11_t1 -1 p_r3_g13_h12_t1 -1 p_r3_g16_h15_t1 -1 p_r3_g25_h24_t1 -1 p_r3_g34_h33_t1 -1 p_r3_g112_h111_t1 -1 p_r3_g113_h112_t1 -1 p_r3_g124_h123_t1 -1 p_r3_g125_h124_t1 -1 p_r3_g145_h144_t1 = -81 ;
1 d_1 -1 u_1 <= 0 ;
-1 d_1 -1 u_1 <= 0 ;
1 u_1 -1 M <= 0 ;
1 u_1 <= 1 ;
1 p_r0_g9_h7_t2 -1 x_r0_g9 <= 0 ;
1 p_r0_g9_h7_t2 -1 x_r0_g7 <= 0 ;
1 p_r0_g9_h7_t2 -1 x_r0_g9 -1 x_r0_g7 >= -1 ;
1 p_r0_g22_h20_t2 -1 x_r0_g22 <= 0 ;
1 p_r0_g22_h20_t2 -1 x_r0_g20 <= 0 ;
1 p_r0_g22_h20_t2 -1 x_r0_g22 -1 x_r0_g20 >= -1 ;
1 p_r0_g28_h26_t2 -1 x_r0_g28 <= 0 ;
1 p_r0_g28_h26_t2 -1 x_r0_g26 <= 0 ;
1 p_r0_g28_h26_t2 -1 x_r0_g28 -1 x_r0_g26 >= -1 ;
1 p_r0_g37_h35_t2 -1 x_r0_g37 <= 0 ;
1 p_r0_g37_h35_t2 -1 x_r0_g35 <= 0 ;
1 p_r0_g37_h35_t2 -1 x_r0_g37 -1 x_r0_g35 >= -1 ;
1 p_r0_g48_h46_t2 -1 x_r0_g48 <= 0 ;
1 p_r0_g48_h46_t2 -1 x_r0_g46 <= 0 ;
1 p_r0_g48_h46_t2 -1 x_r0_g48 -1 x_r0_g46 >= -1 ;
1 p_r0_g62_h60_t2 -1 x_r0_g62 <= 0 ;
1 p_r0_g62_h60_t2 -1 x_r0_g60 <= 0 ;
1 p_r0_g62_h60_t2 -1 x_r0_g62 -1 x_r0_g60 >= -1 ;
1 p_r0_g69_h67_t2 -1 x_r0_g69 <= 0 ;
1 p_r0_g69_h67_t2 -1 x_r0_g67 <= 0 ;
1 p_r0_g69_h67_t2 -1 x_r0_g69 -1 x_r0_g67 >= -1 ;
1 p_r0_g70_h68_t2 -1 x_r0_g70 <= 0 ;
1 p_r0_g70_h68_t2 -1 x_r0_g68 <= 0 ;
1 p_r0_g70_h68_t2 -1 x_r0_g70 -1 x_r0_g68 >= -1 ;
1 p_r0_g81_h79_t2 -1 x_r0_g81 <= 0 ;
1 p_r0_g81_h79_t2 -1 x_r0_g79 <= 0 ;
1 p_r0_g81_h79_t2 -1 x_r0_g81 -1 x_r0_g79 >= -1 ;
1 p_r0_g132_h130_t2 -1 x_r0_g132 <= 0 ;
1 p_r0_g132_h130_t2 -1 x_r0_g130 <= 0 ;
1 p_r0_g132_h130_t2 -1 x_r0_g132 -1 x_r0_g130 >= -1 ;
1 p_r0_g146_h144_t2 -1 x_r0_g146 <= 0 ;
1 p_r0_g146_h144_t2 -1 x_r0_g144 <= 0 ;
1 p_r0_g146_h144_t2 -1 x_r0_g146 -1 x_r0_g144 >= -1 ;
1 p_r1_g13_h11_t2 -1 x_r1_g13 <= 0 ;
1 p_r1_g13_h11_t2 -1 x_r1_g11 <= 0 ;
1 p_r1_g13_h11_t2 -1 x_r1_g13 -1 x_r1_g11 >= -1 ;
1 p_r1_g15_h13_t2 -1 x_r1_g15 <= 0 ;
1 p_r1_g15_h13_t2 -1 x_r1_g13 <= 0 ;
1 p_r1_g15_h13_t2 -1 x_r1_g15 -1 x_r1_g13 >= -1 ;
1 p_r1_g17_h15_t2 -1 x_r1_g17 <= 0 ;
1 p_r1_g17_h15_t2 -1 x_r1_g15 <= 0 ;
1 p_r1_g17_h15_t2 -1 x_r1_g17 -1 x_r1_g15 >= -1 ;
1 p_r1_g64_h62_t2 -1 x_r1_g64 <= 0 ;
1 p_r1_g64_h62_t2 -1 x_r1_g62 <= 0 ;
1 p_r1_g64_h62_t2 -1 x_r1_g64 -1 x_r1_g62 >= -1 ;
1 p_r1_g110_h108_t2 -1 x_r1_g110 <= 0 ;
1 p_r1_g110_h108_t2 -1 x_r1_g108 <= 0 ;
1 p_r1_g110_h108_t2 -1 x_r1_g110 -1 x_r1_g108 >= -1 ;
1 p_r1_g113_h111_t2 -1 x_r1_g113 <= 0 ;
1 p_r1_g113_h111_t2 -1 x_r1_g111 <= 0 ;
1 p_r1_g113_h111_t2 -1 x_r1_g113 -1 x_r1_g111 >= -1 ;
1 p_r1_g123_h121_t2 -1 x_r1_g123 <= 0 ;
1 p_r1_g123_h121_t2 -1 x_r1_g121 <= 0 ;
1 p_r1_g123_h121_t2 -1 x_r1_g123 -1 x_r1_g121 >= -1 ;
1 p_r1_g128_h126_t2 -1 x_r1_g128 <= 0 ;
1 p_r1_g128_h126_t2 -1 x_r1_g126 <= 0 ;
1 p_r1_g128_h126_t2 -1 x_r1_g128 -1 x_r1_g126 >= -1 ;
1 p_r1_g157_h155_t2 -1 x_r1_g157 <= 0 ;
1 p_r1_g157_h155_t2 -1 x_r1_g155 <= 0 ;
1 p_r1_g157_h155_t2 -1 x_r1_g157 -1 x_r1_g155 >= -1 ;
1 p_r2_g62_h60_t2 -1 x_r2_g62 <= 0 ;
1 p_r2_g62_h60_t2 -1 x_r2_g60 <= 0 ;
1 p_r2_g62_h60_t2 -1 x_r2_g62 -1 x_r2_g60 >= -1 ;
1 p_r2_g64_h62_t2 -1 x_r2_g64 <= 0 ;
1 p_r2_g64_h62_t2 -1 x_r2_g62 <= 0 ;
1 p_r2_g64_h62_t2 -1 x_r2_g64 -1 x_r2_g62 >= -1 ;
1 p_r2_g66_h64_t2 -1 x_r2_g66 <= 0 ;
1 p_r2_g66_h64_t2 -1 x_r2_g64 <= 0 ;
1 p_r2_g66_h64_t2 -1 x_r2_g66 -1 x_r2_g64 >= -1 ;
1 p_r2_g82_h80_t2 -1 x_r2_g82 <= 0 ;
1 p_r2_g82_h80_t2 -1 x_r2_g80 <= 0 ;
1 p_r2_g82_h80_t2 -1 x_r2_g82 -1 x_r2_g80 >= -1 ;
1 p_r2_g130_h128_t2 -1 x_r2_g130 <= 0 ;
1 p_r2_g130_h128_t2 -1 x_r2_g128 <= 0 ;
1 p_r2_g130_h128_t2 -1 x_r2_g130 -1 x_r2_g128 >= -1 ;
1 p_r2_g141_h139_t2 -1 x_r2_g141 <= 0 ;
1 p_r2_g141_h139_t2 -1 x_r2_g139 <= 0 ;
1 p_r2_g141_h139_t2 -1 x_r2_g141 -1 x_r2_g139 >= -1 ;
1 p_r2_g164_h162_t2 -1 x_r2_g164 <= 0 ;
1 p_r2_g164_h162_t2 -1 x_r2_g162 <= 0 ;
1 p_r2_g164_h162_t2 -1 x_r2_g164 -1 x_r2_g162 >= -1 ;
1 p_r2_g165_h163_t2 -1 x_r2_g165 <= 0 ;
1 p_r2_g165_h163_t2 -1 x_r2_g163 <= 0 ;
1 p_r2_g165_h163_t2 -1 x_r2_g165 -1 x_r2_g163 >= -1 ;
1 p_r3_g13_h11_t2 -1 x_r3_g13 <= 0 ;
1 p_r3_g13_h11_t2 -1 x_r3_g11 <= 0 ;
1 p_r3_g13_h11_t2 -1 x_r3_g13 -1 x_r3_g11 >= -1 ;
1 p_r3_g15_h13_t2 -1 x_r3_g15 <= 0 ;
1 p_r3_g15_h13_t2 -1 x_r3_g13 <= 0 ;
1 p_r3_g15_h13_t2 -1 x_r3_g15 -1 x_r3_g13 >= -1 ;
1 p_r3_g27_h25_t2 -1 x_r3_g27 <= 0 ;
1 p_r3_g27_h25_t2 -1 x_r3_g25 <= 0 ;
1 p_r3_g27_h25_t2 -1 x_r3_g27 -1 x_r3_g25 >= -1 ;
1 p_r3_g36_h34_t2 -1 x_r3_g36 <= 0 ;
1 p_r3_g36_h34_t2 -1 x_r3_g34 <= 0 ;
1 p_r3_g36_h34_t2 -1 x_r3_g36 -1 x_r3_g34 >= -1 ;
1 p_r3_g105_h103_t2 -1 x_r3_g105 <= 0 ;
1 p_r3_g105_h103_t2 -1 x_r3_g103 <= 0 ;
1 p_r3_g105_h103_t2 -1 x_r3_g105 -1 x_r3_g103 >= -1 ;
1 p_r3_g113_h111_t2 -1 x_r3_g113 <= 0 ;
1 p_r3_g113_h111_t2 -1 x_r3_g111 <= 0 ;
1 p_r3_g113_h111_t2 -1 x_r3_g113 -1 x_r3_g111 >= -1 ;
1 p_r3_g123_h121_t2 -1 x_r3_g123 <= 0 ;
1 p_r3_g123_h121_t2 -1 x_r3_g121 <= 0 ;
1 p_r3_g123_h121_t2 -1 x_r3_g123 -1 x_r3_g121 >= -1 ;
1 p_r3_g125_h123_t2 -1 x_r3_g125 <= 0 ;
1 p_r3_g125_h123_t2 -1 x_r3_g123 <= 0 ;
1 p_r3_g125_h123_t2 -1 x_r3_g125 -1 x_r3_g123 >= -1 ;
1 p_r3_g147_h145_t2 -1 x_r3_g147 <= 0 ;
1 p_r3_g147_h145_t2 -1 x_r3_g145 <= 0 ;
1 p_r3_g147_h145_t2 -1 x_r3_g147 -1 x_r3_g145 >= -1 ;
1 d_2 -1 x_r0_g1 -1 x_r0_g4 -1 x_r0_g7 -1 x_r0_g9 -2 x_r0_g17 -1 x_r0_g28 -1 x_r0_g34 -2 x_r0_g47 -1 x_r0_g54 -1 x_r0_g60 -1 x_r0_g67 -1 x_r0_g79 -1 x_r0_g88 -1 x_r0_g101 -2 x_r0_g118 -1 x_r0_g123 -1 x_r0_g144 -2 x_r0_g153 -1 x_r0_g162 -1 x_r1_g8 -1 x_r1_g25 -1 x_r1_g31 -2 x_r1_g38 -1 x_r1_g41 -2 x_r1_g44 -1 x_r1_g59 -1 x_r1_g64 -2 x_r1_g67 -1 x_r1_g76 -2 x_r1_g80 -2 x_r1_g86 -2 x_r1_g93 -1 x_r1_g96 -1 x_r1_g110 -1 x_r1_g111 -1 x_r1_g113 -2 x_r1_g114 -2 x_r1_g117 -1 x_r1_g121 -1 x_r1_g126 -1 x_r1_g128 -1 x_r1_g143 -1 x_r1_g157 -2 x_r1_g161 -1 x_r1_g164 -2 x_r2_g2 -1 x_r2_g18 -1 x_r2_g30 -1 x_r2_g48 -1 x_r2_g60 -1 x_r2_g66 -1 x_r2_g67 -1 x_r2_g73 -1 x_r2_g77 -1 x_r2_g80 -1 x_r2_g91 -1 x_r2_g95 -2 x_r2_g100 -1 x_r2_g107 -1 x_r2_g110 -1 x_r2_g120 -1 x_r2_g128 -1 x_r2_g130 -1 x_r2_g131 -1 x_r2_g136 -1 x_r2_g139 -1 x_r2_g142 -1 x_r2_g146 -1 x_r2_g149 -1 x_r2_g152 -2 x_r2_g155 -1 x_r2_g158 -2 x_r2_g159 -1 x_r2_g162 -1 x_r2_g163 -1 x_r2_g165 -2 x_r3_g3 -2 x_r3_g7 -1 x_r3_g8 -1 x_r3_g11 -1 x_r3_g15 -1 x_r3_g16 -1 x_r3_g19 -2 x_r3_g24 -1 x_r3_g34 -1 x_r3_g36 -1 x_r3_g53 -2 x_r3_g57 -1 x_r3_g72 -2 x_r3_g76 -1 x_r3_g81 -1 x_r3_g112 -1 x_r3_g121 -1 x_r3_g124 -1 x_r3_g125 -1 x_r3_g138 -2 x_r3_g141 -1 x_r3_g144 -1 x_r3_g145 -1 x_r3_g147 -1 x_r3_g156 -1 x_r3_g165 -1 p_r0_g9_h7_t2 -1 p_r0_g22_h20_t2 -1 p_r0_g28_h26_t2 -1 p_r0_g37_h35_t2 -1 p_r0_g48_h46_t2 -1 p_r0_g62_h60_t2 -1 p_r0_g69_h67_t2 -1 p_r0_g70_h68_t2 -1 p_r0_g81_h79_t2 -1 p_r0_g132_h130_t2 -1 p_r0_g146_h144_t2 -1 p_r1_g13_h11_t2 -1 p_r1_g15_h13_t2 -1 p_r1_g17_h15_t2 -1 p_r1_g64_h62_t2 -1 p_r1_g110_h108_t2 -1 p_r1_g113_h111_t2 -1 p_r1_g123_h121_t2 -1 p_r1_g128_h126_t2 -1 p_r1_g157_h155_t2 -1 p_r2_g62_h60_t2 -1 p_r2_g64_h62_t2 -1 p_r2_g66_h64_t2 -1 p_r2_g82_h80_t2 -1 p_r2_g130_h128_t2 -1 p_r2_g141_h139_t2 -1 p_r2_g164_h162_t2 -1 p_r2_g165_h163_t2 -1 p_r3_g13_h11_t2 -1 p_r3_g15_h13_t2 -1 p_r3_g27_h25_t2 -1 p_r3_g36_h34_t2 -1 p_r3_g105_h103_t2 -1 p_r3_g113_h111_t2 -1 p_r3_g123_h121_t2 -1 p_r3_g125_h123_t2 -1 p_r3_g147_h145_t2 = -58 ;
1 d_2 -1 u_2 <= 0 ;
-1 d_2 -1 u_2 <= 0 ;
1 u_2 -1 M <= 0 ;
1 u_2 <= 2 ;
1 p_r0_g4_h1_t3 -1 x_r0_g4 <= 0 ;
1 p_r0_g4_h1_t3 -1 x_r0_g1 <= 0 ;
1 p_r0_g4_h1_t3 -1 x_r0_g4 -1 x_r0_g1 >= -1 ;
1 p_r0_g7_h4_t3 -1 x_r0_g7 <= 0 ;
1 p_r0_g7_h4_t3 -1 x_r0_g4 <= 0 ;
1 p_r0_g7_h4_t3 -1 x_r0_g7 -1 x_r0_g4 >= -1 ;
1 p_r0_g20_h17_t3 -1 x_r0_g20 <= 0 ;
1 p_r0_g20_h17_t3 -1 x_r0_g17 <= 0 ;
1 p_r0_g20_h17_t3 -1 x_r0_g20 -1 x_r0_g17 >= -1 ;
1 p_r0_g37_h34_t3 -1 x_r0_g37 <= 0 ;
1 p_r0_g37_h34_t3 -1 x_r0_g34 <= 0 ;
1 p_r0_g37_h34_t3 -1 x_r0_g37 -1 x_r0_g34 >= -1 ;
1 p_r0_g70_h67_t3 -1 x_r0_g70 <= 0 ;
1 p_r0_g70_h67_t3 -1 x_r0_g67 <= 0 ;
1 p_r0_g70_h67_t3 -1 x_r0_g70 -1 x_r0_g67 >= -1 ;
1 p_r0_g84_h81_t3 -1 x_r0_g84 <= 0 ;
1 p_r0_g84_h81_t3 -1 x_r0_g81 <= 0 ;
1 p_r0_g84_h81_t3 -1 x_r0_g84 -1 x_r0_g81 >= -1 ;
1 p_r0_g87_h84_t3 -1 x_r0_g87 <= 0 ;
1 p_r0_g87_h84_t3 -1 x_r0_g84 <= 0 ;
1 p_r0_g87_h84_t3 -1 x_r0_g87 -1 x_r0_g84 >= -1 ;
1 p_r0_g126_h123_t3 -1 x_r0_g126 <= 0 ;
1 p_r0_g126_h123_t3 -1 x_r0_g123 <= 0 ;
1 p_r0_g126_h123_t3 -1 x_r0_g126 -1 x_r0_g123 >= -1 ;
1 p_r1_g11_h8_t3 -1 x_r1_g11 <= 0 ;
1 p_r1_g11_h8_t3 -1 x_r1_g8 <= 0 ;
1 p_r1_g11_h8_t3 -1 x_r1_g11 -1 x_r1_g8 >= -1 ;
1 p_r1_g41_h38_t3 -1 x_r1_g41 <= 0 ;
1 p_r1_g41_h38_t3 -1 x_r1_g38 <= 0 ;
1 p_r1_g41_h38_t3 -1 x_r1_g41 -1 x_r1_g38 >= -1 ;
1 p_r1_g44_h41_t3 -1 x_r1_g44 <= 0 ;
1 p_r1_g44_h41_t3 -1 x_r1_g41 <= 0 ;
1 p_r1_g44_h41_t3 -1 x_r1_g44 -1 x_r1_g41 >= -1 ;
1 p_r1_g59_h56_t3 -1 x_r1_g59 <= 0 ;
1 p_r1_g59_h56_t3 -1 x_r1_g56 <= 0 ;
1 p_r1_g59_h56_t3 -1 x_r1_g59 -1 x_r1_g56 >= -1 ;
1 p_r1_g62_h59_t3 -1 x_r1_g62 <= 0 ;
1 p_r1_g62_h59_t3 -1 x_r1_g59 <= 0 ;
1 p_r1_g62_h59_t3 -1 x_r1_g62 -1 x_r1_g59 >= -1 ;
1 p_r1_g67_h64_t3 -1 x_r1_g67 <= 0 ;
1 p_r1_g67_h64_t3 -1 x_r1_g64 <= 0 ;
1 p_r1_g67_h64_t3 -1 x_r1_g67 -1 x_r1_g64 >= -1 ;
1 p_r1_g96_h93_t3 -1 x_r1_g96 <= 0 ;
1 p_r1_g96_h93_t3 -1 x_r1_g93 <= 0 ;
1 p_r1_g96_h93_t3 -1 x_r1_g96 -1 x_r1_g93 >= -1 ;
1 p_r1_g111_h108_t3 -1 x_r1_g111 <= 0 ;
1 p_r1_g111_h108_t3 -1 x_r1_g108 <= 0 ;
1 p_r1_g111_h108_t3 -1 x_r1_g111 -1 x_r1_g108 >= -1 ;
1 p_r1_g113_h110_t3 -1 x_r1_g113 <= 0 ;
1 p_r1_g113_h110_t3 -1 x_r1_g110 <= 0 ;
1 p_r1_g113_h110_t3 -1 x_r1_g113 -1 x_r1_g110 >= -1 ;
1 p_r1_g114_h111_t3 -1 x_r1_g114 <= 0 ;
1 p_r1_g114_h111_t3 -1 x_r1_g111 <= 0 ;
1 p_r1_g114_h111_t3 -1 x_r1_g114 -1 x_r1_g111 >= -1 ;
1 p_r1_g117_h114_t3 -1 x_r1_g117 <= 0 ;
1 p_r1_g117_h114_t3 -1 x_r1_g114 <= 0 ;
1 p_r1_g117_h114_t3 -1 x_r1_g117 -1 x_r1_g114 >= -1 ;
1 p_r1_g126_h123_t3 -1 x_r1_g126 <= 0 ;
1 p_r1_g126_h123_t3 -1 x_r1_g123 <= 0 ;
1 p_r1_g126_h123_t3 -1 x_r1_g126 -1 x_r1_g123 >= -1 ;
1 p_r1_g146_h143_t3 -1 x_r1_g146 <= 0 ;
1 p_r1_g146_h143_t3 -1 x_r1_g143 <= 0 ;
1 p_r1_g146_h143_t3 -1 x_r1_g146 -1 x_r1_g143 >= -1 ;
1 p_r1_g160_h157_t3 -1 x_r1_g160 <= 0 ;
1 p_r1_g160_h157_t3 -1 x_r1_g157 <= 0 ;
1 p_r1_g160_h157_t3 -1 x_r1_g160 -1 x_r1_g157 >= -1 ;
1 p_r1_g164_h161_t3 -1 x_r1_g164 <= 0 ;
1 p_r1_g164_h161_t3 -1 x_r1_g161 <= 0 ;
1 p_r1_g164_h161_t3 -1 x_r1_g164 -1 x_r1_g161 >= -1 ;
1 p_r2_g1_h165_t3 -1 x_r2_g1 <= 0 ;
1 p_r2_g1_h165_t3 -1 x_r2_g165 <= 0 ;
1 p_r2_g1_h165_t3 -1 x_r2_g1 -1 x_r2_g165 >= -1 ;
1 p_r2_g67_h64_t3 -1 x_r2_g67 <= 0 ;
1 p_r2_g67_h64_t3 -1 x_r2_g64 <= 0 ;
1 p_r2_g67_h64_t3 -1 x_r2_g67 -1 x_r2_g64 >= -1 ;
1 p_r2_g77_h74_t3 -1 x_r2_g77 <= 0 ;
1 p_r2_g77_h74_t3 -1 x_r2_g74 <= 0 ;
1 p_r2_g77_h74_t3 -1 x_r2_g77 -1 x_r2_g74 >= -1 ;
1 p_r2_g80_h77_t3 -1 x_r2_g80 <= 0 ;
1 p_r2_g80_h77_t3 -1 x_r2_g77 <= 0 ;
1 p_r2_g80_h77_t3 -1 x_r2_g80 -1 x_r2_g77 >= -1 ;
1 p_r2_g94_h91_t3 -1 x_r2_g94 <= 0 ;
1 p_r2_g94_h91_t3 -1 x_r2_g91 <= 0 ;
1 p_r2_g94_h91_t3 -1 x_r2_g94 -1 x_r2_g91 >= -1 ;
1 p_r2_g110_h107_t3 -1 x_r2_g110 <= 0 ;
1 p_r2_g110_h107_t3 -1 x_r2_g107 <= 0 ;
1 p_r2_g110_h107_t3 -1 x_r2_g110 -1 x_r2_g107 >= -1 ;
1 p_r2_g131_h128_t3 -1 x_r2_g131 <= 0 ;
1 p_r2_g131_h128_t3 -1 x_r2_g128 <= 0 ;
1 p_r2_g131_h128_t3 -1 x_r2_g131 -1 x_r2_g128 >= -1 ;
1 p_r2_g139_h136_t3 -1 x_r2_g139 <= 0 ;
1 p_r2_g139_h136_t3 -1 x_r2_g136 <= 0 ;
1 p_r2_g139_h136_t3 -1 x_r2_g139 -1 x_r2_g136 >= -1 ;
1 p_r2_g142_h139_t3 -1 x_r2_g142 <= 0 ;
1 p_r2_g142_h139_t3 -1 x_r2_g139 <= 0 ;
1 p_r2_g142_h139_t3 -1 x_r2_g142 -1 x_r2_g139 >= -1 ;
1 p_r2_g149_h146_t3 -1 x_r2_g149 <= 0 ;
1 p_r2_g149_h146_t3 -1 x_r2_g146 <= 0 ;
1 p_r2_g149_h146_t3 -1 x_r2_g149 -1 x_r2_g146 >= -1 ;
1 p_r2_g152_h149_t3 -1 x_r2_g152 <= 0 ;
1 p_r2_g152_h149_t3 -1 x_r2_g149 <= 0 ;
1 p_r2_g152_h149_t3 -1 x_r2_g152 -1 x_r2_g149 >= -1 ;
1 p_r2_g155_h152_t3 -1 x_r2_g155 <= 0 ;
1 p_r2_g155_h152_t3 -1 x_r2_g152 <= 0 ;
1 p_r2_g155_h152_t3 -1 x_r2_g155 -1 x_r2_g152 >= -1 ;
1 p_r2_g158_h155_t3 -1 x_r2_g158 <= 0 ;
1 p_r2_g158_h155_t3 -1 x_r2_g155 <= 0 ;
1 p_r2_g158_h155_t3 -1 x_r2_g158 -1 x_r2_g155 >= -1 ;
1 p_r2_g162_h159_t3 -1 x_r2_g162 <= 0 ;
1 p_r2_g162_h159_t3 -1 x_r2_g159 <= 0 ;
1 p_r2_g162_h159_t3 -1 x_r2_g162 -1 x_r2_g159 >= -1 ;
1 p_r2_g165_h162_t3 -1 x_r2_g165 <= 0 ;
1 p_r2_g165_h162_t3 -1 x_r2_g162 <= 0 ;
1 p_r2_g165_h162_t3 -1 x_r2_g165 -1 x_r2_g162 >= -1 ;
1 p_r3_g11_h8_t3 -1 x_r3_g11 <= 0 ;
1 p_r3_g11_h8_t3 -1 x_r3_g8 <= 0 ;
1 p_r3_g11_h8_t3 -1 x_r3_g11 -1 x_r3_g8 >= -1 ;
1 p_r3_g15_h12_t3 -1 x_r3_g15 <= 0 ;
1 p_r3_g15_h12_t3 -1 x_r3_g12 <= 0 ;
1 p_r3_g15_h12_t3 -1 x_r3_g15 -1 x_r3_g12 >= -1 ;
1 p_r3_g16_h13_t3 -1 x_r3_g16 <= 0 ;
1 p_r3_g16_h13_t3 -1 x_r3_g13 <= 0 ;
1 p_r3_g16_h13_t3 -1 x_r3_g16 -1 x_r3_g13 >= -1 ;
1 p_r3_g19_h16_t3 -1 x_r3_g19 <= 0 ;
1 p_r3_g19_h16_t3 -1 x_r3_g16 <= 0 ;
1 p_r3_g19_h16_t3 -1 x_r3_g19 -1 x_r3_g16 >= -1 ;
1 p_r3_g27_h24_t3 -1 x_r3_g27 <= 0 ;
1 p_r3_g27_h24_t3 -1 x_r3_g24 <= 0 ;
1 p_r3_g27_h24_t3 -1 x_r3_g27 -1 x_r3_g24 >= -1 ;
1 p_r3_g36_h33_t3 -1 x_r3_g36 <= 0 ;
1 p_r3_g36_h33_t3 -1 x_r3_g33 <= 0 ;
1 p_r3_g36_h33_t3 -1 x_r3_g36 -1 x_r3_g33 >= -1 ;
1 p_r3_g124_h121_t3 -1 x_r3_g124 <= 0 ;
1 p_r3_g124_h121_t3 -1 x_r3_g121 <= 0 ;
1 p_r3_g124_h121_t3 -1 x_r3_g124 -1 x_r3_g121 >= -1 ;
1 p_r3_g128_h125_t3 -1 x_r3_g128 <= 0 ;
1 p_r3_g128_h125_t3 -1 x_r3_g125 <= 0 ;
1 p_r3_g128_h125_t3 -1 x_r3_g128 -1 x_r3_g125 >= -1 ;
1 p_r3_g141_h138_t3 -1 x_r3_g141 <= 0 ;
1 p_r3_g141_h138_t3 -1 x_r3_g138 <= 0 ;
1 p_r3_g141_h138_t3 -1 x_r3_g141 -1 x_r3_g138 >= -1 ;
1 p_r3_g144_h141_t3 -1 x_r3_g144 <= 0 ;
1 p_r3_g144_h141_t3 -1 x_r3_g141 <= 0 ;
1 p_r3_g144_h141_t3 -1 x_r3_g144 -1 x_r3_g141 >= -1 ;
1 p_r3_g147_h144_t3 -1 x_r3_g147 <= 0 ;
1 p_r3_g147_h144_t3 -1 x_r3_g144 <= 0 ;
1 p_r3_g147_h144_t3 -1 x_r3_g147 -1 x_r3_g144 >= -1 ;
1 d_3 -1 x_r0_g1 -2 x_r0_g9 -1 x_r0_g17 -2 x_r0_g22 -1 x_r0_g28 -1 x_r0_g35 -1 x_r0_g37 -2 x_r0_g46 -2 x_r0_g48 -1 x_r0_g54 -1 x_r0_g60 -2 x_r0_g62 -1 x_r0_g68 -1 x_r0_g87 -1 x_r0_g93 -1 x_r0_g97 -1 x_r0_g101 -1 x_r0_g123 -1 x_r0_g130 -2 x_r0_g146 -2 x_r0_g162 -2 x_r1_g13 -1 x_r1_g15 -1 x_r1_g17 -1 x_r1_g26 -1 x_r1_g56 -1 x_r1_g62 -1 x_r1_g67 -1 x_r1_g75 -1 x_r1_g76 -1 x_r1_g86 -1 x_r1_g93 -1 x_r1_g110 -1 x_r1_g113 -1 x_r1_g121 -2 x_r1_g135 -1 x_r1_g143 -1 x_r1_g157 -1 x_r1_g160 -1 x_r2_g1 -1 x_r2_g18 -2 x_r2_g30 -1 x_r2_g60 -1 x_r2_g62 -1 x_r2_g64 -1 x_r2_g66 -1 x_r2_g67 -1 x_r2_g73 -1 x_r2_g80 -1 x_r2_g82 -1 x_r2_g86 -1 x_r2_g95 -1 x_r2_g107 -1 x_r2_g110 -1 x_r2_g131 -1 x_r2_g158 -1 x_r2_g163 -2 x_r2_g164 -1 x_r3_g3 -1 x_r3_g7 -1 x_r3_g8 -1 x_r3_g12 -1 x_r3_g15 -1 x_r3_g19 -2 x_r3_g25 -1 x_r3_g27 -1 x_r3_g33 -1 x_r3_g34 -1 x_r3_g36 -2 x_r3_g65 -1 x_r3_g72 -1 x_r3_g81 -2 x_r3_g86 -1 x_r3_g103 -1 x_r3_g105 -1 x_r3_g111 -1 x_r3_g113 -1 x_r3_g121 -1 x_r3_g124 -1 x_r3_g125 -2 x_r3_g145 -2 x_r3_g165 -1 p_r0_g4_h1_t3 -1 p_r0_g7_h4_t3 -1 p_r0_g20_h17_t3 -1 p_r0_g37_h34_t3 -1 p_r0_g70_h67_t3 -1 p_r0_g84_h81_t3 -1 p_r0_g87_h84_t3 -1 p_r0_g126_h123_t3 -1 p_r1_g11_h8_t3 -1 p_r1_g41_h38_t3 -1 p_r1_g44_h41_t3 -1 p_r1_g59_h56_t3 -1 p_r1_g62_h59_t3 -1 p_r1_g67_h64_t3 -1 p_r1_g96_h93_t3 -1 p_r1_g111_h108_t3 -1 p_r1_g113_h110_t3 -1 p_r1_g114_h111_t3 -1 p_r1_g117_h114_t3 -1 p_r1_g126_h123_t3 -1 p_r1_g146_h143_t3 -1 p_r1_g160_h157_t3 -1 p_r1_g164_h161_t3 -1 p_r2_g1_h165_t3 -1 p_r2_g67_h64_t3 -1 p_r2_g77_h74_t3 -1 p_r2_g80_h77_t3 -1 p_r2_g94_h91_t3 -1 p_r2_g110_h107_t3 -1 p_r2_g131_h128_t3 -1 p_r2_g139_h136_t3 -1 p_r2_g142_h139_t3 -1 p_r2_g149_h146_t3 -1 p_r2_g152_h149_t3 -1 p_r2_g155_h152_t3 -1 p_r2_g158_h155_t3 -1 p_r2_g162_h159_t3 -1 p_r2_g165_h162_t3 -1 p_r3_g11_h8_t3 -1 p_r3_g15_h12_t3 -1 p_r3_g16_h13_t3 -1 p_r3_g19_h16_t3 -1 p_r3_g27_h24_t3 -1 p_r3_g36_h33_t3 -1 p_r3_g124_h121_t3 -1 p_r3_g128_h125_t3 -1 p_r3_g141_h138_t3 -1 p_r3_g144_h141_t3 -1 p_r3_g147_h144_t3 = -48 ;
1 d_3 -1 u_3 <= 0 ;
-1 d_3 -1 u_3 <= 0 ;
1 u_3 -1 M <= 0 ;
1 u_3 <= 2 ;
1 p_r0_g26_h22_t4 -1 x_r0_g26 <= 0 ;
1 p_r0_g26_h22_t4 -1 x_r0_g22 <= 0 ;
1 p_r0_g26_h22_t4 -1 x_r0_g26 -1 x_r0_g22 >= -1 ;
1 p_r0_g88_h84_t4 -1 x_r0_g88 <= 0 ;
1 p_r0_g88_h84_t4 -1 x_r0_g84 <= 0 ;
1 p_r0_g88_h84_t4 -1 x_r0_g88 -1 x_r0_g84 >= -1 ;
1 p_r0_g97_h93_t4 -1 x_r0_g97 <= 0 ;
1 p_r0_g97_h93_t4 -1 x_r0_g93 <= 0 ;
1 p_r0_g97_h93_t4 -1 x_r0_g97 -1 x_r0_g93 >= -1 ;
1 p_r0_g101_h97_t4 -1 x_r0_g101 <= 0 ;
1 p_r0_g101_h97_t4 -1 x_r0_g97 <= 0 ;
1 p_r0_g101_h97_t4 -1 x_r0_g101 -1 x_r0_g97 >= -1 ;
1 p_r0_g130_h126_t4 -1 x_r0_g130 <= 0 ;
1 p_r0_g130_h126_t4 -1 x_r0_g126 <= 0 ;
1 p_r0_g130_h126_t4 -1 x_r0_g130 -1 x_r0_g126 >= -1 ;
1 p_r1_g15_h11_t4 -1 x_r1_g15 <= 0 ;
1 p_r1_g15_h11_t4 -1 x_r1_g11 <= 0 ;
1 p_r1_g15_h11_t4 -1 x_r1_g15 -1 x_r1_g11 >= -1 ;
1 p_r1_g17_h13_t4 -1 x_r1_g17 <= 0 ;
1 p_r1_g17_h13_t4 -1 x_r1_g13 <= 0 ;
1 p_r1_g17_h13_t4 -1 x_r1_g17 -1 x_r1_g13 >= -1 ;
1 p_r1_g80_h76_t4 -1 x_r1_g80 <= 0 ;
1 p_r1_g80_h76_t4 -1 x_r1_g76 <= 0 ;
1 p_r1_g80_h76_t4 -1 x_r1_g80 -1 x_r1_g76 >= -1 ;
1 p_r1_g114_h110_t4 -1 x_r1_g114 <= 0 ;
1 p_r1_g114_h110_t4 -1 x_r1_g110 <= 0 ;
1 p_r1_g114_h110_t4 -1 x_r1_g114 -1 x_r1_g110 >= -1 ;
1 p_r1_g117_h113_t4 -1 x_r1_g117 <= 0 ;
1 p_r1_g117_h113_t4 -1 x_r1_g113 <= 0 ;
1 p_r1_g117_h113_t4 -1 x_r1_g117 -1 x_r1_g113 >= -1 ;
1 p_r1_g121_h117_t4 -1 x_r1_g121 <= 0 ;
1 p_r1_g121_h117_t4 -1 x_r1_g117 <= 0 ;
1 p_r1_g121_h117_t4 -1 x_r1_g121 -1 x_r1_g117 >= -1 ;
1 p_r1_g161_h157_t4 -1 x_r1_g161 <= 0 ;
1 p_r1_g161_h157_t4 -1 x_r1_g157 <= 0 ;
1 p_r1_g161_h157_t4 -1 x_r1_g161 -1 x_r1_g157 >= -1 ;
1 p_r1_g164_h160_t4 -1 x_r1_g164 <= 0 ;
1 p_r1_g164_h160_t4 -1 x_r1_g160 <= 0 ;
1 p_r1_g164_h160_t4 -1 x_r1_g164 -1 x_r1_g160 >= -1 ;
1 p_r2_g1_h164_t4 -1 x_r2_g1 <= 0 ;
1 p_r2_g1_h164_t4 -1 x_r2_g164 <= 0 ;
1 p_r2_g1_h164_t4 -1 x_r2_g1 -1 x_r2_g164 >= -1 ;
1 p_r2_g2_h165_t4 -1 x_r2_g2 <= 0 ;
1 p_r2_g2_h165_t4 -1 x_r2_g165 <= 0 ;
1 p_r2_g2_h165_t4 -1 x_r2_g2 -1 x_r2_g165 >= -1 ;
1 p_r2_g64_h60_t4 -1 x_r2_g64 <= 0 ;
1 p_r2_g64_h60_t4 -1 x_r2_g60 <= 0 ;
1 p_r2_g64_h60_t4 -1 x_r2_g64 -1 x_r2_g60 >= -1 ;
1 p_r2_g66_h62_t4 -1 x_r2_g66 <= 0 ;
1 p_r2_g66_h62_t4 -1 x_r2_g62 <= 0 ;
1 p_r2_g66_h62_t4 -1 x_r2_g66 -1 x_r2_g62 >= -1 ;
1 p_r2_g77_h73_t4 -1 x_r2_g77 <= 0 ;
1 p_r2_g77_h73_t4 -1 x_r2_g73 <= 0 ;
1 p_r2_g77_h73_t4 -1 x_r2_g77 -1 x_r2_g73 >= -1 ;
1 p_r2_g86_h82_t4 -1 x_r2_g86 <= 0 ;
1 p_r2_g86_h82_t4 -1 x_r2_g82 <= 0 ;
1 p_r2_g86_h82_t4 -1 x_r2_g86 -1 x_r2_g82 >= -1 ;
1 p_r2_g95_h91_t4 -1 x_r2_g95 <= 0 ;
1 p_r2_g95_h91_t4 -1 x_r2_g91 <= 0 ;
1 p_r2_g95_h91_t4 -1 x_r2_g95 -1 x_r2_g91 >= -1 ;
1 p_r2_g146_h142_t4 -1 x_r2_g146 <= 0 ;
1 p_r2_g146_h142_t4 -1 x_r2_g142 <= 0 ;
1 p_r2_g146_h142_t4 -1 x_r2_g146 -1 x_r2_g142 >= -1 ;
1 p_r2_g159_h155_t4 -1 x_r2_g159 <= 0 ;
1 p_r2_g159_h155_t4 -1 x_r2_g155 <= 0 ;
1 p_r2_g159_h155_t4 -1 x_r2_g159 -1 x_r2_g155 >= -1 ;
1 p_r2_g162_h158_t4 -1 x_r2_g162 <= 0 ;
1 p_r2_g162_h158_t4 -1 x_r2_g158 <= 0 ;
1 p_r2_g162_h158_t4 -1 x_r2_g162 -1 x_r2_g158 >= -1 ;
1 p_r2_g163_h159_t4 -1 x_r2_g163 <= 0 ;
1 p_r2_g163_h159_t4 -1 x_r2_g159 <= 0 ;
1 p_r2_g163_h159_t4 -1 x_r2_g163 -1 x_r2_g159 >= -1 ;
1 p_r3_g7_h3_t4 -1 x_r3_g7 <= 0 ;
1 p_r3_g7_h3_t4 -1 x_r3_g3 <= 0 ;
1 p_r3_g7_h3_t4 -1 x_r3_g7 -1 x_r3_g3 >= -1 ;
1 p_r3_g11_h7_t4 -1 x_r3_g11 <= 0 ;
1 p_r3_g11_h7_t4 -1 x_r3_g7 <= 0 ;
1 p_r3_g11_h7_t4 -1 x_r3_g11 -1 x_r3_g7 >= -1 ;
1 p_r3_g12_h8_t4 -1 x_r3_g12 <= 0 ;
1 p_r3_g12_h8_t4 -1 x_r3_g8 <= 0 ;
1 p_r3_g12_h8_t4 -1 x_r3_g12 -1 x_r3_g8 >= -1 ;
1 p_r3_g15_h11_t4 -1 x_r3_g15 <= 0 ;
1 p_r3_g15_h11_t4 -1 x_r3_g11 <= 0 ;
1 p_r3_g15_h11_t4 -1 x_r3_g15 -1 x_r3_g11 >= -1 ;
1 p_r3_g16_h12_t4 -1 x_r3_g16 <= 0 ;
1 p_r3_g16_h12_t4 -1 x_r3_g12 <= 0 ;
1 p_r3_g16_h12_t4 -1 x_r3_g16 -1 x_r3_g12 >= -1 ;
1 p_r3_g19_h15_t4 -1 x_r3_g19 <= 0 ;
1 p_r3_g19_h15_t4 -1 x_r3_g15 <= 0 ;
1 p_r3_g19_h15_t4 -1 x_r3_g19 -1 x_r3_g15 >= -1 ;
1 p_r3_g57_h53_t4 -1 x_r3_g57 <= 0 ;
1 p_r3_g57_h53_t4 -1 x_r3_g53 <= 0 ;
1 p_r3_g57_h53_t4 -1 x_r3_g57 -1 x_r3_g53 >= -1 ;
1 p_r3_g76_h72_t4 -1 x_r3_g76 <= 0 ;
1 p_r3_g76_h72_t4 -1 x_r3_g72 <= 0 ;
1 p_r3_g76_h72_t4 -1 x_r3_g76 -1 x_r3_g72 >= -1 ;
1 p_r3_g125_h121_t4 -1 x_r3_g125 <= 0 ;
1 p_r3_g125_h121_t4 -1 x_r3_g121 <= 0 ;
1 p_r3_g125_h121_t4 -1 x_r3_g125 -1 x_r3_g121 >= -1 ;
1 p_r3_g128_h124_t4 -1 x_r3_g128 <= 0 ;
1 p_r3_g128_h124_t4 -1 x_r3_g124 <= 0 ;
1 p_r3_g128_h124_t4 -1 x_r3_g128 -1 x_r3_g124 >= -1 ;
1 p_r3_g145_h141_t4 -1 x_r3_g145 <= 0 ;
1 p_r3_g145_h141_t4 -1 x_r3_g141 <= 0 ;
1 p_r3_g145_h141_t4 -1 x_r3_g145 -1 x_r3_g141 >= -1 ;
1 d_4 -1 x_r0_g1 -2 x_r0_g7 -2 x_r0_g9 -1 x_r0_g17 -1 x_r0_g26 -2 x_r0_g34 -1 x_r0_g46 -2 x_r0_g47 -1 x_r0_g48 -1 x_r0_g54 -1 x_r0_g62 -1 x_r0_g67 -1 x_r0_g69 -1 x_r0_g70 -1 x_r0_g81 -1 x_r0_g118 -2 x_r0_g123 -1 x_r0_g126 -1 x_r0_g131 -1 x_r0_g132 -1 x_r0_g146 -2 x_r0_g153 -1 x_r0_g162 -1 x_r1_g25 -1 x_r1_g31 -1 x_r1_g38 -1 x_r1_g41 -1 x_r1_g44 -1 x_r1_g62 -1 x_r1_g64 -1 x_r1_g75 -1 x_r1_g80 -2 x_r1_g86 -1 x_r1_g93 -1 x_r1_g96 -1 x_r1_g108 -2 x_r1_g111 -1 x_r1_g113 -2 x_r1_g123 -1 x_r1_g126 -2 x_r1_g128 -1 x_r1_g155 -1 x_r1_g160 -1 x_r1_g164 -1 x_r2_g18 -2 x_r2_g30 -1 x_r2_g60 -1 x_r2_g62 -1 x_r2_g64 -1 x_r2_g66 -1 x_r2_g67 -2 x_r2_g74 -1 x_r2_g82 -1 x_r2_g86 -1 x_r2_g91 -2 x_r2_g94 -1 x_r2_g100 -1 x_r2_g110 -1 x_r2_g120 -1 x_r2_g128 -2 x_r2_g130 -1 x_r2_g131 -2 x_r2_g136 -1 x_r2_g139 -1 x_r2_g141 -1 x_r2_g146 -1 x_r2_g149 -1 x_r2_g152 -1 x_r2_g155 -1 x_r2_g163 -1 x_r2_g164 -1 x_r2_g165 -1 x_r3_g3 -1 x_r3_g8 -2 x_r3_g13 -1 x_r3_g16 -2 x_r3_g24 -1 x_r3_g33 -2 x_r3_g34 -2 x_r3_g36 -1 x_r3_g53 -1 x_r3_g57 -1 x_r3_g65 -1 x_r3_g72 -1 x_r3_g76 -1 x_r3_g81 -1 x_r3_g94 -1 x_r3_g103 -1 x_r3_g112 -2 x_r3_g123 -1 x_r3_g125 -1 x_r3_g128 -2 x_r3_g138 -1 x_r3_g141 -2 x_r3_g144 -1 x_r3_g145 -2 x_r3_g147 -1 x_r3_g156 -1 x_r3_g165 -1 p_r0_g26_h22_t4 -1 p_r0_g88_h84_t4 -1 p_r0_g97_h93_t4 -1 p_r0_g101_h97_t4 -1 p_r0_g130_h126_t4 -1 p_r1_g15_h11_t4 -1 p_r1_g17_h13_t4 -1 p_r1_g80_h76_t4 -1 p_r1_g114_h110_t4 -1 p_r1_g117_h113_t4 -1 p_r1_g121_h117_t4 -1 p_r1_g161_h157_t4 -1 p_r1_g164_h160_t4 -1 p_r2_g1_h164_t4 -1 p_r2_g2_h165_t4 -1 p_r2_g64_h60_t4 -1 p_r2_g66_h62_t4 -1 p_r2_g77_h73_t4 -1 p_r2_g86_h82_t4 -1 p_r2_g95_h91_t4 -1 p_r2_g146_h142_t4 -1 p_r2_g159_h155_t4 -1 p_r2_g162_h158_t4 -1 p_r2_g163_h159_t4 -1 p_r3_g7_h3_t4 -1 p_r3_g11_h7_t4 -1 p_r3_g12_h8_t4 -1 p_r3_g15_h11_t4 -1 p_r3_g16_h12_t4 -1 p_r3_g19_h15_t4 -1 p_r3_g57_h53_t4 -1 p_r3_g76_h72_t4 -1 p_r3_g125_h121_t4 -1 p_r3_g128_h124_t4 -1 p_r3_g145_h141_t4 = -80 ;
1 d_4 -1 u_4 <= 0 ;
-1 d_4 -1 u_4 <= 0 ;
1 u_4 -1 M <= 0 ;
1 u_4 <= 1 ;
1 p_r0_g35_h28_t7 -1 x_r0_g35 <= 0 ;
1 p_r0_g35_h28_t7 -1 x_r0_g28 <= 0 ;
1 p_r0_g35_h28_t7 -1 x_r0_g35 -1 x_r0_g28 >= -1 ;
1 p_r0_g54_h47_t7 -1 x_r0_g54 <= 0 ;
1 p_r0_g54_h47_t7 -1 x_r0_g47 <= 0 ;
1 p_r0_g54_h47_t7 -1 x_r0_g54 -1 x_r0_g47 >= -1 ;
1 p_r0_g67_h60_t7 -1 x_r0_g67 <= 0 ;
1 p_r0_g67_h60_t7 -1 x_r0_g60 <= 0 ;
1 p_r0_g67_h60_t7 -1 x_r0_g67 -1 x_r0_g60 >= -1 ;
1 p_r0_g69_h62_t7 -1 x_r0_g69 <= 0 ;
1 p_r0_g69_h62_t7 -1 x_r0_g62 <= 0 ;
1 p_r0_g69_h62_t7 -1 x_r0_g69 -1 x_r0_g62 >= -1 ;
1 p_r0_g88_h81_t7 -1 x_r0_g88 <= 0 ;
1 p_r0_g88_h81_t7 -1 x_r0_g81 <= 0 ;
1 p_r0_g88_h81_t7 -1 x_r0_g88 -1 x_r0_g81 >= -1 ;
1 p_r0_g130_h123_t7 -1 x_r0_g130 <= 0 ;
1 p_r0_g130_h123_t7 -1 x_r0_g123 <= 0 ;
1 p_r0_g130_h123_t7 -1 x_r0_g130 -1 x_r0_g123 >= -1 ;
1 p_r0_g153_h146_t7 -1 x_r0_g153 <= 0 ;
1 p_r0_g153_h146_t7 -1 x_r0_g146 <= 0 ;
1 p_r0_g153_h146_t7 -1 x_r0_g153 -1 x_r0_g146 >= -1 ;
1 p_r1_g15_h8_t7 -1 x_r1_g15 <= 0 ;
1 p_r1_g15_h8_t7 -1 x_r1_g8 <= 0 ;
1 p_r1_g15_h8_t7 -1 x_r1_g15 -1 x_r1_g8 >= -1 ;
1 p_r1_g38_h31_t7 -1 x_r1_g38 <= 0 ;
1 p_r1_g38_h31_t7 -1 x_r1_g31 <= 0 ;
1 p_r1_g38_h31_t7 -1 x_r1_g38 -1 x_r1_g31 >= -1 ;
1 p_r1_g93_h86_t7 -1 x_r1_g93 <= 0 ;
1 p_r1_g93_h86_t7 -1 x_r1_g86 <= 0 ;
1 p_r1_g93_h86_t7 -1 x_r1_g93 -1 x_r1_g86 >= -1 ;
1 p_r1_g117_h110_t7 -1 x_r1_g117 <= 0 ;
1 p_r1_g117_h110_t7 -1 x_r1_g110 <= 0 ;
1 p_r1_g117_h110_t7 -1 x_r1_g117 -1 x_r1_g110 >= -1 ;
1 p_r1_g121_h114_t7 -1 x_r1_g121 <= 0 ;
1 p_r1_g121_h114_t7 -1 x_r1_g114 <= 0 ;
1 p_r1_g121_h114_t7 -1 x_r1_g121 -1 x_r1_g114 >= -1 ;
1 p_r1_g128_h121_t7 -1 x_r1_g128 <= 0 ;
1 p_r1_g128_h121_t7 -1 x_r1_g121 <= 0 ;
1 p_r1_g128_h121_t7 -1 x_r1_g128 -1 x_r1_g121 >= -1 ;
1 p_r1_g135_h128_t7 -1 x_r1_g135 <= 0 ;
1 p_r1_g135_h128_t7 -1 x_r1_g128 <= 0 ;
1 p_r1_g135_h128_t7 -1 x_r1_g135 -1 x_r1_g128 >= -1 ;
1 p_r1_g164_h157_t7 -1 x_r1_g164 <= 0 ;
1 p_r1_g164_h157_t7 -1 x_r1_g157 <= 0 ;
1 p_r1_g164_h157_t7 -1 x_r1_g164 -1 x_r1_g157 >= -1 ;
1 p_r2_g2_h162_t7 -1 x_r2_g2 <= 0 ;
1 p_r2_g2_h162_t7 -1 x_r2_g162 <= 0 ;
1 p_r2_g2_h162_t7 -1 x_r2_g2 -1 x_r2_g162 >= -1 ;
1 p_r2_g67_h60_t7 -1 x_r2_g67 <= 0 ;
1 p_r2_g67_h60_t7 -1 x_r2_g60 <= 0 ;
1 p_r2_g67_h60_t7 -1 x_r2_g67 -1 x_r2_g60 >= -1 ;
1 p_r2_g73_h66_t7 -1 x_r2_g73 <= 0 ;
1 p_r2_g73_h66_t7 -1 x_r2_g66 <= 0 ;
1 p_r2_g73_h66_t7 -1 x_r2_g73 -1 x_r2_g66 >= -1 ;
1 p_r2_g74_h67_t7 -1 x_r2_g74 <= 0 ;
1 p_r2_g74_h67_t7 -1 x_r2_g67 <= 0 ;
1 p_r2_g74_h67_t7 -1 x_r2_g74 -1 x_r2_g67 >= -1 ;
1 p_r2_g80_h73_t7 -1 x_r2_g80 <= 0 ;
1 p_r2_g80_h73_t7 -1 x_r2_g73 <= 0 ;
1 p_r2_g80_h73_t7 -1 x_r2_g80 -1 x_r2_g73 >= -1 ;
1 p_r2_g107_h100_t7 -1 x_r2_g107 <= 0 ;
1 p_r2_g107_h100_t7 -1 x_r2_g100 <= 0 ;
1 p_r2_g107_h100_t7 -1 x_r2_g107 -1 x_r2_g100 >= -1 ;
1 p_r2_g146_h139_t7 -1 x_r2_g146 <= 0 ;
1 p_r2_g146_h139_t7 -1 x_r2_g139 <= 0 ;
1 p_r2_g146_h139_t7 -1 x_r2_g146 -1 x_r2_g139 >= -1 ;
1 p_r2_g149_h142_t7 -1 x_r2_g149 <= 0 ;
1 p_r2_g149_h142_t7 -1 x_r2_g142 <= 0 ;
1 p_r2_g149_h142_t7 -1 x_r2_g149 -1 x_r2_g142 >= -1 ;
1 p_r2_g159_h152_t7 -1 x_r2_g159 <= 0 ;
1 p_r2_g159_h152_t7 -1 x_r2_g152 <= 0 ;
1 p_r2_g159_h152_t7 -1 x_r2_g159 -1 x_r2_g152 >= -1 ;
1 p_r2_g162_h155_t7 -1 x_r2_g162 <= 0 ;
1 p_r2_g162_h155_t7 -1 x_r2_g155 <= 0 ;
1 p_r2_g162_h155_t7 -1 x_r2_g162 -1 x_r2_g155 >= -1 ;
1 p_r2_g165_h158_t7 -1 x_r2_g165 <= 0 ;
1 p_r2_g165_h158_t7 -1 x_r2_g158 <= 0 ;
1 p_r2_g165_h158_t7 -1 x_r2_g165 -1 x_r2_g158 >= -1 ;
1 p_r3_g15_h8_t7 -1 x_r3_g15 <= 0 ;
1 p_r3_g15_h8_t7 -1 x_r3_g8 <= 0 ;
1 p_r3_g15_h8_t7 -1 x_r3_g15 -1 x_r3_g8 >= -1 ;
1 p_r3_g19_h12_t7 -1 x_r3_g19 <= 0 ;
1 p_r3_g19_h12_t7 -1 x_r3_g12 <= 0 ;
1 p_r3_g19_h12_t7 -1 x_r3_g19 -1 x_r3_g12 >= -1 ;
1 p_r3_g34_h27_t7 -1 x_r3_g34 <= 0 ;
1 p_r3_g34_h27_t7 -1 x_r3_g27 <= 0 ;
1 p_r3_g34_h27_t7 -1 x_r3_g34 -1 x_r3_g27 >= -1 ;
1 p_r3_g72_h65_t7 -1 x_r3_g72 <= 0 ;
1 p_r3_g72_h65_t7 -1 x_r3_g65 <= 0 ;
1 p_r3_g72_h65_t7 -1 x_r3_g72 -1 x_r3_g65 >= -1 ;
1 p_r3_g112_h105_t7 -1 x_r3_g112 <= 0 ;
1 p_r3_g112_h105_t7 -1 x_r3_g105 <= 0 ;
1 p_r3_g112_h105_t7 -1 x_r3_g112 -1 x_r3_g105 >= -1 ;
1 p_r3_g128_h121_t7 -1 x_r3_g128 <= 0 ;
1 p_r3_g128_h121_t7 -1 x_r3_g121 <= 0 ;
1 p_r3_g128_h121_t7 -1 x_r3_g128 -1 x_r3_g121 >= -1 ;
1 p_r3_g145_h138_t7 -1 x_r3_g145 <= 0 ;
1 p_r3_g145_h138_t7 -1 x_r3_g138 <= 0 ;
1 p_r3_g145_h138_t7 -1 x_r3_g145 -1 x_r3_g138 >= -1 ;
1 d_7 -1 x_r0_g4 -1 x_r0_g7 -1 x_r0_g20 -1 x_r0_g22 -1 x_r0_g26 -1 x_r0_g35 -1 x_r0_g37 -1 x_r0_g47 -1 x_r0_g48 -1 x_r0_g62 -1 x_r0_g67 -2 x_r0_g70 -1 x_r0_g81 -1 x_r0_g84 -1 x_r0_g93 -1 x_r0_g97 -1 x_r0_g118 -1 x_r0_g123 -1 x_r0_g126 -1 x_r0_g130 -2 x_r0_g132 -2 x_r0_g144 -1 x_r0_g146 -1 x_r0_g153 -1 x_r0_g162 -1 x_r1_g8 -1 x_r1_g11 -1 x_r1_g13 -1 x_r1_g17 -2 x_r1_g25 -1 x_r1_g44 -1 x_r1_g56 -1 x_r1_g59 -1 x_r1_g62 -1 x_r1_g64 -2 x_r1_g75 -1 x_r1_g76 -1 x_r1_g80 -1 x_r1_g86 -1 x_r1_g93 -2 x_r1_g96 -1 x_r1_g108 -1 x_r1_g110 -1 x_r1_g114 -1 x_r1_g117 -2 x_r1_g123 -1 x_r1_g126 -2 x_r1_g161 -1 x_r2_g1 -1 x_r2_g18 -1 x_r2_g48 -1 x_r2_g77 -1 x_r2_g80 -1 x_r2_g82 -1 x_r2_g86 -1 x_r2_g91 -2 x_r2_g94 -1 x_r2_g95 -1 x_r2_g100 -1 x_r2_g107 -1 x_r2_g120 -2 x_r2_g128 -1 x_r2_g130 -1 x_r2_g136 -1 x_r2_g139 -2 x_r2_g141 -1 x_r2_g142 -1 x_r2_g146 -1 x_r2_g155 -1 x_r2_g158 -2 x_r2_g164 -1 x_r3_g3 -1 x_r3_g8 -2 x_r3_g11 -1 x_r3_g12 -2 x_r3_g13 -1 x_r3_g15 -1 x_r3_g16 -1 x_r3_g19 -1 x_r3_g24 -2 x_r3_g25 -1 x_r3_g27 -2 x_r3_g33 -1 x_r3_g34 -1 x_r3_g36 -1 x_r3_g53 -1 x_r3_g76 -1 x_r3_g81 -1 x_r3_g103 -1 x_r3_g105 -1 x_r3_g111 -1 x_r3_g112 -1 x_r3_g113 -2 x_r3_g125 -2 x_r3_g141 -2 x_r3_g144 -2 x_r3_g147 -2 x_r3_g156 -1 x_r3_g165 -1 p_r0_g35_h28_t7 -1 p_r0_g54_h47_t7 -1 p_r0_g67_h60_t7 -1 p_r0_g69_h62_t7 -1 p_r0_g88_h81_t7 -1 p_r0_g130_h123_t7 -1 p_r0_g153_h146_t7 -1 p_r1_g15_h8_t7 -1 p_r1_g38_h31_t7 -1 p_r1_g93_h86_t7 -1 p_r1_g117_h110_t7 -1 p_r1_g121_h114_t7 -1 p_r1_g128_h121_t7 -1 p_r1_g135_h128_t7 -1 p_r1_g164_h157_t7 -1 p_r2_g2_h162_t7 -1 p_r2_g67_h60_t7 -1 p_r2_g73_h66_t7 -1 p_r2_g74_h67_t7 -1 p_r2_g80_h73_t7 -1 p_r2_g107_h100_t7 -1 p_r2_g146_h139_t7 -1 p_r2_g149_h142_t7 -1 p_r2_g159_h152_t7 -1 p_r2_g162_h155_t7 -1 p_r2_g165_h158_t7 -1 p_r3_g15_h8_t7 -1 p_r3_g19_h12_t7 -1 p_r3_g34_h27_t7 -1 p_r3_g72_h65_t7 -1 p_r3_g112_h105_t7 -1 p_r3_g128_h121_t7 -1 p_r3_g145_h138_t7 = -62 ;
1 d_7 -1 u_7 <= 0 ;
-1 d_7 -1 u_7 <= 0 ;
1 u_7 -1 M <= 0 ;
1 u_7 <= 1 ;
1 p_r0_g17_h4_t13 -1 x_r0_g17 <= 0 ;
1 p_r0_g17_h4_t13 -1 x_r0_g4 <= 0 ;
1 p_r0_g17_h4_t13 -1 x_r0_g17 -1 x_r0_g4 >= -1 ;
1 p_r0_g20_h7_t13 -1 x_r0_g20 <= 0 ;
1 p_r0_g20_h7_t13 -1 x_r0_g7 <= 0 ;
1 p_r0_g20_h7_t13 -1 x_r0_g20 -1 x_r0_g7 >= -1 ;
1 p_r0_g22_h9_t13 -1 x_r0_g22 <= 0 ;
1 p_r0_g22_h9_t13 -1 x_r0_g9 <= 0 ;
1 p_r0_g22_h9_t13 -1 x_r0_g22 -1 x_r0_g9 >= -1 ;
1 p_r0_g35_h22_t13 -1 x_r0_g35 <= 0 ;
1 p_r0_g35_h22_t13 -1 x_r0_g22 <= 0 ;
1 p_r0_g35_h22_t13 -1 x_r0_g35 -1 x_r0_g22 >= -1 ;
1 p_r0_g47_h34_t13 -1 x_r0_g47 <= 0 ;
1 p_r0_g47_h34_t13 -1 x_r0_g34 <= 0 ;
1 p_r0_g47_h34_t13 -1 x_r0_g47 -1 x_r0_g34 >= -1 ;
1 p_r0_g48_h35_t13 -1 x_r0_g48 <= 0 ;
1 p_r0_g48_h35_t13 -1 x_r0_g35 <= 0 ;
1 p_r0_g48_h35_t13 -1 x_r0_g48 -1 x_r0_g35 >= -1 ;
1 p_r0_g60_h47_t13 -1 x_r0_g60 <= 0 ;
1 p_r0_g60_h47_t13 -1 x_r0_g47 <= 0 ;
1 p_r0_g60_h47_t13 -1 x_r0_g60 -1 x_r0_g47 >= -1 ;
1 p_r0_g67_h54_t13 -1 x_r0_g67 <= 0 ;
1 p_r0_g67_h54_t13 -1 x_r0_g54 <= 0 ;
1 p_r0_g67_h54_t13 -1 x_r0_g67 -1 x_r0_g54 >= -1 ;
1 p_r0_g81_h68_t13 -1 x_r0_g81 <= 0 ;
1 p_r0_g81_h68_t13 -1 x_r0_g68 <= 0 ;
1 p_r0_g81_h68_t13 -1 x_r0_g81 -1 x_r0_g68 >= -1 ;
1 p_r0_g97_h84_t13 -1 x_r0_g97 <= 0 ;
1 p_r0_g97_h84_t13 -1 x_r0_g84 <= 0 ;
1 p_r0_g97_h84_t13 -1 x_r0_g97 -1 x_r0_g84 >= -1 ;
1 p_r0_g101_h88_t13 -1 x_r0_g101 <= 0 ;
1 p_r0_g101_h88_t13 -1 x_r0_g88 <= 0 ;
1 p_r0_g101_h88_t13 -1 x_r0_g101 -1 x_r0_g88 >= -1 ;
1 p_r0_g131_h118_t13 -1 x_r0_g131 <= 0 ;
1 p_r0_g131_h118_t13 -1 x_r0_g118 <= 0 ;
1 p_r0_g131_h118_t13 -1 x_r0_g131 -1 x_r0_g118 >= -1 ;
1 p_r0_g144_h131_t13 -1 x_r0_g144 <= 0 ;
1 p_r0_g144_h131_t13 -1 x_r0_g131 <= 0 ;
1 p_r0_g144_h131_t13 -1 x_r0_g144 -1 x_r0_g131 >= -1 ;
1 p_r1_g26_h13_t13 -1 x_r1_g26 <= 0 ;
1 p_r1_g26_h13_t13 -1 x_r1_g13 <= 0 ;
1 p_r1_g26_h13_t13 -1 x_r1_g26 -1 x_r1_g13 >= -1 ;
1 p_r1_g38_h25_t13 -1 x_r1_g38 <= 0 ;
1 p_r1_g38_h25_t13 -1 x_r1_g25 <= 0 ;
1 p_r1_g38_h25_t13 -1 x_r1_g38 -1 x_r1_g25 >= -1 ;
1 p_r1_g44_h31_t13 -1 x_r1_g44 <= 0 ;
1 p_r1_g44_h31_t13 -1 x_r1_g31 <= 0 ;
1 p_r1_g44_h31_t13 -1 x_r1_g44 -1 x_r1_g31 >= -1 ;
1 p_r1_g75_h62_t13 -1 x_r1_g75 <= 0 ;
1 p_r1_g75_h62_t13 -1 x_r1_g62 <= 0 ;
1 p_r1_g75_h62_t13 -1 x_r1_g75 -1 x_r1_g62 >= -1 ;
1 p_r1_g80_h67_t13 -1 x_r1_g80 <= 0 ;
1 p_r1_g80_h67_t13 -1 x_r1_g67 <= 0 ;
1 p_r1_g80_h67_t13 -1 x_r1_g80 -1 x_r1_g67 >= -1 ;
1 p_r1_g93_h80_t13 -1 x_r1_g93 <= 0 ;
1 p_r1_g93_h80_t13 -1 x_r1_g80 <= 0 ;
1 p_r1_g93_h80_t13 -1 x_r1_g93 -1 x_r1_g80 >= -1 ;
1 p_r1_g121_h108_t13 -1 x_r1_g121 <= 0 ;
1 p_r1_g121_h108_t13 -1 x_r1_g108 <= 0 ;
1 p_r1_g121_h108_t13 -1 x_r1_g121 -1 x_r1_g108 >= -1 ;
1 p_r1_g123_h110_t13 -1 x_r1_g123 <= 0 ;
1 p_r1_g123_h110_t13 -1 x_r1_g110 <= 0 ;
1 p_r1_g123_h110_t13 -1 x_r1_g123 -1 x_r1_g110 >= -1 ;
1 p_r1_g126_h113_t13 -1 x_r1_g126 <= 0 ;
1 p_r1_g126_h113_t13 -1 x_r1_g113 <= 0 ;
1 p_r1_g126_h113_t13 -1 x_r1_g126 -1 x_r1_g113 >= -1 ;
1 p_r2_g1_h155_t13 -1 x_r2_g1 <= 0 ;
1 p_r2_g1_h155_t13 -1 x_r2_g155 <= 0 ;
1 p_r2_g1_h155_t13 -1 x_r2_g1 -1 x_r2_g155 >= -1 ;
1 p_r2_g73_h60_t13 -1 x_r2_g73 <= 0 ;
1 p_r2_g73_h60_t13 -1 x_r2_g60 <= 0 ;
1 p_r2_g73_h60_t13 -1 x_r2_g73 -1 x_r2_g60 >= -1 ;
1 p_r2_g77_h64_t13 -1 x_r2_g77 <= 0 ;
1 p_r2_g77_h64_t13 -1 x_r2_g64 <= 0 ;
1 p_r2_g77_h64_t13 -1 x_r2_g77 -1 x_r2_g64 >= -1 ;
1 p_r2_g80_h67_t13 -1 x_r2_g80 <= 0 ;
1 p_r2_g80_h67_t13 -1 x_r2_g67 <= 0 ;
1 p_r2_g80_h67_t13 -1 x_r2_g80 -1 x_r2_g67 >= -1 ;
1 p_r2_g86_h73_t13 -1 x_r2_g86 <= 0 ;
1 p_r2_g86_h73_t13 -1 x_r2_g73 <= 0 ;
1 p_r2_g86_h73_t13 -1 x_r2_g86 -1 x_r2_g73 >= -1 ;
1 p_r2_g95_h82_t13 -1 x_r2_g95 <= 0 ;
1 p_r2_g95_h82_t13 -1 x_r2_g82 <= 0 ;
1 p_r2_g95_h82_t13 -1 x_r2_g95 -1 x_r2_g82 >= -1 ;
1 p_r2_g107_h94_t13 -1 x_r2_g107 <= 0 ;
1 p_r2_g107_h94_t13 -1 x_r2_g94 <= 0 ;
1 p_r2_g107_h94_t13 -1 x_r2_g107 -1 x_r2_g94 >= -1 ;
1 p_r2_g120_h107_t13 -1 x_r2_g120 <= 0 ;
1 p_r2_g120_h107_t13 -1 x_r2_g107 <= 0 ;
1 p_r2_g120_h107_t13 -1 x_r2_g120 -1 x_r2_g107 >= -1 ;
1 p_r2_g141_h128_t13 -1 x_r2_g141 <= 0 ;
1 p_r2_g141_h128_t13 -1 x_r2_g128 <= 0 ;
1 p_r2_g141_h128_t13 -1 x_r2_g141 -1 x_r2_g128 >= -1 ;
1 p_r2_g149_h136_t13 -1 x_r2_g149 <= 0 ;
1 p_r2_g149_h136_t13 -1 x_r2_g136 <= 0 ;
1 p_r2_g149_h136_t13 -1 x_r2_g149 -1 x_r2_g136 >= -1 ;
1 p_r2_g152_h139_t13 -1 x_r2_g152 <= 0 ;
1 p_r2_g152_h139_t13 -1 x_r2_g139 <= 0 ;
1 p_r2_g152_h139_t13 -1 x_r2_g152 -1 x_r2_g139 >= -1 ;
1 p_r2_g155_h142_t13 -1 x_r2_g155 <= 0 ;
1 p_r2_g155_h142_t13 -1 x_r2_g142 <= 0 ;
1 p_r2_g155_h142_t13 -1 x_r2_g155 -1 x_r2_g142 >= -1 ;
1 p_r2_g159_h146_t13 -1 x_r2_g159 <= 0 ;
1 p_r2_g159_h146_t13 -1 x_r2_g146 <= 0 ;
1 p_r2_g159_h146_t13 -1 x_r2_g159 -1 x_r2_g146 >= -1 ;
1 p_r2_g162_h149_t13 -1 x_r2_g162 <= 0 ;
1 p_r2_g162_h149_t13 -1 x_r2_g149 <= 0 ;
1 p_r2_g162_h149_t13 -1 x_r2_g162 -1 x_r2_g149 >= -1 ;
1 p_r2_g165_h152_t13 -1 x_r2_g165 <= 0 ;
1 p_r2_g165_h152_t13 -1 x_r2_g152 <= 0 ;
1 p_r2_g165_h152_t13 -1 x_r2_g165 -1 x_r2_g152 >= -1 ;
1 p_r3_g11_h165_t13 -1 x_r3_g11 <= 0 ;
1 p_r3_g11_h165_t13 -1 x_r3_g165 <= 0 ;
1 p_r3_g11_h165_t13 -1 x_r3_g11 -1 x_r3_g165 >= -1 ;
1 p_r3_g16_h3_t13 -1 x_r3_g16 <= 0 ;
1 p_r3_g16_h3_t13 -1 x_r3_g3 <= 0 ;
1 p_r3_g16_h3_t13 -1 x_r3_g16 -1 x_r3_g3 >= -1 ;
1 p_r3_g24_h11_t13 -1 x_r3_g24 <= 0 ;
1 p_r3_g24_h11_t13 -1 x_r3_g11 <= 0 ;
1 p_r3_g24_h11_t13 -1 x_r3_g24 -1 x_r3_g11 >= -1 ;
1 p_r3_g25_h12_t13 -1 x_r3_g25 <= 0 ;
1 p_r3_g25_h12_t13 -1 x_r3_g12 <= 0 ;
1 p_r3_g25_h12_t13 -1 x_r3_g25 -1 x_r3_g12 >= -1 ;
1 p_r3_g94_h81_t13 -1 x_r3_g94 <= 0 ;
1 p_r3_g94_h81_t13 -1 x_r3_g81 <= 0 ;
1 p_r3_g94_h81_t13 -1 x_r3_g94 -1 x_r3_g81 >= -1 ;
1 p_r3_g124_h111_t13 -1 x_r3_g124 <= 0 ;
1 p_r3_g124_h111_t13 -1 x_r3_g111 <= 0 ;
1 p_r3_g124_h111_t13 -1 x_r3_g124 -1 x_r3_g111 >= -1 ;
1 p_r3_g125_h112_t13 -1 x_r3_g125 <= 0 ;
1 p_r3_g125_h112_t13 -1 x_r3_g112 <= 0 ;
1 p_r3_g125_h112_t13 -1 x_r3_g125 -1 x_r3_g112 >= -1 ;
1 p_r3_g138_h125_t13 -1 x_r3_g138 <= 0 ;
1 p_r3_g138_h125_t13 -1 x_r3_g125 <= 0 ;
1 p_r3_g138_h125_t13 -1 x_r3_g138 -1 x_r3_g125 >= -1 ;
1 p_r3_g141_h128_t13 -1 x_r3_g141 <= 0 ;
1 p_r3_g141_h128_t13 -1 x_r3_g128 <= 0 ;
1 p_r3_g141_h128_t13 -1 x_r3_g141 -1 x_r3_g128 >= -1 ;
1 d_13 -2 x_r0_g1 -1 x_r0_g4 -1 x_r0_g9 -1 x_r0_g17 -1 x_r0_g26 -1 x_r0_g28 -1 x_r0_g46 -1 x_r0_g62 -1 x_r0_g68 -2 x_r0_g87 -1 x_r0_g93 -1 x_r0_g123 -2 x_r0_g126 -1 x_r0_g130 -1 x_r0_g132 -1 x_r0_g144 -1 x_r0_g146 -1 x_r0_g162 -1 x_r1_g26 -1 x_r1_g31 -1 x_r1_g44 -1 x_r1_g56 -1 x_r1_g59 -1 x_r1_g62 -1 x_r1_g75 -1 x_r1_g76 -1 x_r1_g96 -1 x_r1_g108 -2 x_r1_g111 -1 x_r1_g113 -1 x_r1_g114 -1 x_r1_g117 -2 x_r1_g128 -2 x_r1_g143 -1 x_r1_g146 -1 x_r1_g155 -1 x_r1_g157 -1 x_r1_g164 -1 x_r2_g1 -1 x_r2_g18 -1 x_r2_g30 -1 x_r2_g48 -2 x_r2_g62 -2 x_r2_g74 -1 x_r2_g77 -1 x_r2_g80 -2 x_r2_g91 -2 x_r2_g100 -1 x_r2_g128 -1 x_r2_g139 -1 x_r2_g142 -1 x_r2_g158 -1 x_r2_g163 -1 x_r2_g164 -1 x_r3_g7 -1 x_r3_g8 -1 x_r3_g12 -1 x_r3_g13 -2 x_r3_g15 -2 x_r3_g19 -1 x_r3_g24 -1 x_r3_g25 -1 x_r3_g27 -2 x_r3_g33 -1 x_r3_g34 -1 x_r3_g36 -2 x_r3_g53 -1 x_r3_g65 -1 x_r3_g72 -1 x_r3_g76 -1 x_r3_g81 -1 x_r3_g86 -1 x_r3_g105 -1 x_r3_g111 -1 x_r3_g112 -2 x_r3_g121 -1 x_r3_g123 -1 x_r3_g124 -1 x_r3_g138 -1 x_r3_g141 -1 x_r3_g145 -2 x_r3_g147 -2 x_r3_g156 -1 p_r0_g17_h4_t13 -1 p_r0_g20_h7_t13 -1 p_r0_g22_h9_t13 -1 p_r0_g35_h22_t13 -1 p_r0_g47_h34_t13 -1 p_r0_g48_h35_t13 -1 p_r0_g60_h47_t13 -1 p_r0_g67_h54_t13 -1 p_r0_g81_h68_t13 -1 p_r0_g97_h84_t13 -1 p_r0_g101_h88_t13 -1 p_r0_g131_h118_t13 -1 p_r0_g144_h131_t13 -1 p_r1_g26_h13_t13 -1 p_r1_g38_h25_t13 -1 p_r1_g44_h31_t13 -1 p_r1_g75_h62_t13 -1 p_r1_g80_h67_t13 -1 p_r1_g93_h80_t13 -1 p_r1_g121_h108_t13 -1 p_r1_g123_h110_t13 -1 p_r1_g126_h113_t13 -1 p_r2_g1_h155_t13 -1 p_r2_g73_h60_t13 -1 p_r2_g77_h64_t13 -1 p_r2_g80_h67_t13 -1 p_r2_g86_h73_t13 -1 p_r2_g95_h82_t13 -1 p_r2_g107_h94_t13 -1 p_r2_g120_h107_t13 -1 p_r2_g141_h128_t13 -1 p_r2_g149_h136_t13 -1 p_r2_g152_h139_t13 -1 p_r2_g155_h142_t13 -1 p_r2_g159_h146_t13 -1 p_r2_g162_h149_t13 -1 p_r2_g165_h152_t13 -1 p_r3_g11_h165_t13 -1 p_r3_g16_h3_t13 -1 p_r3_g24_h11_t13 -1 p_r3_g25_h12_t13 -1 p_r3_g94_h81_t13 -1 p_r3_g124_h111_t13 -1 p_r3_g125_h112_t13 -1 p_r3_g138_h125_t13 -1 p_r3_g141_h128_t13 = -59 ;
1 d_13 -1 u_13 <= 0 ;
-1 d_13 -1 u_13 <= 0 ;
1 u_13 -1 M <= 0 ;
1 u_13 <= 0 ;
1 p_r0_g4_h153_t18 -1 x_r0_g4 <= 0 ;
1 p_r0_g4_h153_t18 -1 x_r0_g153 <= 0 ;
1 p_r0_g4_h153_t18 -1 x_r0_g4 -1 x_r0_g153 >= -1 ;
1 p_r0_g22_h4_t18 -1 x_r0_g22 <= 0 ;
1 p_r0_g22_h4_t18 -1 x_r0_g4 <= 0 ;
1 p_r0_g22_h4_t18 -1 x_r0_g22 -1 x_r0_g4 >= -1 ;
1 p_r0_g35_h17_t18 -1 x_r0_g35 <= 0 ;
1 p_r0_g35_h17_t18 -1 x_r0_g17 <= 0 ;
1 p_r0_g35_h17_t18 -1 x_r0_g35 -1 x_r0_g17 >= -1 ;
1 p_r0_g46_h28_t18 -1 x_r0_g46 <= 0 ;
1 p_r0_g46_h28_t18 -1 x_r0_g28 <= 0 ;
1 p_r0_g46_h28_t18 -1 x_r0_g46 -1 x_r0_g28 >= -1 ;
1 p_r0_g87_h69_t18 -1 x_r0_g87 <= 0 ;
1 p_r0_g87_h69_t18 -1 x_r0_g69 <= 0 ;
1 p_r0_g87_h69_t18 -1 x_r0_g87 -1 x_r0_g69 >= -1 ;
1 p_r0_g88_h70_t18 -1 x_r0_g88 <= 0 ;
1 p_r0_g88_h70_t18 -1 x_r0_g70 <= 0 ;
1 p_r0_g88_h70_t18 -1 x_r0_g88 -1 x_r0_g70 >= -1 ;
1 p_r0_g97_h79_t18 -1 x_r0_g97 <= 0 ;
1 p_r0_g97_h79_t18 -1 x_r0_g79 <= 0 ;
1 p_r0_g97_h79_t18 -1 x_r0_g97 -1 x_r0_g79 >= -1 ;
1 p_r0_g144_h126_t18 -1 x_r0_g144 <= 0 ;
1 p_r0_g144_h126_t18 -1 x_r0_g126 <= 0 ;
1 p_r0_g144_h126_t18 -1 x_r0_g144 -1 x_r0_g126 >= -1 ;
1 p_r0_g162_h144_t18 -1 x_r0_g162 <= 0 ;
1 p_r0_g162_h144_t18 -1 x_r0_g144 <= 0 ;
1 p_r0_g162_h144_t18 -1 x_r0_g162 -1 x_r0_g144 >= -1 ;
1 p_r1_g8_h157_t18 -1 x_r1_g8 <= 0 ;
1 p_r1_g8_h157_t18 -1 x_r1_g157 <= 0 ;
1 p_r1_g8_h157_t18 -1 x_r1_g8 -1 x_r1_g157 >= -1 ;
1 p_r1_g11_h160_t18 -1 x_r1_g11 <= 0 ;
1 p_r1_g11_h160_t18 -1 x_r1_g160 <= 0 ;
1 p_r1_g11_h160_t18 -1 x_r1_g11 -1 x_r1_g160 >= -1 ;
1 p_r1_g15_h164_t18 -1 x_r1_g15 <= 0 ;
1 p_r1_g15_h164_t18 -1 x_r1_g164 <= 0 ;
1 p_r1_g15_h164_t18 -1 x_r1_g15 -1 x_r1_g164 >= -1 ;
1 p_r1_g26_h8_t18 -1 x_r1_g26 <= 0 ;
1 p_r1_g26_h8_t18 -1 x_r1_g8 <= 0 ;
1 p_r1_g26_h8_t18 -1 x_r1_g26 -1 x_r1_g8 >= -1 ;
1 p_r1_g31_h13_t18 -1 x_r1_g31 <= 0 ;
1 p_r1_g31_h13_t18 -1 x_r1_g13 <= 0 ;
1 p_r1_g31_h13_t18 -1 x_r1_g31 -1 x_r1_g13 >= -1 ;
1 p_r1_g44_h26_t18 -1 x_r1_g44 <= 0 ;
1 p_r1_g44_h26_t18 -1 x_r1_g26 <= 0 ;
1 p_r1_g44_h26_t18 -1 x_r1_g44 -1 x_r1_g26 >= -1 ;
1 p_r1_g56_h38_t18 -1 x_r1_g56 <= 0 ;
1 p_r1_g56_h38_t18 -1 x_r1_g38 <= 0 ;
1 p_r1_g56_h38_t18 -1 x_r1_g56 -1 x_r1_g38 >= -1 ;
1 p_r1_g59_h41_t18 -1 x_r1_g59 <= 0 ;
1 p_r1_g59_h41_t18 -1 x_r1_g41 <= 0 ;
1 p_r1_g59_h41_t18 -1 x_r1_g59 -1 x_r1_g41 >= -1 ;
1 p_r1_g62_h44_t18 -1 x_r1_g62 <= 0 ;
1 p_r1_g62_h44_t18 -1 x_r1_g44 <= 0 ;
1 p_r1_g62_h44_t18 -1 x_r1_g62 -1 x_r1_g44 >= -1 ;
1 p_r1_g80_h62_t18 -1 x_r1_g80 <= 0 ;
1 p_r1_g80_h62_t18 -1 x_r1_g62 <= 0 ;
1 p_r1_g80_h62_t18 -1 x_r1_g80 -1 x_r1_g62 >= -1 ;
1 p_r1_g93_h75_t18 -1 x_r1_g93 <= 0 ;
1 p_r1_g93_h75_t18 -1 x_r1_g75 <= 0 ;
1 p_r1_g93_h75_t18 -1 x_r1_g93 -1 x_r1_g75 >= -1 ;
1 p_r1_g111_h93_t18 -1 x_r1_g111 <= 0 ;
1 p_r1_g111_h93_t18 -1 x_r1_g93 <= 0 ;
1 p_r1_g111_h93_t18 -1 x_r1_g111 -1 x_r1_g93 >= -1 ;
1 p_r1_g114_h96_t18 -1 x_r1_g114 <= 0 ;
1 p_r1_g114_h96_t18 -1 x_r1_g96 <= 0 ;
1 p_r1_g114_h96_t18 -1 x_r1_g114 -1 x_r1_g96 >= -1 ;
1 p_r1_g126_h108_t18 -1 x_r1_g126 <= 0 ;
1 p_r1_g126_h108_t18 -1 x_r1_g108 <= 0 ;
1 p_r1_g126_h108_t18 -1 x_r1_g126 -1 x_r1_g108 >= -1 ;
1 p_r1_g128_h110_t18 -1 x_r1_g128 <= 0 ;
1 p_r1_g128_h110_t18 -1 x_r1_g110 <= 0 ;
1 p_r1_g128_h110_t18 -1 x_r1_g128 -1 x_r1_g110 >= -1 ;
1 p_r1_g135_h117_t18 -1 x_r1_g135 <= 0 ;
1 p_r1_g135_h117_t18 -1 x_r1_g117 <= 0 ;
1 p_r1_g135_h117_t18 -1 x_r1_g135 -1 x_r1_g117 >= -1 ;
1 p_r1_g146_h128_t18 -1 x_r1_g146 <= 0 ;
1 p_r1_g146_h128_t18 -1 x_r1_g128 <= 0 ;
1 p_r1_g146_h128_t18 -1 x_r1_g146 -1 x_r1_g128 >= -1 ;
1 p_r1_g161_h143_t18 -1 x_r1_g161 <= 0 ;
1 p_r1_g161_h143_t18 -1 x_r1_g143 <= 0 ;
1 p_r1_g161_h143_t18 -1 x_r1_g161 -1 x_r1_g143 >= -1 ;
1 p_r1_g164_h146_t18 -1 x_r1_g164 <= 0 ;
1 p_r1_g164_h146_t18 -1 x_r1_g146 <= 0 ;
1 p_r1_g164_h146_t18 -1 x_r1_g164 -1 x_r1_g146 >= -1 ;
1 p_r2_g48_h30_t18 -1 x_r2_g48 <= 0 ;
1 p_r2_g48_h30_t18 -1 x_r2_g30 <= 0 ;
1 p_r2_g48_h30_t18 -1 x_r2_g48 -1 x_r2_g30 >= -1 ;
1 p_r2_g66_h48_t18 -1 x_r2_g66 <= 0 ;
1 p_r2_g66_h48_t18 -1 x_r2_g48 <= 0 ;
1 p_r2_g66_h48_t18 -1 x_r2_g66 -1 x_r2_g48 >= -1 ;
1 p_r2_g80_h62_t18 -1 x_r2_g80 <= 0 ;
1 p_r2_g80_h62_t18 -1 x_r2_g62 <= 0 ;
1 p_r2_g80_h62_t18 -1 x_r2_g80 -1 x_r2_g62 >= -1 ;
1 p_r2_g82_h64_t18 -1 x_r2_g82 <= 0 ;
1 p_r2_g82_h64_t18 -1 x_r2_g64 <= 0 ;
1 p_r2_g82_h64_t18 -1 x_r2_g82 -1 x_r2_g64 >= -1 ;
1 p_r2_g91_h73_t18 -1 x_r2_g91 <= 0 ;
1 p_r2_g91_h73_t18 -1 x_r2_g73 <= 0 ;
1 p_r2_g91_h73_t18 -1 x_r2_g91 -1 x_r2_g73 >= -1 ;
1 p_r2_g95_h77_t18 -1 x_r2_g95 <= 0 ;
1 p_r2_g95_h77_t18 -1 x_r2_g77 <= 0 ;
1 p_r2_g95_h77_t18 -1 x_r2_g95 -1 x_r2_g77 >= -1 ;
1 p_r2_g100_h82_t18 -1 x_r2_g100 <= 0 ;
1 p_r2_g100_h82_t18 -1 x_r2_g82 <= 0 ;
1 p_r2_g100_h82_t18 -1 x_r2_g100 -1 x_r2_g82 >= -1 ;
1 p_r2_g128_h110_t18 -1 x_r2_g128 <= 0 ;
1 p_r2_g128_h110_t18 -1 x_r2_g110 <= 0 ;
1 p_r2_g128_h110_t18 -1 x_r2_g128 -1 x_r2_g110 >= -1 ;
1 p_r2_g146_h128_t18 -1 x_r2_g146 <= 0 ;
1 p_r2_g146_h128_t18 -1 x_r2_g128 <= 0 ;
1 p_r2_g146_h128_t18 -1 x_r2_g146 -1 x_r2_g128 >= -1 ;
1 p_r2_g149_h131_t18 -1 x_r2_g149 <= 0 ;
1 p_r2_g149_h131_t18 -1 x_r2_g131 <= 0 ;
1 p_r2_g149_h131_t18 -1 x_r2_g149 -1 x_r2_g131 >= -1 ;
1 p_r2_g159_h141_t18 -1 x_r2_g159 <= 0 ;
1 p_r2_g159_h141_t18 -1 x_r2_g141 <= 0 ;
1 p_r2_g159_h141_t18 -1 x_r2_g159 -1 x_r2_g141 >= -1 ;
1 p_r2_g164_h146_t18 -1 x_r2_g164 <= 0 ;
1 p_r2_g164_h146_t18 -1 x_r2_g146 <= 0 ;
1 p_r2_g164_h146_t18 -1 x_r2_g164 -1 x_r2_g146 >= -1 ;
1 p_r3_g7_h156_t18 -1 x_r3_g7 <= 0 ;
1 p_r3_g7_h156_t18 -1 x_r3_g156 <= 0 ;
1 p_r3_g7_h156_t18 -1 x_r3_g7 -1 x_r3_g156 >= -1 ;
1 p_r3_g16_h165_t18 -1 x_r3_g16 <= 0 ;
1 p_r3_g16_h165_t18 -1 x_r3_g165 <= 0 ;
1 p_r3_g16_h165_t18 -1 x_r3_g16 -1 x_r3_g165 >= -1 ;
1 p_r3_g25_h7_t18 -1 x_r3_g25 <= 0 ;
1 p_r3_g25_h7_t18 -1 x_r3_g7 <= 0 ;
1 p_r3_g25_h7_t18 -1 x_r3_g25 -1 x_r3_g7 >= -1 ;
1 p_r3_g33_h15_t18 -1 x_r3_g33 <= 0 ;
1 p_r3_g33_h15_t18 -1 x_r3_g15 <= 0 ;
1 p_r3_g33_h15_t18 -1 x_r3_g33 -1 x_r3_g15 >= -1 ;
1 p_r3_g34_h16_t18 -1 x_r3_g34 <= 0 ;
1 p_r3_g34_h16_t18 -1 x_r3_g16 <= 0 ;
1 p_r3_g34_h16_t18 -1 x_r3_g34 -1 x_r3_g16 >= -1 ;
1 p_r3_g94_h76_t18 -1 x_r3_g94 <= 0 ;
1 p_r3_g94_h76_t18 -1 x_r3_g76 <= 0 ;
1 p_r3_g94_h76_t18 -1 x_r3_g94 -1 x_r3_g76 >= -1 ;
1 p_r3_g112_h94_t18 -1 x_r3_g112 <= 0 ;
1 p_r3_g112_h94_t18 -1 x_r3_g94 <= 0 ;
1 p_r3_g112_h94_t18 -1 x_r3_g112 -1 x_r3_g94 >= -1 ;
1 p_r3_g121_h103_t18 -1 x_r3_g121 <= 0 ;
1 p_r3_g121_h103_t18 -1 x_r3_g103 <= 0 ;
1 p_r3_g121_h103_t18 -1 x_r3_g121 -1 x_r3_g103 >= -1 ;
1 p_r3_g123_h105_t18 -1 x_r3_g123 <= 0 ;
1 p_r3_g123_h105_t18 -1 x_r3_g105 <= 0 ;
1 p_r3_g123_h105_t18 -1 x_r3_g123 -1 x_r3_g105 >= -1 ;
1 p_r3_g141_h123_t18 -1 x_r3_g141 <= 0 ;
1 p_r3_g141_h123_t18 -1 x_r3_g123 <= 0 ;
1 p_r3_g141_h123_t18 -1 x_r3_g141 -1 x_r3_g123 >= -1 ;
1 p_r3_g156_h138_t18 -1 x_r3_g156 <= 0 ;
1 p_r3_g156_h138_t18 -1 x_r3_g138 <= 0 ;
1 p_r3_g156_h138_t18 -1 x_r3_g156 -1 x_r3_g138 >= -1 ;
1 p_r3_g165_h147_t18 -1 x_r3_g165 <= 0 ;
1 p_r3_g165_h147_t18 -1 x_r3_g147 <= 0 ;
1 p_r3_g165_h147_t18 -1 x_r3_g165 -1 x_r3_g147 >= -1 ;
1 d_18 -1 x_r0_g1 -1 x_r0_g7 -1 x_r0_g9 -1 x_r0_g20 -1 x_r0_g22 -1 x_r0_g34 -2 x_r0_g37 -1 x_r0_g47 -1 x_r0_g48 -1 x_r0_g54 -1 x_r0_g60 -1 x_r0_g67 -1 x_r0_g69 -1 x_r0_g70 -1 x_r0_g81 -1 x_r0_g84 -1 x_r0_g88 -1 x_r0_g101 -2 x_r0_g118 -2 x_r0_g131 -1 x_r0_g162 -1 x_r1_g11 -1 x_r1_g17 -1 x_r1_g31 -1 x_r1_g38 -2 x_r1_g64 -1 x_r1_g67 -1 x_r1_g75 -1 x_r1_g80 -1 x_r1_g86 -1 x_r1_g96 -1 x_r1_g108 -1 x_r1_g113 -1 x_r1_g114 -1 x_r1_g121 -1 x_r1_g123 -1 x_r2_g1 -2 x_r2_g2 -1 x_r2_g18 -1 x_r2_g60 -1 x_r2_g64 -2 x_r2_g67 -1 x_r2_g74 -1 x_r2_g80 -2 x_r2_g86 -1 x_r2_g94 -1 x_r2_g95 -1 x_r2_g120 -2 x_r2_g130 -1 x_r2_g131 -2 x_r2_g139 -1 x_r2_g142 -1 x_r2_g149 -1 x_r2_g152 -1 x_r2_g155 -1 x_r2_g158 -1 x_r2_g163 -1 x_r3_g8 -1 x_r3_g11 -1 x_r3_g12 -1 x_r3_g13 -2 x_r3_g19 -1 x_r3_g24 -1 x_r3_g25 -2 x_r3_g27 -1 x_r3_g36 -2 x_r3_g57 -2 x_r3_g65 -1 x_r3_g81 -1 x_r3_g86 -1 x_r3_g111 -1 x_r3_g121 -2 x_r3_g124 -1 x_r3_g125 -1 x_r3_g128 -1 x_r3_g144 -2 x_r3_g145 -1 x_r3_g147 -1 p_r0_g4_h153_t18 -1 p_r0_g22_h4_t18 -1 p_r0_g35_h17_t18 -1 p_r0_g46_h28_t18 -1 p_r0_g87_h69_t18 -1 p_r0_g88_h70_t18 -1 p_r0_g97_h79_t18 -1 p_r0_g144_h126_t18 -1 p_r0_g162_h144_t18 -1 p_r1_g8_h157_t18 -1 p_r1_g11_h160_t18 -1 p_r1_g15_h164_t18 -1 p_r1_g26_h8_t18 -1 p_r1_g31_h13_t18 -1 p_r1_g44_h26_t18 -1 p_r1_g56_h38_t18 -1 p_r1_g59_h41_t18 -1 p_r1_g62_h44_t18 -1 p_r1_g80_h62_t18 -1 p_r1_g93_h75_t18 -1 p_r1_g111_h93_t18 -1 p_r1_g114_h96_t18 -1 p_r1_g126_h108_t18 -1 p_r1_g128_h110_t18 -1 p_r1_g135_h117_t18 -1 p_r1_g146_h128_t18 -1 p_r1_g161_h143_t18 -1 p_r1_g164_h146_t18 -1 p_r2_g48_h30_t18 -1 p_r2_g66_h48_t18 -1 p_r2_g80_h62_t18 -1 p_r2_g82_h64_t18 -1 p_r2_g91_h73_t18 -1 p_r2_g95_h77_t18 -1 p_r2_g100_h82_t18 -1 p_r2_g128_h110_t18 -1 p_r2_g146_h128_t18 -1 p_r2_g149_h131_t18 -1 p_r2_g159_h141_t18 -1 p_r2_g164_h146_t18 -1 p_r3_g7_h156_t18 -1 p_r3_g16_h165_t18 -1 p_r3_g25_h7_t18 -1 p_r3_g33_h15_t18 -1 p_r3_g34_h16_t18 -1 p_r3_g94_h76_t18 -1 p_r3_g112_h94_t18 -1 p_r3_g121_h103_t18 -1 p_r3_g123_h105_t18 -1 p_r3_g141_h123_t18 -1 p_r3_g156_h138_t18 -1 p_r3_g165_h147_t18 = -76 ;
1 d_18 -1 u_18 <= 0 ;
-1 d_18 -1 u_18 <= 0 ;
1 u_18 -1 M <= 0 ;
1 u_18 <= 2 ;
1 p_r0_g20_h1_t19 -1 x_r0_g20 <= 0 ;
1 p_r0_g20_h1_t19 -1 x_r0_g1 <= 0 ;
1 p_r0_g20_h1_t19 -1 x_r0_g20 -1 x_r0_g1 >= -1 ;
1 p_r0_g26_h7_t19 -1 x_r0_g26 <= 0 ;
1 p_r0_g26_h7_t19 -1 x_r0_g7 <= 0 ;
1 p_r0_g26_h7_t19 -1 x_r0_g26 -1 x_r0_g7 >= -1 ;
1 p_r0_g28_h9_t19 -1 x_r0_g28 <= 0 ;
1 p_r0_g28_h9_t19 -1 x_r0_g9 <= 0 ;
1 p_r0_g28_h9_t19 -1 x_r0_g28 -1 x_r0_g9 >= -1 ;
1 p_r0_g47_h28_t19 -1 x_r0_g47 <= 0 ;
1 p_r0_g47_h28_t19 -1 x_r0_g28 <= 0 ;
1 p_r0_g47_h28_t19 -1 x_r0_g47 -1 x_r0_g28 >= -1 ;
1 p_r0_g54_h35_t19 -1 x_r0_g54 <= 0 ;
1 p_r0_g54_h35_t19 -1 x_r0_g35 <= 0 ;
1 p_r0_g54_h35_t19 -1 x_r0_g54 -1 x_r0_g35 >= -1 ;
1 p_r0_g67_h48_t19 -1 x_r0_g67 <= 0 ;
1 p_r0_g67_h48_t19 -1 x_r0_g48 <= 0 ;
1 p_r0_g67_h48_t19 -1 x_r0_g67 -1 x_r0_g48 >= -1 ;
1 p_r0_g79_h60_t19 -1 x_r0_g79 <= 0 ;
1 p_r0_g79_h60_t19 -1 x_r0_g60 <= 0 ;
1 p_r0_g79_h60_t19 -1 x_r0_g79 -1 x_r0_g60 >= -1 ;
1 p_r0_g81_h62_t19 -1 x_r0_g81 <= 0 ;
1 p_r0_g81_h62_t19 -1 x_r0_g62 <= 0 ;
1 p_r0_g81_h62_t19 -1 x_r0_g81 -1 x_r0_g62 >= -1 ;
1 p_r0_g87_h68_t19 -1 x_r0_g87 <= 0 ;
1 p_r0_g87_h68_t19 -1 x_r0_g68 <= 0 ;
1 p_r0_g87_h68_t19 -1 x_r0_g87 -1 x_r0_g68 >= -1 ;
1 p_r0_g88_h69_t19 -1 x_r0_g88 <= 0 ;
1 p_r0_g88_h69_t19 -1 x_r0_g69 <= 0 ;
1 p_r0_g88_h69_t19 -1 x_r0_g88 -1 x_r0_g69 >= -1 ;
1 p_r1_g13_h161_t19 -1 x_r1_g13 <= 0 ;
1 p_r1_g13_h161_t19 -1 x_r1_g161 <= 0 ;
1 p_r1_g13_h161_t19 -1 x_r1_g13 -1 x_r1_g161 >= -1 ;
1 p_r1_g44_h25_t19 -1 x_r1_g44 <= 0 ;
1 p_r1_g44_h25_t19 -1 x_r1_g25 <= 0 ;
1 p_r1_g44_h25_t19 -1 x_r1_g44 -1 x_r1_g25 >= -1 ;
1 p_r1_g75_h56_t19 -1 x_r1_g75 <= 0 ;
1 p_r1_g75_h56_t19 -1 x_r1_g56 <= 0 ;
1 p_r1_g75_h56_t19 -1 x_r1_g75 -1 x_r1_g56 >= -1 ;
1 p_r1_g86_h67_t19 -1 x_r1_g86 <= 0 ;
1 p_r1_g86_h67_t19 -1 x_r1_g67 <= 0 ;
1 p_r1_g86_h67_t19 -1 x_r1_g86 -1 x_r1_g67 >= -1 ;
1 p_r2_g1_h149_t19 -1 x_r2_g1 <= 0 ;
1 p_r2_g1_h149_t19 -1 x_r2_g149 <= 0 ;
1 p_r2_g1_h149_t19 -1 x_r2_g1 -1 x_r2_g149 >= -1 ;
1 p_r2_g67_h48_t19 -1 x_r2_g67 <= 0 ;
1 p_r2_g67_h48_t19 -1 x_r2_g48 <= 0 ;
1 p_r2_g67_h48_t19 -1 x_r2_g67 -1 x_r2_g48 >= -1 ;
1 p_r2_g86_h67_t19 -1 x_r2_g86 <= 0 ;
1 p_r2_g86_h67_t19 -1 x_r2_g67 <= 0 ;
1 p_r2_g86_h67_t19 -1 x_r2_g86 -1 x_r2_g67 >= -1 ;
1 p_r2_g110_h91_t19 -1 x_r2_g110 <= 0 ;
1 p_r2_g110_h91_t19 -1 x_r2_g91 <= 0 ;
1 p_r2_g110_h91_t19 -1 x_r2_g110 -1 x_r2_g91 >= -1 ;
1 p_r2_g139_h120_t19 -1 x_r2_g139 <= 0 ;
1 p_r2_g139_h120_t19 -1 x_r2_g120 <= 0 ;
1 p_r2_g139_h120_t19 -1 x_r2_g139 -1 x_r2_g120 >= -1 ;
1 p_r2_g149_h130_t19 -1 x_r2_g149 <= 0 ;
1 p_r2_g149_h130_t19 -1 x_r2_g130 <= 0 ;
1 p_r2_g149_h130_t19 -1 x_r2_g149 -1 x_r2_g130 >= -1 ;
1 p_r2_g155_h136_t19 -1 x_r2_g155 <= 0 ;
1 p_r2_g155_h136_t19 -1 x_r2_g136 <= 0 ;
1 p_r2_g155_h136_t19 -1 x_r2_g155 -1 x_r2_g136 >= -1 ;
1 p_r2_g158_h139_t19 -1 x_r2_g158 <= 0 ;
1 p_r2_g158_h139_t19 -1 x_r2_g139 <= 0 ;
1 p_r2_g158_h139_t19 -1 x_r2_g158 -1 x_r2_g139 >= -1 ;
1 p_r2_g165_h146_t19 -1 x_r2_g165 <= 0 ;
1 p_r2_g165_h146_t19 -1 x_r2_g146 <= 0 ;
1 p_r2_g165_h146_t19 -1 x_r2_g165 -1 x_r2_g146 >= -1 ;
1 p_r3_g8_h156_t19 -1 x_r3_g8 <= 0 ;
1 p_r3_g8_h156_t19 -1 x_r3_g156 <= 0 ;
1 p_r3_g8_h156_t19 -1 x_r3_g8 -1 x_r3_g156 >= -1 ;
1 p_r3_g27_h8_t19 -1 x_r3_g27 <= 0 ;
1 p_r3_g27_h8_t19 -1 x_r3_g8 <= 0 ;
1 p_r3_g27_h8_t19 -1 x_r3_g27 -1 x_r3_g8 >= -1 ;
1 p_r3_g34_h15_t19 -1 x_r3_g34 <= 0 ;
1 p_r3_g34_h15_t19 -1 x_r3_g15 <= 0 ;
1 p_r3_g34_h15_t19 -1 x_r3_g34 -1 x_r3_g15 >= -1 ;
1 p_r3_g53_h34_t19 -1 x_r3_g53 <= 0 ;
1 p_r3_g53_h34_t19 -1 x_r3_g34 <= 0 ;
1 p_r3_g53_h34_t19 -1 x_r3_g53 -1 x_r3_g34 >= -1 ;
1 p_r3_g72_h53_t19 -1 x_r3_g72 <= 0 ;
1 p_r3_g72_h53_t19 -1 x_r3_g53 <= 0 ;
1 p_r3_g72_h53_t19 -1 x_r3_g72 -1 x_r3_g53 >= -1 ;
1 p_r3_g76_h57_t19 -1 x_r3_g76 <= 0 ;
1 p_r3_g76_h57_t19 -1 x_r3_g57 <= 0 ;
1 p_r3_g76_h57_t19 -1 x_r3_g76 -1 x_r3_g57 >= -1 ;
1 p_r3_g105_h86_t19 -1 x_r3_g105 <= 0 ;
1 p_r3_g105_h86_t19 -1 x_r3_g86 <= 0 ;
1 p_r3_g105_h86_t19 -1 x_r3_g105 -1 x_r3_g86 >= -1 ;
1 p_r3_g113_h94_t19 -1 x_r3_g113 <= 0 ;
1 p_r3_g113_h94_t19 -1 x_r3_g94 <= 0 ;
1 p_r3_g113_h94_t19 -1 x_r3_g113 -1 x_r3_g94 >= -1 ;
1 p_r3_g124_h105_t19 -1 x_r3_g124 <= 0 ;
1 p_r3_g124_h105_t19 -1 x_r3_g105 <= 0 ;
1 p_r3_g124_h105_t19 -1 x_r3_g124 -1 x_r3_g105 >= -1 ;
1 p_r3_g144_h125_t19 -1 x_r3_g144 <= 0 ;
1 p_r3_g144_h125_t19 -1 x_r3_g125 <= 0 ;
1 p_r3_g144_h125_t19 -1 x_r3_g144 -1 x_r3_g125 >= -1 ;
1 p_r3_g147_h128_t19 -1 x_r3_g147 <= 0 ;
1 p_r3_g147_h128_t19 -1 x_r3_g128 <= 0 ;
1 p_r3_g147_h128_t19 -1 x_r3_g147 -1 x_r3_g128 >= -1 ;
1 d_19 -1 x_r0_g1 -1 x_r0_g4 -1 x_r0_g7 -1 x_r0_g9 -2 x_r0_g17 -1 x_r0_g22 -1 x_r0_g26 -1 x_r0_g34 -1 x_r0_g46 -1 x_r0_g62 -1 x_r0_g68 -1 x_r0_g70 -1 x_r0_g79 -1 x_r0_g81 -2 x_r0_g84 -1 x_r0_g87 -1 x_r0_g93 -1 x_r0_g97 -1 x_r0_g101 -1 x_r0_g118 -1 x_r0_g123 -1 x_r0_g130 -2 x_r0_g132 -2 x_r0_g144 -2 x_r0_g146 -1 x_r0_g153 -2 x_r0_g162 -2 x_r1_g8 -1 x_r1_g11 -1 x_r1_g13 -1 x_r1_g15 -1 x_r1_g17 -1 x_r1_g38 -1 x_r1_g56 -2 x_r1_g59 -1 x_r1_g62 -2 x_r1_g76 -1 x_r1_g93 -1 x_r1_g96 -2 x_r1_g108 -1 x_r1_g110 -1 x_r1_g111 -1 x_r1_g113 -1 x_r1_g114 -1 x_r1_g117 -1 x_r1_g121 -1 x_r1_g126 -1 x_r1_g128 -2 x_r1_g135 -1 x_r1_g143 -1 x_r1_g146 -1 x_r1_g157 -1 x_r1_g160 -1 x_r1_g164 -1 x_r2_g1 -2 x_r2_g2 -1 x_r2_g30 -1 x_r2_g60 -1 x_r2_g62 -1 x_r2_g64 -1 x_r2_g66 -1 x_r2_g74 -1 x_r2_g77 -1 x_r2_g80 -2 x_r2_g82 -1 x_r2_g86 -2 x_r2_g94 -1 x_r2_g95 -1 x_r2_g100 -1 x_r2_g107 -1 x_r2_g110 -1 x_r2_g120 -2 x_r2_g131 -2 x_r2_g141 -1 x_r2_g142 -1 x_r2_g152 -1 x_r2_g155 -1 x_r2_g159 -1 x_r2_g162 -2 x_r3_g3 -1 x_r3_g7 -1 x_r3_g11 -1 x_r3_g12 -1 x_r3_g13 -1 x_r3_g15 -1 x_r3_g19 -2 x_r3_g24 -1 x_r3_g25 -1 x_r3_g27 -2 x_r3_g36 -1 x_r3_g57 -1 x_r3_g65 -1 x_r3_g81 -1 x_r3_g94 -1 x_r3_g103 -1 x_r3_g113 -1 x_r3_g121 -1 x_r3_g123 -1 x_r3_g124 -1 x_r3_g125 -1 x_r3_g138 -2 x_r3_g141 -1 x_r3_g144 -1 x_r3_g147 -1 x_r3_g156 -1 x_r3_g165 -1 p_r0_g20_h1_t19 -1 p_r0_g26_h7_t19 -1 p_r0_g28_h9_t19 -1 p_r0_g47_h28_t19 -1 p_r0_g54_h35_t19 -1 p_r0_g67_h48_t19 -1 p_r0_g79_h60_t19 -1 p_r0_g81_h62_t19 -1 p_r0_g87_h68_t19 -1 p_r0_g88_h69_t19 -1 p_r1_g13_h161_t19 -1 p_r1_g44_h25_t19 -1 p_r1_g75_h56_t19 -1 p_r1_g86_h67_t19 -1 p_r2_g1_h149_t19 -1 p_r2_g67_h48_t19 -1 p_r2_g86_h67_t19 -1 p_r2_g110_h91_t19 -1 p_r2_g139_h120_t19 -1 p_r2_g149_h130_t19 -1 p_r2_g155_h136_t19 -1 p_r2_g158_h139_t19 -1 p_r2_g165_h146_t19 -1 p_r3_g8_h156_t19 -1 p_r3_g27_h8_t19 -1 p_r3_g34_h15_t19 -1 p_r3_g53_h34_t19 -1 p_r3_g72_h53_t19 -1 p_r3_g76_h57_t19 -1 p_r3_g105_h86_t19 -1 p_r3_g113_h94_t19 -1 p_r3_g124_h105_t19 -1 p_r3_g144_h125_t19 -1 p_r3_g147_h128_t19 = -58 ;
1 d_19 -1 u_19 <= 0 ;
-1 d_19 -1 u_19 <= 0 ;
1 u_19 -1 M <= 0 ;
1 u_19 <= 2 ;
1 p_r0_g7_h153_t21 -1 x_r0_g7 <= 0 ;
1 p_r0_g7_h153_t21 -1 x_r0_g153 <= 0 ;
1 p_r0_g7_h153_t21 -1 x_r0_g7 -1 x_r0_g153 >= -1 ;
1 p_r0_g22_h1_t21 -1 x_r0_g22 <= 0 ;
1 p_r0_g22_h1_t21 -1 x_r0_g1 <= 0 ;
1 p_r0_g22_h1_t21 -1 x_r0_g22 -1 x_r0_g1 >= -1 ;
1 p_r0_g28_h7_t21 -1 x_r0_g28 <= 0 ;
1 p_r0_g28_h7_t21 -1 x_r0_g7 <= 0 ;
1 p_r0_g28_h7_t21 -1 x_r0_g28 -1 x_r0_g7 >= -1 ;
1 p_r0_g47_h26_t21 -1 x_r0_g47 <= 0 ;
1 p_r0_g47_h26_t21 -1 x_r0_g26 <= 0 ;
1 p_r0_g47_h26_t21 -1 x_r0_g47 -1 x_r0_g26 >= -1 ;
1 p_r0_g67_h46_t21 -1 x_r0_g67 <= 0 ;
1 p_r0_g67_h46_t21 -1 x_r0_g46 <= 0 ;
1 p_r0_g67_h46_t21 -1 x_r0_g67 -1 x_r0_g46 >= -1 ;
1 p_r0_g68_h47_t21 -1 x_r0_g68 <= 0 ;
1 p_r0_g68_h47_t21 -1 x_r0_g47 <= 0 ;
1 p_r0_g68_h47_t21 -1 x_r0_g68 -1 x_r0_g47 >= -1 ;
1 p_r0_g69_h48_t21 -1 x_r0_g69 <= 0 ;
1 p_r0_g69_h48_t21 -1 x_r0_g48 <= 0 ;
1 p_r0_g69_h48_t21 -1 x_r0_g69 -1 x_r0_g48 >= -1 ;
1 p_r0_g81_h60_t21 -1 x_r0_g81 <= 0 ;
1 p_r0_g81_h60_t21 -1 x_r0_g60 <= 0 ;
1 p_r0_g81_h60_t21 -1 x_r0_g81 -1 x_r0_g60 >= -1 ;
1 p_r0_g88_h67_t21 -1 x_r0_g88 <= 0 ;
1 p_r0_g88_h67_t21 -1 x_r0_g67 <= 0 ;
1 p_r0_g88_h67_t21 -1 x_r0_g88 -1 x_r0_g67 >= -1 ;
1 p_r0_g118_h97_t21 -1 x_r0_g118 <= 0 ;
1 p_r0_g118_h97_t21 -1 x_r0_g97 <= 0 ;
1 p_r0_g118_h97_t21 -1 x_r0_g118 -1 x_r0_g97 >= -1 ;
1 p_r0_g144_h123_t21 -1 x_r0_g144 <= 0 ;
1 p_r0_g144_h123_t21 -1 x_r0_g123 <= 0 ;
1 p_r0_g144_h123_t21 -1 x_r0_g144 -1 x_r0_g123 >= -1 ;
1 p_r0_g153_h132_t21 -1 x_r0_g153 <= 0 ;
1 p_r0_g153_h132_t21 -1 x_r0_g132 <= 0 ;
1 p_r0_g153_h132_t21 -1 x_r0_g153 -1 x_r0_g132 >= -1 ;
1 p_r1_g11_h157_t21 -1 x_r1_g11 <= 0 ;
1 p_r1_g11_h157_t21 -1 x_r1_g157 <= 0 ;
1 p_r1_g11_h157_t21 -1 x_r1_g11 -1 x_r1_g157 >= -1 ;
1 p_r1_g15_h161_t21 -1 x_r1_g15 <= 0 ;
1 p_r1_g15_h161_t21 -1 x_r1_g161 <= 0 ;
1 p_r1_g15_h161_t21 -1 x_r1_g15 -1 x_r1_g161 >= -1 ;
1 p_r1_g38_h17_t21 -1 x_r1_g38 <= 0 ;
1 p_r1_g38_h17_t21 -1 x_r1_g17 <= 0 ;
1 p_r1_g38_h17_t21 -1 x_r1_g38 -1 x_r1_g17 >= -1 ;
1 p_r1_g59_h38_t21 -1 x_r1_g59 <= 0 ;
1 p_r1_g59_h38_t21 -1 x_r1_g38 <= 0 ;
1 p_r1_g59_h38_t21 -1 x_r1_g59 -1 x_r1_g38 >= -1 ;
1 p_r1_g62_h41_t21 -1 x_r1_g62 <= 0 ;
1 p_r1_g62_h41_t21 -1 x_r1_g41 <= 0 ;
1 p_r1_g62_h41_t21 -1 x_r1_g62 -1 x_r1_g41 >= -1 ;
1 p_r1_g80_h59_t21 -1 x_r1_g80 <= 0 ;
1 p_r1_g80_h59_t21 -1 x_r1_g59 <= 0 ;
1 p_r1_g80_h59_t21 -1 x_r1_g80 -1 x_r1_g59 >= -1 ;
1 p_r1_g96_h75_t21 -1 x_r1_g96 <= 0 ;
1 p_r1_g96_h75_t21 -1 x_r1_g75 <= 0 ;
1 p_r1_g96_h75_t21 -1 x_r1_g96 -1 x_r1_g75 >= -1 ;
1 p_r1_g114_h93_t21 -1 x_r1_g114 <= 0 ;
1 p_r1_g114_h93_t21 -1 x_r1_g93 <= 0 ;
1 p_r1_g114_h93_t21 -1 x_r1_g114 -1 x_r1_g93 >= -1 ;
1 p_r1_g117_h96_t21 -1 x_r1_g117 <= 0 ;
1 p_r1_g117_h96_t21 -1 x_r1_g96 <= 0 ;
1 p_r1_g117_h96_t21 -1 x_r1_g117 -1 x_r1_g96 >= -1 ;
1 p_r1_g135_h114_t21 -1 x_r1_g135 <= 0 ;
1 p_r1_g135_h114_t21 -1 x_r1_g114 <= 0 ;
1 p_r1_g135_h114_t21 -1 x_r1_g135 -1 x_r1_g114 >= -1 ;
1 p_r1_g164_h143_t21 -1 x_r1_g164 <= 0 ;
1 p_r1_g164_h143_t21 -1 x_r1_g143 <= 0 ;
1 p_r1_g164_h143_t21 -1 x_r1_g164 -1 x_r1_g143 >= -1 ;
1 p_r2_g18_h164_t21 -1 x_r2_g18 <= 0 ;
1 p_r2_g18_h164_t21 -1 x_r2_g164 <= 0 ;
1 p_r2_g18_h164_t21 -1 x_r2_g18 -1 x_r2_g164 >= -1 ;
1 p_r2_g94_h73_t21 -1 x_r2_g94 <= 0 ;
1 p_r2_g94_h73_t21 -1 x_r2_g73 <= 0 ;
1 p_r2_g94_h73_t21 -1 x_r2_g94 -1 x_r2_g73 >= -1 ;
1 p_r2_g95_h74_t21 -1 x_r2_g95 <= 0 ;
1 p_r2_g95_h74_t21 -1 x_r2_g74 <= 0 ;
1 p_r2_g95_h74_t21 -1 x_r2_g95 -1 x_r2_g74 >= -1 ;
1 p_r2_g107_h86_t21 -1 x_r2_g107 <= 0 ;
1 p_r2_g107_h86_t21 -1 x_r2_g86 <= 0 ;
1 p_r2_g107_h86_t21 -1 x_r2_g107 -1 x_r2_g86 >= -1 ;
1 p_r2_g128_h107_t21 -1 x_r2_g128 <= 0 ;
1 p_r2_g128_h107_t21 -1 x_r2_g107 <= 0 ;
1 p_r2_g128_h107_t21 -1 x_r2_g128 -1 x_r2_g107 >= -1 ;
1 p_r2_g131_h110_t21 -1 x_r2_g131 <= 0 ;
1 p_r2_g131_h110_t21 -1 x_r2_g110 <= 0 ;
1 p_r2_g131_h110_t21 -1 x_r2_g131 -1 x_r2_g110 >= -1 ;
1 p_r2_g141_h120_t21 -1 x_r2_g141 <= 0 ;
1 p_r2_g141_h120_t21 -1 x_r2_g120 <= 0 ;
1 p_r2_g141_h120_t21 -1 x_r2_g141 -1 x_r2_g120 >= -1 ;
1 p_r2_g149_h128_t21 -1 x_r2_g149 <= 0 ;
1 p_r2_g149_h128_t21 -1 x_r2_g128 <= 0 ;
1 p_r2_g149_h128_t21 -1 x_r2_g149 -1 x_r2_g128 >= -1 ;
1 p_r2_g152_h131_t21 -1 x_r2_g152 <= 0 ;
1 p_r2_g152_h131_t21 -1 x_r2_g131 <= 0 ;
1 p_r2_g152_h131_t21 -1 x_r2_g152 -1 x_r2_g131 >= -1 ;
1 p_r2_g162_h141_t21 -1 x_r2_g162 <= 0 ;
1 p_r2_g162_h141_t21 -1 x_r2_g141 <= 0 ;
1 p_r2_g162_h141_t21 -1 x_r2_g162 -1 x_r2_g141 >= -1 ;
1 p_r2_g163_h142_t21 -1 x_r2_g163 <= 0 ;
1 p_r2_g163_h142_t21 -1 x_r2_g142 <= 0 ;
1 p_r2_g163_h142_t21 -1 x_r2_g163 -1 x_r2_g142 >= -1 ;
1 p_r3_g19_h165_t21 -1 x_r3_g19 <= 0 ;
1 p_r3_g19_h165_t21 -1 x_r3_g165 <= 0 ;
1 p_r3_g19_h165_t21 -1 x_r3_g19 -1 x_r3_g165 >= -1 ;
1 p_r3_g24_h3_t21 -1 x_r3_g24 <= 0 ;
1 p_r3_g24_h3_t21 -1 x_r3_g3 <= 0 ;
1 p_r3_g24_h3_t21 -1 x_r3_g24 -1 x_r3_g3 >= -1 ;
1 p_r3_g33_h12_t21 -1 x_r3_g33 <= 0 ;
1 p_r3_g33_h12_t21 -1 x_r3_g12 <= 0 ;
1 p_r3_g33_h12_t21 -1 x_r3_g33 -1 x_r3_g12 >= -1 ;
1 p_r3_g34_h13_t21 -1 x_r3_g34 <= 0 ;
1 p_r3_g34_h13_t21 -1 x_r3_g13 <= 0 ;
1 p_r3_g34_h13_t21 -1 x_r3_g34 -1 x_r3_g13 >= -1 ;
1 p_r3_g36_h15_t21 -1 x_r3_g36 <= 0 ;
1 p_r3_g36_h15_t21 -1 x_r3_g15 <= 0 ;
1 p_r3_g36_h15_t21 -1 x_r3_g36 -1 x_r3_g15 >= -1 ;
1 p_r3_g57_h36_t21 -1 x_r3_g57 <= 0 ;
1 p_r3_g57_h36_t21 -1 x_r3_g36 <= 0 ;
1 p_r3_g57_h36_t21 -1 x_r3_g57 -1 x_r3_g36 >= -1 ;
1 p_r3_g86_h65_t21 -1 x_r3_g86 <= 0 ;
1 p_r3_g86_h65_t21 -1 x_r3_g65 <= 0 ;
1 p_r3_g86_h65_t21 -1 x_r3_g86 -1 x_r3_g65 >= -1 ;
1 p_r3_g124_h103_t21 -1 x_r3_g124 <= 0 ;
1 p_r3_g124_h103_t21 -1 x_r3_g103 <= 0 ;
1 p_r3_g124_h103_t21 -1 x_r3_g124 -1 x_r3_g103 >= -1 ;
1 p_r3_g144_h123_t21 -1 x_r3_g144 <= 0 ;
1 p_r3_g144_h123_t21 -1 x_r3_g123 <= 0 ;
1 p_r3_g144_h123_t21 -1 x_r3_g144 -1 x_r3_g123 >= -1 ;
1 p_r3_g145_h124_t21 -1 x_r3_g145 <= 0 ;
1 p_r3_g145_h124_t21 -1 x_r3_g124 <= 0 ;
1 p_r3_g145_h124_t21 -1 x_r3_g145 -1 x_r3_g124 >= -1 ;
1 p_r3_g165_h144_t21 -1 x_r3_g165 <= 0 ;
1 p_r3_g165_h144_t21 -1 x_r3_g144 <= 0 ;
1 p_r3_g165_h144_t21 -1 x_r3_g165 -1 x_r3_g144 >= -1 ;
1 d_21 -1 x_r0_g4 -2 x_r0_g9 -2 x_r0_g17 -1 x_r0_g22 -1 x_r0_g26 -1 x_r0_g28 -2 x_r0_g34 -1 x_r0_g35 -1 x_r0_g37 -1 x_r0_g46 -1 x_r0_g69 -1 x_r0_g70 -2 x_r0_g79 -1 x_r0_g81 -1 x_r0_g84 -1 x_r0_g101 -1 x_r0_g118 -1 x_r0_g123 -1 x_r0_g130 -1 x_r0_g131 -1 x_r0_g144 -1 x_r0_g146 -2 x_r1_g8 -1 x_r1_g11 -1 x_r1_g13 -1 x_r1_g15 -1 x_r1_g17 -1 x_r1_g25 -1 x_r1_g31 -1 x_r1_g41 -1 x_r1_g44 -2 x_r1_g67 -2 x_r1_g86 -1 x_r1_g108 -1 x_r1_g110 -2 x_r1_g111 -1 x_r1_g117 -1 x_r1_g121 -1 x_r1_g128 -1 x_r1_g135 -1 x_r1_g161 -1 x_r1_g164 -1 x_r2_g2 -1 x_r2_g18 -1 x_r2_g48 -1 x_r2_g60 -2 x_r2_g62 -2 x_r2_g64 -1 x_r2_g66 -1 x_r2_g67 -2 x_r2_g77 -1 x_r2_g80 -1 x_r2_g82 -1 x_r2_g86 -2 x_r2_g91 -1 x_r2_g94 -1 x_r2_g95 -1 x_r2_g100 -1 x_r2_g130 -2 x_r2_g136 -1 x_r2_g139 -1 x_r2_g142 -1 x_r2_g146 -1 x_r2_g155 -1 x_r2_g158 -1 x_r3_g3 -1 x_r3_g7 -1 x_r3_g8 -1 x_r3_g11 -2 x_r3_g16 -1 x_r3_g19 -1 x_r3_g24 -2 x_r3_g25 -1 x_r3_g27 -1 x_r3_g34 -2 x_r3_g53 -1 x_r3_g57 -1 x_r3_g76 -1 x_r3_g111 -1 x_r3_g113 -1 x_r3_g121 -1 x_r3_g128 -1 x_r3_g141 -1 x_r3_g145 -1 x_r3_g147 -1 p_r0_g7_h153_t21 -1 p_r0_g22_h1_t21 -1 p_r0_g28_h7_t21 -1 p_r0_g47_h26_t21 -1 p_r0_g67_h46_t21 -1 p_r0_g68_h47_t21 -1 p_r0_g69_h48_t21 -1 p_r0_g81_h60_t21 -1 p_r0_g88_h67_t21 -1 p_r0_g118_h97_t21 -1 p_r0_g144_h123_t21 -1 p_r0_g153_h132_t21 -1 p_r1_g11_h157_t21 -1 p_r1_g15_h161_t21 -1 p_r1_g38_h17_t21 -1 p_r1_g59_h38_t21 -1 p_r1_g62_h41_t21 -1 p_r1_g80_h59_t21 -1 p_r1_g96_h75_t21 -1 p_r1_g114_h93_t21 -1 p_r1_g117_h96_t21 -1 p_r1_g135_h114_t21 -1 p_r1_g164_h143_t21 -1 p_r2_g18_h164_t21 -1 p_r2_g94_h73_t21 -1 p_r2_g95_h74_t21 -1 p_r2_g107_h86_t21 -1 p_r2_g128_h107_t21 -1 p_r2_g131_h110_t21 -1 p_r2_g141_h120_t21 -1 p_r2_g149_h128_t21 -1 p_r2_g152_h131_t21 -1 p_r2_g162_h141_t21 -1 p_r2_g163_h142_t21 -1 p_r3_g19_h165_t21 -1 p_r3_g24_h3_t21 -1 p_r3_g33_h12_t21 -1 p_r3_g34_h13_t21 -1 p_r3_g36_h15_t21 -1 p_r3_g57_h36_t21 -1 p_r3_g86_h65_t21 -1 p_r3_g124_h103_t21 -1 p_r3_g144_h123_t21 -1 p_r3_g145_h124_t21 -1 p_r3_g165_h144_t21 = -45 ;
1 d_21 -1 u_21 <= 0 ;
-1 d_21 -1 u_21 <= 0 ;
1 u_21 -1 M <= 0 ;
1 u_21 <= 2 ;
1 p_r0_g35_h9_t26 -1 x_r0_g35 <= 0 ;
1 p_r0_g35_h9_t26 -1 x_r0_g9 <= 0 ;
1 p_r0_g35_h9_t26 -1 x_r0_g35 -1 x_r0_g9 >= -1 ;
1 p_r0_g46_h20_t26 -1 x_r0_g46 <= 0 ;
1 p_r0_g46_h20_t26 -1 x_r0_g20 <= 0 ;
1 p_r0_g46_h20_t26 -1 x_r0_g46 -1 x_r0_g20 >= -1 ;
1 p_r0_g48_h22_t26 -1 x_r0_g48 <= 0 ;
1 p_r0_g48_h22_t26 -1 x_r0_g22 <= 0 ;
1 p_r0_g48_h22_t26 -1 x_r0_g48 -1 x_r0_g22 >= -1 ;
1 p_r0_g54_h28_t26 -1 x_r0_g54 <= 0 ;
1 p_r0_g54_h28_t26 -1 x_r0_g28 <= 0 ;
1 p_r0_g54_h28_t26 -1 x_r0_g54 -1 x_r0_g28 >= -1 ;
1 p_r0_g60_h34_t26 -1 x_r0_g60 <= 0 ;
1 p_r0_g60_h34_t26 -1 x_r0_g34 <= 0 ;
1 p_r0_g60_h34_t26 -1 x_r0_g60 -1 x_r0_g34 >= -1 ;
1 p_r0_g88_h62_t26 -1 x_r0_g88 <= 0 ;
1 p_r0_g88_h62_t26 -1 x_r0_g62 <= 0 ;
1 p_r0_g88_h62_t26 -1 x_r0_g88 -1 x_r0_g62 >= -1 ;
1 p_r0_g93_h67_t26 -1 x_r0_g93 <= 0 ;
1 p_r0_g93_h67_t26 -1 x_r0_g67 <= 0 ;
1 p_r0_g93_h67_t26 -1 x_r0_g93 -1 x_r0_g67 >= -1 ;
1 p_r0_g123_h97_t26 -1 x_r0_g123 <= 0 ;
1 p_r0_g123_h97_t26 -1 x_r0_g97 <= 0 ;
1 p_r0_g123_h97_t26 -1 x_r0_g123 -1 x_r0_g97 >= -1 ;
1 p_r0_g144_h118_t26 -1 x_r0_g144 <= 0 ;
1 p_r0_g144_h118_t26 -1 x_r0_g118 <= 0 ;
1 p_r0_g144_h118_t26 -1 x_r0_g144 -1 x_r0_g118 >= -1 ;
1 p_r1_g41_h15_t26 -1 x_r1_g41 <= 0 ;
1 p_r1_g41_h15_t26 -1 x_r1_g15 <= 0 ;
1 p_r1_g41_h15_t26 -1 x_r1_g41 -1 x_r1_g15 >= -1 ;
1 p_r1_g64_h38_t26 -1 x_r1_g64 <= 0 ;
1 p_r1_g64_h38_t26 -1 x_r1_g38 <= 0 ;
1 p_r1_g64_h38_t26 -1 x_r1_g64 -1 x_r1_g38 >= -1 ;
1 p_r1_g67_h41_t26 -1 x_r1_g67 <= 0 ;
1 p_r1_g67_h41_t26 -1 x_r1_g41 <= 0 ;
1 p_r1_g67_h41_t26 -1 x_r1_g67 -1 x_r1_g41 >= -1 ;
1 p_r1_g93_h67_t26 -1 x_r1_g93 <= 0 ;
1 p_r1_g93_h67_t26 -1 x_r1_g67 <= 0 ;
1 p_r1_g93_h67_t26 -1 x_r1_g93 -1 x_r1_g67 >= -1 ;
1 p_r1_g143_h117_t26 -1 x_r1_g143 <= 0 ;
1 p_r1_g143_h117_t26 -1 x_r1_g117 <= 0 ;
1 p_r1_g143_h117_t26 -1 x_r1_g143 -1 x_r1_g117 >= -1 ;
1 p_r1_g161_h135_t26 -1 x_r1_g161 <= 0 ;
1 p_r1_g161_h135_t26 -1 x_r1_g135 <= 0 ;
1 p_r1_g161_h135_t26 -1 x_r1_g161 -1 x_r1_g135 >= -1 ;
1 p_r2_g1_h142_t26 -1 x_r2_g1 <= 0 ;
1 p_r2_g1_h142_t26 -1 x_r2_g142 <= 0 ;
1 p_r2_g1_h142_t26 -1 x_r2_g1 -1 x_r2_g142 >= -1 ;
1 p_r2_g18_h159_t26 -1 x_r2_g18 <= 0 ;
1 p_r2_g18_h159_t26 -1 x_r2_g159 <= 0 ;
1 p_r2_g18_h159_t26 -1 x_r2_g18 -1 x_r2_g159 >= -1 ;
1 p_r2_g74_h48_t26 -1 x_r2_g74 <= 0 ;
1 p_r2_g74_h48_t26 -1 x_r2_g48 <= 0 ;
1 p_r2_g74_h48_t26 -1 x_r2_g74 -1 x_r2_g48 >= -1 ;
1 p_r2_g86_h60_t26 -1 x_r2_g86 <= 0 ;
1 p_r2_g86_h60_t26 -1 x_r2_g60 <= 0 ;
1 p_r2_g86_h60_t26 -1 x_r2_g86 -1 x_r2_g60 >= -1 ;
1 p_r2_g100_h74_t26 -1 x_r2_g100 <= 0 ;
1 p_r2_g100_h74_t26 -1 x_r2_g74 <= 0 ;
1 p_r2_g100_h74_t26 -1 x_r2_g100 -1 x_r2_g74 >= -1 ;
1 p_r2_g120_h94_t26 -1 x_r2_g120 <= 0 ;
1 p_r2_g120_h94_t26 -1 x_r2_g94 <= 0 ;
1 p_r2_g120_h94_t26 -1 x_r2_g120 -1 x_r2_g94 >= -1 ;
1 p_r2_g136_h110_t26 -1 x_r2_g136 <= 0 ;
1 p_r2_g136_h110_t26 -1 x_r2_g110 <= 0 ;
1 p_r2_g136_h110_t26 -1 x_r2_g136 -1 x_r2_g110 >= -1 ;
1 p_r2_g146_h120_t26 -1 x_r2_g146 <= 0 ;
1 p_r2_g146_h120_t26 -1 x_r2_g120 <= 0 ;
1 p_r2_g146_h120_t26 -1 x_r2_g146 -1 x_r2_g120 >= -1 ;
1 p_r2_g162_h136_t26 -1 x_r2_g162 <= 0 ;
1 p_r2_g162_h136_t26 -1 x_r2_g136 <= 0 ;
1 p_r2_g162_h136_t26 -1 x_r2_g162 -1 x_r2_g136 >= -1 ;
1 p_r2_g165_h139_t26 -1 x_r2_g165 <= 0 ;
1 p_r2_g165_h139_t26 -1 x_r2_g139 <= 0 ;
1 p_r2_g165_h139_t26 -1 x_r2_g165 -1 x_r2_g139 >= -1 ;
1 p_r3_g3_h144_t26 -1 x_r3_g3 <= 0 ;
1 p_r3_g3_h144_t26 -1 x_r3_g144 <= 0 ;
1 p_r3_g3_h144_t26 -1 x_r3_g3 -1 x_r3_g144 >= -1 ;
1 p_r3_g15_h156_t26 -1 x_r3_g15 <= 0 ;
1 p_r3_g15_h156_t26 -1 x_r3_g156 <= 0 ;
1 p_r3_g15_h156_t26 -1 x_r3_g15 -1 x_r3_g156 >= -1 ;
1 p_r3_g24_h165_t26 -1 x_r3_g24 <= 0 ;
1 p_r3_g24_h165_t26 -1 x_r3_g165 <= 0 ;
1 p_r3_g24_h165_t26 -1 x_r3_g24 -1 x_r3_g165 >= -1 ;
1 p_r3_g33_h7_t26 -1 x_r3_g33 <= 0 ;
1 p_r3_g33_h7_t26 -1 x_r3_g7 <= 0 ;
1 p_r3_g33_h7_t26 -1 x_r3_g33 -1 x_r3_g7 >= -1 ;
1 p_r3_g34_h8_t26 -1 x_r3_g34 <= 0 ;
1 p_r3_g34_h8_t26 -1 x_r3_g8 <= 0 ;
1 p_r3_g34_h8_t26 -1 x_r3_g34 -1 x_r3_g8 >= -1 ;
1 p_r3_g53_h27_t26 -1 x_r3_g53 <= 0 ;
1 p_r3_g53_h27_t26 -1 x_r3_g27 <= 0 ;
1 p_r3_g53_h27_t26 -1 x_r3_g53 -1 x_r3_g27 >= -1 ;
1 p_r3_g112_h86_t26 -1 x_r3_g112 <= 0 ;
1 p_r3_g112_h86_t26 -1 x_r3_g86 <= 0 ;
1 p_r3_g112_h86_t26 -1 x_r3_g112 -1 x_r3_g86 >= -1 ;
1 p_r3_g138_h112_t26 -1 x_r3_g138 <= 0 ;
1 p_r3_g138_h112_t26 -1 x_r3_g112 <= 0 ;
1 p_r3_g138_h112_t26 -1 x_r3_g138 -1 x_r3_g112 >= -1 ;
1 p_r3_g147_h121_t26 -1 x_r3_g147 <= 0 ;
1 p_r3_g147_h121_t26 -1 x_r3_g121 <= 0 ;
1 p_r3_g147_h121_t26 -1 x_r3_g147 -1 x_r3_g121 >= -1 ;
1 d_26 -1 x_r0_g1 -1 x_r0_g4 -2 x_r0_g17 -1 x_r0_g22 -1 x_r0_g26 -2 x_r0_g37 -1 x_r0_g48 -1 x_r0_g62 -1 x_r0_g68 -1 x_r0_g69 -1 x_r0_g81 -1 x_r0_g84 -1 x_r0_g87 -1 x_r0_g93 -1 x_r0_g101 -1 x_r0_g123 -2 x_r0_g126 -1 x_r0_g131 -2 x_r0_g132 -1 x_r0_g144 -2 x_r0_g146 -2 x_r0_g153 -1 x_r0_g162 -1 x_r1_g11 -2 x_r1_g13 -1 x_r1_g15 -1 x_r1_g25 -1 x_r1_g31 -2 x_r1_g44 -1 x_r1_g56 -2 x_r1_g62 -1 x_r1_g64 -1 x_r1_g75 -1 x_r1_g86 -1 x_r1_g93 -1 x_r1_g96 -1 x_r1_g108 -1 x_r1_g110 -1 x_r1_g113 -2 x_r1_g114 -1 x_r1_g117 -1 x_r1_g121 -1 x_r1_g126 -1 x_r1_g128 -1 x_r1_g135 -1 x_r1_g157 -1 x_r1_g161 -1 x_r1_g164 -1 x_r2_g1 -1 x_r2_g2 -2 x_r2_g30 -1 x_r2_g60 -1 x_r2_g64 -2 x_r2_g67 -1 x_r2_g82 -1 x_r2_g86 -1 x_r2_g91 -1 x_r2_g94 -1 x_r2_g95 -1 x_r2_g100 -1 x_r2_g128 -1 x_r2_g130 -2 x_r2_g131 -1 x_r2_g139 -2 x_r2_g141 -1 x_r2_g142 -1 x_r2_g152 -2 x_r2_g155 -1 x_r2_g158 -1 x_r2_g162 -1 x_r2_g163 -1 x_r3_g7 -1 x_r3_g8 -1 x_r3_g11 -1 x_r3_g12 -2 x_r3_g13 -1 x_r3_g15 -2 x_r3_g19 -1 x_r3_g25 -1 x_r3_g27 -1 x_r3_g33 -1 x_r3_g36 -1 x_r3_g57 -1 x_r3_g65 -2 x_r3_g72 -1 x_r3_g81 -1 x_r3_g94 -2 x_r3_g103 -1 x_r3_g111 -1 x_r3_g113 -1 x_r3_g123 -1 x_r3_g124 -2 x_r3_g125 -1 x_r3_g128 -1 x_r3_g144 -2 x_r3_g145 -1 x_r3_g147 -1 x_r3_g165 -1 p_r0_g35_h9_t26 -1 p_r0_g46_h20_t26 -1 p_r0_g48_h22_t26 -1 p_r0_g54_h28_t26 -1 p_r0_g60_h34_t26 -1 p_r0_g88_h62_t26 -1 p_r0_g93_h67_t26 -1 p_r0_g123_h97_t26 -1 p_r0_g144_h118_t26 -1 p_r1_g41_h15_t26 -1 p_r1_g64_h38_t26 -1 p_r1_g67_h41_t26 -1 p_r1_g93_h67_t26 -1 p_r1_g143_h117_t26 -1 p_r1_g161_h135_t26 -1 p_r2_g1_h142_t26 -1 p_r2_g18_h159_t26 -1 p_r2_g74_h48_t26 -1 p_r2_g86_h60_t26 -1 p_r2_g100_h74_t26 -1 p_r2_g120_h94_t26 -1 p_r2_g136_h110_t26 -1 p_r2_g146_h120_t26 -1 p_r2_g162_h136_t26 -1 p_r2_g165_h139_t26 -1 p_r3_g3_h144_t26 -1 p_r3_g15_h156_t26 -1 p_r3_g24_h165_t26 -1 p_r3_g33_h7_t26 -1 p_r3_g34_h8_t26 -1 p_r3_g53_h27_t26 -1 p_r3_g112_h86_t26 -1 p_r3_g138_h112_t26 -1 p_r3_g147_h121_t26 = -73 ;
1 d_26 -1 u_26 <= 0 ;
-1 d_26 -1 u_26 <= 0 ;
1 u_26 -1 M <= 0 ;
1 u_26 <= 1 ;
1 p_r0_g46_h17_t29 -1 x_r0_g46 <= 0 ;
1 p_r0_g46_h17_t29 -1 x_r0_g17 <= 0 ;
1 p_r0_g46_h17_t29 -1 x_r0_g46 -1 x_r0_g17 >= -1 ;
1 p_r0_g97_h68_t29 -1 x_r0_g97 <= 0 ;
1 p_r0_g97_h68_t29 -1 x_r0_g68 <= 0 ;
1 p_r0_g97_h68_t29 -1 x_r0_g97 -1 x_r0_g68 >= -1 ;
1 p_r0_g126_h97_t29 -1 x_r0_g126 <= 0 ;
1 p_r0_g126_h97_t29 -1 x_r0_g97 <= 0 ;
1 p_r0_g126_h97_t29 -1 x_r0_g126 -1 x_r0_g97 >= -1 ;
1 p_r0_g130_h101_t29 -1 x_r0_g130 <= 0 ;
1 p_r0_g130_h101_t29 -1 x_r0_g101 <= 0 ;
1 p_r0_g130_h101_t29 -1 x_r0_g130 -1 x_r0_g101 >= -1 ;
1 p_r1_g8_h146_t29 -1 x_r1_g8 <= 0 ;
1 p_r1_g8_h146_t29 -1 x_r1_g146 <= 0 ;
1 p_r1_g8_h146_t29 -1 x_r1_g8 -1 x_r1_g146 >= -1 ;
1 p_r1_g17_h155_t29 -1 x_r1_g17 <= 0 ;
1 p_r1_g17_h155_t29 -1 x_r1_g155 <= 0 ;
1 p_r1_g17_h155_t29 -1 x_r1_g17 -1 x_r1_g155 >= -1 ;
1 p_r1_g26_h164_t29 -1 x_r1_g26 <= 0 ;
1 p_r1_g26_h164_t29 -1 x_r1_g164 <= 0 ;
1 p_r1_g26_h164_t29 -1 x_r1_g26 -1 x_r1_g164 >= -1 ;
1 p_r1_g44_h15_t29 -1 x_r1_g44 <= 0 ;
1 p_r1_g44_h15_t29 -1 x_r1_g15 <= 0 ;
1 p_r1_g44_h15_t29 -1 x_r1_g44 -1 x_r1_g15 >= -1 ;
1 p_r1_g67_h38_t29 -1 x_r1_g67 <= 0 ;
1 p_r1_g67_h38_t29 -1 x_r1_g38 <= 0 ;
1 p_r1_g67_h38_t29 -1 x_r1_g67 -1 x_r1_g38 >= -1 ;
1 p_r1_g93_h64_t29 -1 x_r1_g93 <= 0 ;
1 p_r1_g93_h64_t29 -1 x_r1_g64 <= 0 ;
1 p_r1_g93_h64_t29 -1 x_r1_g93 -1 x_r1_g64 >= -1 ;
1 p_r1_g96_h67_t29 -1 x_r1_g96 <= 0 ;
1 p_r1_g96_h67_t29 -1 x_r1_g67 <= 0 ;
1 p_r1_g96_h67_t29 -1 x_r1_g96 -1 x_r1_g67 >= -1 ;
1 p_r1_g143_h114_t29 -1 x_r1_g143 <= 0 ;
1 p_r1_g143_h114_t29 -1 x_r1_g114 <= 0 ;
1 p_r1_g143_h114_t29 -1 x_r1_g143 -1 x_r1_g114 >= -1 ;
1 p_r1_g146_h117_t29 -1 x_r1_g146 <= 0 ;
1 p_r1_g146_h117_t29 -1 x_r1_g117 <= 0 ;
1 p_r1_g146_h117_t29 -1 x_r1_g146 -1 x_r1_g117 >= -1 ;
1 p_r1_g155_h126_t29 -1 x_r1_g155 <= 0 ;
1 p_r1_g155_h126_t29 -1 x_r1_g126 <= 0 ;
1 p_r1_g155_h126_t29 -1 x_r1_g155 -1 x_r1_g126 >= -1 ;
1 p_r1_g157_h128_t29 -1 x_r1_g157 <= 0 ;
1 p_r1_g157_h128_t29 -1 x_r1_g128 <= 0 ;
1 p_r1_g157_h128_t29 -1 x_r1_g157 -1 x_r1_g128 >= -1 ;
1 p_r1_g164_h135_t29 -1 x_r1_g164 <= 0 ;
1 p_r1_g164_h135_t29 -1 x_r1_g135 <= 0 ;
1 p_r1_g164_h135_t29 -1 x_r1_g164 -1 x_r1_g135 >= -1 ;
1 p_r2_g1_h139_t29 -1 x_r2_g1 <= 0 ;
1 p_r2_g1_h139_t29 -1 x_r2_g139 <= 0 ;
1 p_r2_g1_h139_t29 -1 x_r2_g1 -1 x_r2_g139 >= -1 ;
1 p_r2_g30_h1_t29 -1 x_r2_g30 <= 0 ;
1 p_r2_g30_h1_t29 -1 x_r2_g1 <= 0 ;
1 p_r2_g30_h1_t29 -1 x_r2_g30 -1 x_r2_g1 >= -1 ;
1 p_r2_g77_h48_t29 -1 x_r2_g77 <= 0 ;
1 p_r2_g77_h48_t29 -1 x_r2_g48 <= 0 ;
1 p_r2_g77_h48_t29 -1 x_r2_g77 -1 x_r2_g48 >= -1 ;
1 p_r2_g91_h62_t29 -1 x_r2_g91 <= 0 ;
1 p_r2_g91_h62_t29 -1 x_r2_g62 <= 0 ;
1 p_r2_g91_h62_t29 -1 x_r2_g91 -1 x_r2_g62 >= -1 ;
1 p_r2_g95_h66_t29 -1 x_r2_g95 <= 0 ;
1 p_r2_g95_h66_t29 -1 x_r2_g66 <= 0 ;
1 p_r2_g95_h66_t29 -1 x_r2_g95 -1 x_r2_g66 >= -1 ;
1 p_r2_g120_h91_t29 -1 x_r2_g120 <= 0 ;
1 p_r2_g120_h91_t29 -1 x_r2_g91 <= 0 ;
1 p_r2_g120_h91_t29 -1 x_r2_g120 -1 x_r2_g91 >= -1 ;
1 p_r2_g136_h107_t29 -1 x_r2_g136 <= 0 ;
1 p_r2_g136_h107_t29 -1 x_r2_g107 <= 0 ;
1 p_r2_g136_h107_t29 -1 x_r2_g136 -1 x_r2_g107 >= -1 ;
1 p_r2_g139_h110_t29 -1 x_r2_g139 <= 0 ;
1 p_r2_g139_h110_t29 -1 x_r2_g110 <= 0 ;
1 p_r2_g139_h110_t29 -1 x_r2_g139 -1 x_r2_g110 >= -1 ;
1 p_r2_g149_h120_t29 -1 x_r2_g149 <= 0 ;
1 p_r2_g149_h120_t29 -1 x_r2_g120 <= 0 ;
1 p_r2_g149_h120_t29 -1 x_r2_g149 -1 x_r2_g120 >= -1 ;
1 p_r2_g159_h130_t29 -1 x_r2_g159 <= 0 ;
1 p_r2_g159_h130_t29 -1 x_r2_g130 <= 0 ;
1 p_r2_g159_h130_t29 -1 x_r2_g159 -1 x_r2_g130 >= -1 ;
1 p_r2_g165_h136_t29 -1 x_r2_g165 <= 0 ;
1 p_r2_g165_h136_t29 -1 x_r2_g136 <= 0 ;
1 p_r2_g165_h136_t29 -1 x_r2_g165 -1 x_r2_g136 >= -1 ;
1 p_r3_g3_h141_t29 -1 x_r3_g3 <= 0 ;
1 p_r3_g3_h141_t29 -1 x_r3_g141 <= 0 ;
1 p_r3_g3_h141_t29 -1 x_r3_g3 -1 x_r3_g141 >= -1 ;
1 p_r3_g7_h145_t29 -1 x_r3_g7 <= 0 ;
1 p_r3_g7_h145_t29 -1 x_r3_g145 <= 0 ;
1 p_r3_g7_h145_t29 -1 x_r3_g7 -1 x_r3_g145 >= -1 ;
1 p_r3_g27_h165_t29 -1 x_r3_g27 <= 0 ;
1 p_r3_g27_h165_t29 -1 x_r3_g165 <= 0 ;
1 p_r3_g27_h165_t29 -1 x_r3_g27 -1 x_r3_g165 >= -1 ;
1 p_r3_g36_h7_t29 -1 x_r3_g36 <= 0 ;
1 p_r3_g36_h7_t29 -1 x_r3_g7 <= 0 ;
1 p_r3_g36_h7_t29 -1 x_r3_g36 -1 x_r3_g7 >= -1 ;
1 p_r3_g53_h24_t29 -1 x_r3_g53 <= 0 ;
1 p_r3_g53_h24_t29 -1 x_r3_g24 <= 0 ;
1 p_r3_g53_h24_t29 -1 x_r3_g53 -1 x_r3_g24 >= -1 ;
1 p_r3_g65_h36_t29 -1 x_r3_g65 <= 0 ;
1 p_r3_g65_h36_t29 -1 x_r3_g36 <= 0 ;
1 p_r3_g65_h36_t29 -1 x_r3_g65 -1 x_r3_g36 >= -1 ;
1 p_r3_g86_h57_t29 -1 x_r3_g86 <= 0 ;
1 p_r3_g86_h57_t29 -1 x_r3_g57 <= 0 ;
1 p_r3_g86_h57_t29 -1 x_r3_g86 -1 x_r3_g57 >= -1 ;
1 p_r3_g94_h65_t29 -1 x_r3_g94 <= 0 ;
1 p_r3_g94_h65_t29 -1 x_r3_g65 <= 0 ;
1 p_r3_g94_h65_t29 -1 x_r3_g94 -1 x_r3_g65 >= -1 ;
1 p_r3_g105_h76_t29 -1 x_r3_g105 <= 0 ;
1 p_r3_g105_h76_t29 -1 x_r3_g76 <= 0 ;
1 p_r3_g105_h76_t29 -1 x_r3_g105 -1 x_r3_g76 >= -1 ;
1 p_r3_g123_h94_t29 -1 x_r3_g123 <= 0 ;
1 p_r3_g123_h94_t29 -1 x_r3_g94 <= 0 ;
1 p_r3_g123_h94_t29 -1 x_r3_g123 -1 x_r3_g94 >= -1 ;
1 p_r3_g141_h112_t29 -1 x_r3_g141 <= 0 ;
1 p_r3_g141_h112_t29 -1 x_r3_g112 <= 0 ;
1 p_r3_g141_h112_t29 -1 x_r3_g141 -1 x_r3_g112 >= -1 ;
1 d_29 -2 x_r0_g1 -1 x_r0_g4 -1 x_r0_g7 -1 x_r0_g9 -1 x_r0_g17 -2 x_r0_g20 -2 x_r0_g22 -1 x_r0_g26 -2 x_r0_g34 -1 x_r0_g35 -2 x_r0_g48 -1 x_r0_g54 -1 x_r0_g67 -2 x_r0_g69 -1 x_r0_g81 -2 x_r0_g84 -2 x_r0_g87 -1 x_r0_g88 -1 x_r0_g93 -1 x_r0_g123 -1 x_r0_g126 -1 x_r0_g130 -2 x_r0_g131 -1 x_r0_g132 -1 x_r0_g144 -1 x_r0_g153 -1 x_r1_g8 -1 x_r1_g11 -1 x_r1_g13 -1 x_r1_g17 -1 x_r1_g25 -1 x_r1_g41 -1 x_r1_g56 -1 x_r1_g59 -1 x_r1_g62 -1 x_r1_g75 -1 x_r1_g80 -2 x_r1_g86 -1 x_r1_g108 -1 x_r1_g110 -2 x_r1_g111 -1 x_r1_g113 -1 x_r1_g117 -1 x_r1_g161 -2 x_r2_g2 -1 x_r2_g60 -1 x_r2_g62 -1 x_r2_g64 -1 x_r2_g73 -1 x_r2_g86 -1 x_r2_g94 -1 x_r2_g100 -1 x_r2_g107 -1 x_r2_g128 -1 x_r2_g130 -2 x_r2_g131 -1 x_r2_g141 -2 x_r2_g142 -1 x_r2_g152 -1 x_r2_g155 -2 x_r2_g158 -1 x_r2_g159 -2 x_r2_g163 -2 x_r2_g164 -1 x_r2_g165 -1 x_r3_g3 -1 x_r3_g8 -2 x_r3_g11 -1 x_r3_g12 -1 x_r3_g13 -2 x_r3_g16 -1 x_r3_g24 -1 x_r3_g25 -2 x_r3_g33 -1 x_r3_g34 -1 x_r3_g57 -1 x_r3_g72 -1 x_r3_g76 -1 x_r3_g81 -2 x_r3_g103 -1 x_r3_g105 -1 x_r3_g111 -1 x_r3_g112 -1 x_r3_g113 -1 x_r3_g125 -1 x_r3_g128 -1 x_r3_g144 -2 x_r3_g147 -2 x_r3_g156 -1 p_r0_g46_h17_t29 -1 p_r0_g97_h68_t29 -1 p_r0_g126_h97_t29 -1 p_r0_g130_h101_t29 -1 p_r1_g8_h146_t29 -1 p_r1_g17_h155_t29 -1 p_r1_g26_h164_t29 -1 p_r1_g44_h15_t29 -1 p_r1_g67_h38_t29 -1 p_r1_g93_h64_t29 -1 p_r1_g96_h67_t29 -1 p_r1_g143_h114_t29 -1 p_r1_g146_h117_t29 -1 p_r1_g155_h126_t29 -1 p_r1_g157_h128_t29 -1 p_r1_g164_h135_t29 -1 p_r2_g1_h139_t29 -1 p_r2_g30_h1_t29 -1 p_r2_g77_h48_t29 -1 p_r2_g91_h62_t29 -1 p_r2_g95_h66_t29 -1 p_r2_g120_h91_t29 -1 p_r2_g136_h107_t29 -1 p_r2_g139_h110_t29 -1 p_r2_g149_h120_t29 -1 p_r2_g159_h130_t29 -1 p_r2_g165_h136_t29 -1 p_r3_g3_h141_t29 -1 p_r3_g7_h145_t29 -1 p_r3_g27_h165_t29 -1 p_r3_g36_h7_t29 -1 p_r3_g53_h24_t29 -1 p_r3_g65_h36_t29 -1 p_r3_g86_h57_t29 -1 p_r3_g94_h65_t29 -1 p_r3_g105_h76_t29 -1 p_r3_g123_h94_t29 -1 p_r3_g141_h112_t29 = -49 ;
1 d_29 -1 u_29 <= 0 ;
-1 d_29 -1 u_29 <= 0 ;
1 u_29 -1 M <= 0 ;
1 u_29 <= 2 ;
1 p_r0_g1_h131_t37 -1 x_r0_g1 <= 0 ;
1 p_r0_g1_h131_t37 -1 x_r0_g131 <= 0 ;
1 p_r0_g1_h131_t37 -1 x_r0_g1 -1 x_r0_g131 >= -1 ;
1 p_r0_g46_h9_t37 -1 x_r0_g46 <= 0 ;
1 p_r0_g46_h9_t37 -1 x_r0_g9 <= 0 ;
1 p_r0_g46_h9_t37 -1 x_r0_g46 -1 x_r0_g9 >= -1 ;
1 p_r0_g54_h17_t37 -1 x_r0_g54 <= 0 ;
1 p_r0_g54_h17_t37 -1 x_r0_g17 <= 0 ;
1 p_r0_g54_h17_t37 -1 x_r0_g54 -1 x_r0_g17 >= -1 ;
1 p_r0_g84_h47_t37 -1 x_r0_g84 <= 0 ;
1 p_r0_g84_h47_t37 -1 x_r0_g47 <= 0 ;
1 p_r0_g84_h47_t37 -1 x_r0_g84 -1 x_r0_g47 >= -1 ;
1 p_r0_g97_h60_t37 -1 x_r0_g97 <= 0 ;
1 p_r0_g97_h60_t37 -1 x_r0_g60 <= 0 ;
1 p_r0_g97_h60_t37 -1 x_r0_g97 -1 x_r0_g60 >= -1 ;
1 p_r0_g118_h81_t37 -1 x_r0_g118 <= 0 ;
1 p_r0_g118_h81_t37 -1 x_r0_g81 <= 0 ;
1 p_r0_g118_h81_t37 -1 x_r0_g118 -1 x_r0_g81 >= -1 ;
1 p_r0_g130_h93_t37 -1 x_r0_g130 <= 0 ;
1 p_r0_g130_h93_t37 -1 x_r0_g93 <= 0 ;
1 p_r0_g130_h93_t37 -1 x_r0_g130 -1 x_r0_g93 >= -1 ;
1 p_r1_g13_h143_t37 -1 x_r1_g13 <= 0 ;
1 p_r1_g13_h143_t37 -1 x_r1_g143 <= 0 ;
1 p_r1_g13_h143_t37 -1 x_r1_g13 -1 x_r1_g143 >= -1 ;
1 p_r1_g25_h155_t37 -1 x_r1_g25 <= 0 ;
1 p_r1_g25_h155_t37 -1 x_r1_g155 <= 0 ;
1 p_r1_g25_h155_t37 -1 x_r1_g25 -1 x_r1_g155 >= -1 ;
1 p_r1_g31_h161_t37 -1 x_r1_g31 <= 0 ;
1 p_r1_g31_h161_t37 -1 x_r1_g161 <= 0 ;
1 p_r1_g31_h161_t37 -1 x_r1_g31 -1 x_r1_g161 >= -1 ;
1 p_r1_g62_h25_t37 -1 x_r1_g62 <= 0 ;
1 p_r1_g62_h25_t37 -1 x_r1_g25 <= 0 ;
1 p_r1_g62_h25_t37 -1 x_r1_g62 -1 x_r1_g25 >= -1 ;
1 p_r1_g75_h38_t37 -1 x_r1_g75 <= 0 ;
1 p_r1_g75_h38_t37 -1 x_r1_g38 <= 0 ;
1 p_r1_g75_h38_t37 -1 x_r1_g75 -1 x_r1_g38 >= -1 ;
1 p_r1_g93_h56_t37 -1 x_r1_g93 <= 0 ;
1 p_r1_g93_h56_t37 -1 x_r1_g56 <= 0 ;
1 p_r1_g93_h56_t37 -1 x_r1_g93 -1 x_r1_g56 >= -1 ;
1 p_r1_g96_h59_t37 -1 x_r1_g96 <= 0 ;
1 p_r1_g96_h59_t37 -1 x_r1_g59 <= 0 ;
1 p_r1_g96_h59_t37 -1 x_r1_g96 -1 x_r1_g59 >= -1 ;
1 p_r1_g113_h76_t37 -1 x_r1_g113 <= 0 ;
1 p_r1_g113_h76_t37 -1 x_r1_g76 <= 0 ;
1 p_r1_g113_h76_t37 -1 x_r1_g113 -1 x_r1_g76 >= -1 ;
1 p_r1_g117_h80_t37 -1 x_r1_g117 <= 0 ;
1 p_r1_g117_h80_t37 -1 x_r1_g80 <= 0 ;
1 p_r1_g117_h80_t37 -1 x_r1_g117 -1 x_r1_g80 >= -1 ;
1 p_r1_g123_h86_t37 -1 x_r1_g123 <= 0 ;
1 p_r1_g123_h86_t37 -1 x_r1_g86 <= 0 ;
1 p_r1_g123_h86_t37 -1 x_r1_g123 -1 x_r1_g86 >= -1 ;
1 p_r1_g160_h123_t37 -1 x_r1_g160 <= 0 ;
1 p_r1_g160_h123_t37 -1 x_r1_g123 <= 0 ;
1 p_r1_g160_h123_t37 -1 x_r1_g160 -1 x_r1_g123 >= -1 ;
1 p_r2_g1_h131_t37 -1 x_r2_g1 <= 0 ;
1 p_r2_g1_h131_t37 -1 x_r2_g131 <= 0 ;
1 p_r2_g1_h131_t37 -1 x_r2_g1 -1 x_r2_g131 >= -1 ;
1 p_r2_g67_h30_t37 -1 x_r2_g67 <= 0 ;
1 p_r2_g67_h30_t37 -1 x_r2_g30 <= 0 ;
1 p_r2_g67_h30_t37 -1 x_r2_g67 -1 x_r2_g30 >= -1 ;
1 p_r2_g110_h73_t37 -1 x_r2_g110 <= 0 ;
1 p_r2_g110_h73_t37 -1 x_r2_g73 <= 0 ;
1 p_r2_g110_h73_t37 -1 x_r2_g110 -1 x_r2_g73 >= -1 ;
1 p_r2_g128_h91_t37 -1 x_r2_g128 <= 0 ;
1 p_r2_g128_h91_t37 -1 x_r2_g91 <= 0 ;
1 p_r2_g128_h91_t37 -1 x_r2_g128 -1 x_r2_g91 >= -1 ;
1 p_r2_g131_h94_t37 -1 x_r2_g131 <= 0 ;
1 p_r2_g131_h94_t37 -1 x_r2_g94 <= 0 ;
1 p_r2_g131_h94_t37 -1 x_r2_g131 -1 x_r2_g94 >= -1 ;
1 p_r2_g165_h128_t37 -1 x_r2_g165 <= 0 ;
1 p_r2_g165_h128_t37 -1 x_r2_g128 <= 0 ;
1 p_r2_g165_h128_t37 -1 x_r2_g165 -1 x_r2_g128 >= -1 ;
1 p_r3_g8_h138_t37 -1 x_r3_g8 <= 0 ;
1 p_r3_g8_h138_t37 -1 x_r3_g138 <= 0 ;
1 p_r3_g8_h138_t37 -1 x_r3_g8 -1 x_r3_g138 >= -1 ;
1 p_r3_g11_h141_t37 -1 x_r3_g11 <= 0 ;
1 p_r3_g11_h141_t37 -1 x_r3_g141 <= 0 ;
1 p_r3_g11_h141_t37 -1 x_r3_g11 -1 x_r3_g141 >= -1 ;
1 p_r3_g15_h145_t37 -1 x_r3_g15 <= 0 ;
1 p_r3_g15_h145_t37 -1 x_r3_g145 <= 0 ;
1 p_r3_g15_h145_t37 -1 x_r3_g15 -1 x_r3_g145 >= -1 ;
1 p_r3_g53_h16_t37 -1 x_r3_g53 <= 0 ;
1 p_r3_g53_h16_t37 -1 x_r3_g16 <= 0 ;
1 p_r3_g53_h16_t37 -1 x_r3_g53 -1 x_r3_g16 >= -1 ;
1 p_r3_g94_h57_t37 -1 x_r3_g94 <= 0 ;
1 p_r3_g94_h57_t37 -1 x_r3_g57 <= 0 ;
1 p_r3_g94_h57_t37 -1 x_r3_g94 -1 x_r3_g57 >= -1 ;
1 p_r3_g113_h76_t37 -1 x_r3_g113 <= 0 ;
1 p_r3_g113_h76_t37 -1 x_r3_g76 <= 0 ;
1 p_r3_g113_h76_t37 -1 x_r3_g113 -1 x_r3_g76 >= -1 ;
1 p_r3_g123_h86_t37 -1 x_r3_g123 <= 0 ;
1 p_r3_g123_h86_t37 -1 x_r3_g86 <= 0 ;
1 p_r3_g123_h86_t37 -1 x_r3_g123 -1 x_r3_g86 >= -1 ;
1 p_r3_g165_h128_t37 -1 x_r3_g165 <= 0 ;
1 p_r3_g165_h128_t37 -1 x_r3_g128 <= 0 ;
1 p_r3_g165_h128_t37 -1 x_r3_g165 -1 x_r3_g128 >= -1 ;
1 d_37 -1 x_r0_g1 -1 x_r0_g7 -1 x_r0_g9 -2 x_r0_g22 -1 x_r0_g26 -2 x_r0_g28 -1 x_r0_g35 -1 x_r0_g37 -1 x_r0_g48 -1 x_r0_g62 -1 x_r0_g67 -1 x_r0_g69 -2 x_r0_g79 -2 x_r0_g88 -1 x_r0_g118 -1 x_r0_g123 -1 x_r0_g126 -1 x_r0_g144 -1 x_r0_g153 -1 x_r0_g162 -1 x_r1_g8 -1 x_r1_g11 -1 x_r1_g26 -1 x_r1_g31 -1 x_r1_g38 -1 x_r1_g41 -1 x_r1_g44 -1 x_r1_g64 -1 x_r1_g75 -1 x_r1_g76 -1 x_r1_g86 -1 x_r1_g93 -1 x_r1_g117 -1 x_r1_g121 -2 x_r1_g126 -1 x_r1_g128 -1 x_r1_g135 -2 x_r1_g146 -1 x_r1_g157 -1 x_r1_g161 -1 x_r1_g164 -2 x_r2_g2 -1 x_r2_g18 -1 x_r2_g30 -1 x_r2_g48 -1 x_r2_g62 -2 x_r2_g64 -1 x_r2_g67 -1 x_r2_g77 -1 x_r2_g80 -1 x_r2_g82 -1 x_r2_g86 -2 x_r2_g95 -2 x_r2_g100 -1 x_r2_g107 -2 x_r2_g120 -2 x_r2_g130 -1 x_r2_g139 -1 x_r2_g141 -1 x_r2_g142 -1 x_r2_g149 -1 x_r2_g152 -1 x_r2_g155 -2 x_r2_g158 -1 x_r2_g159 -2 x_r2_g163 -1 x_r2_g164 -1 x_r3_g3 -1 x_r3_g7 -1 x_r3_g8 -2 x_r3_g12 -1 x_r3_g13 -1 x_r3_g19 -2 x_r3_g24 -1 x_r3_g25 -1 x_r3_g33 -1 x_r3_g36 -1 x_r3_g57 -1 x_r3_g65 -1 x_r3_g76 -1 x_r3_g81 -1 x_r3_g86 -2 x_r3_g103 -2 x_r3_g105 -2 x_r3_g111 -2 x_r3_g112 -1 x_r3_g123 -1 x_r3_g125 -1 x_r3_g145 -2 x_r3_g147 -2 x_r3_g156 -1 p_r0_g1_h131_t37 -1 p_r0_g46_h9_t37 -1 p_r0_g54_h17_t37 -1 p_r0_g84_h47_t37 -1 p_r0_g97_h60_t37 -1 p_r0_g118_h81_t37 -1 p_r0_g130_h93_t37 -1 p_r1_g13_h143_t37 -1 p_r1_g25_h155_t37 -1 p_r1_g31_h161_t37 -1 p_r1_g62_h25_t37 -1 p_r1_g75_h38_t37 -1 p_r1_g93_h56_t37 -1 p_r1_g96_h59_t37 -1 p_r1_g113_h76_t37 -1 p_r1_g117_h80_t37 -1 p_r1_g123_h86_t37 -1 p_r1_g160_h123_t37 -1 p_r2_g1_h131_t37 -1 p_r2_g67_h30_t37 -1 p_r2_g110_h73_t37 -1 p_r2_g128_h91_t37 -1 p_r2_g131_h94_t37 -1 p_r2_g165_h128_t37 -1 p_r3_g8_h138_t37 -1 p_r3_g11_h141_t37 -1 p_r3_g15_h145_t37 -1 p_r3_g53_h16_t37 -1 p_r3_g94_h57_t37 -1 p_r3_g113_h76_t37 -1 p_r3_g123_h86_t37 -1 p_r3_g165_h128_t37 = -55 ;
1 d_37 -1 u_37 <= 0 ;
-1 d_37 -1 u_37 <= 0 ;
1 u_37 -1 M <= 0 ;
1 u_37 <= 1 ;
1 p_r0_g1_h130_t38 -1 x_r0_g1 <= 0 ;
1 p_r0_g1_h130_t38 -1 x_r0_g130 <= 0 ;
1 p_r0_g1_h130_t38 -1 x_r0_g1 -1 x_r0_g130 >= -1 ;
1 p_r0_g17_h146_t38 -1 x_r0_g17 <= 0 ;
1 p_r0_g17_h146_t38 -1 x_r0_g146 <= 0 ;
1 p_r0_g17_h146_t38 -1 x_r0_g17 -1 x_r0_g146 >= -1 ;
1 p_r0_g47_h9_t38 -1 x_r0_g47 <= 0 ;
1 p_r0_g47_h9_t38 -1 x_r0_g9 <= 0 ;
1 p_r0_g47_h9_t38 -1 x_r0_g47 -1 x_r0_g9 >= -1 ;
1 p_r0_g60_h22_t38 -1 x_r0_g60 <= 0 ;
1 p_r0_g60_h22_t38 -1 x_r0_g22 <= 0 ;
1 p_r0_g60_h22_t38 -1 x_r0_g60 -1 x_r0_g22 >= -1 ;
1 p_r0_g84_h46_t38 -1 x_r0_g84 <= 0 ;
1 p_r0_g84_h46_t38 -1 x_r0_g46 <= 0 ;
1 p_r0_g84_h46_t38 -1 x_r0_g84 -1 x_r0_g46 >= -1 ;
1 p_r0_g126_h88_t38 -1 x_r0_g126 <= 0 ;
1 p_r0_g126_h88_t38 -1 x_r0_g88 <= 0 ;
1 p_r0_g126_h88_t38 -1 x_r0_g126 -1 x_r0_g88 >= -1 ;
1 p_r0_g131_h93_t38 -1 x_r0_g131 <= 0 ;
1 p_r0_g131_h93_t38 -1 x_r0_g93 <= 0 ;
1 p_r0_g131_h93_t38 -1 x_r0_g131 -1 x_r0_g93 >= -1 ;
1 p_r1_g17_h146_t38 -1 x_r1_g17 <= 0 ;
1 p_r1_g17_h146_t38 -1 x_r1_g146 <= 0 ;
1 p_r1_g17_h146_t38 -1 x_r1_g17 -1 x_r1_g146 >= -1 ;
1 p_r1_g26_h155_t38 -1 x_r1_g26 <= 0 ;
1 p_r1_g26_h155_t38 -1 x_r1_g155 <= 0 ;
1 p_r1_g26_h155_t38 -1 x_r1_g26 -1 x_r1_g155 >= -1 ;
1 p_r1_g31_h160_t38 -1 x_r1_g31 <= 0 ;
1 p_r1_g31_h160_t38 -1 x_r1_g160 <= 0 ;
1 p_r1_g31_h160_t38 -1 x_r1_g31 -1 x_r1_g160 >= -1 ;
1 p_r1_g64_h26_t38 -1 x_r1_g64 <= 0 ;
1 p_r1_g64_h26_t38 -1 x_r1_g26 <= 0 ;
1 p_r1_g64_h26_t38 -1 x_r1_g64 -1 x_r1_g26 >= -1 ;
1 p_r1_g76_h38_t38 -1 x_r1_g76 <= 0 ;
1 p_r1_g76_h38_t38 -1 x_r1_g38 <= 0 ;
1 p_r1_g76_h38_t38 -1 x_r1_g76 -1 x_r1_g38 >= -1 ;
1 p_r1_g113_h75_t38 -1 x_r1_g113 <= 0 ;
1 p_r1_g113_h75_t38 -1 x_r1_g75 <= 0 ;
1 p_r1_g113_h75_t38 -1 x_r1_g113 -1 x_r1_g75 >= -1 ;
1 p_r1_g114_h76_t38 -1 x_r1_g114 <= 0 ;
1 p_r1_g114_h76_t38 -1 x_r1_g76 <= 0 ;
1 p_r1_g114_h76_t38 -1 x_r1_g114 -1 x_r1_g76 >= -1 ;
1 p_r1_g146_h108_t38 -1 x_r1_g146 <= 0 ;
1 p_r1_g146_h108_t38 -1 x_r1_g108 <= 0 ;
1 p_r1_g146_h108_t38 -1 x_r1_g146 -1 x_r1_g108 >= -1 ;
1 p_r1_g155_h117_t38 -1 x_r1_g155 <= 0 ;
1 p_r1_g155_h117_t38 -1 x_r1_g117 <= 0 ;
1 p_r1_g155_h117_t38 -1 x_r1_g155 -1 x_r1_g117 >= -1 ;
1 p_r1_g161_h123_t38 -1 x_r1_g161 <= 0 ;
1 p_r1_g161_h123_t38 -1 x_r1_g123 <= 0 ;
1 p_r1_g161_h123_t38 -1 x_r1_g161 -1 x_r1_g123 >= -1 ;
1 p_r1_g164_h126_t38 -1 x_r1_g164 <= 0 ;
1 p_r1_g164_h126_t38 -1 x_r1_g126 <= 0 ;
1 p_r1_g164_h126_t38 -1 x_r1_g164 -1 x_r1_g126 >= -1 ;
1 p_r2_g1_h130_t38 -1 x_r2_g1 <= 0 ;
1 p_r2_g1_h130_t38 -1 x_r2_g130 <= 0 ;
1 p_r2_g1_h130_t38 -1 x_r2_g1 -1 x_r2_g130 >= -1 ;
1 p_r2_g2_h131_t38 -1 x_r2_g2 <= 0 ;
1 p_r2_g2_h131_t38 -1 x_r2_g131 <= 0 ;
1 p_r2_g2_h131_t38 -1 x_r2_g2 -1 x_r2_g131 >= -1 ;
1 p_r2_g30_h159_t38 -1 x_r2_g30 <= 0 ;
1 p_r2_g30_h159_t38 -1 x_r2_g159 <= 0 ;
1 p_r2_g30_h159_t38 -1 x_r2_g30 -1 x_r2_g159 >= -1 ;
1 p_r2_g86_h48_t38 -1 x_r2_g86 <= 0 ;
1 p_r2_g86_h48_t38 -1 x_r2_g48 <= 0 ;
1 p_r2_g86_h48_t38 -1 x_r2_g86 -1 x_r2_g48 >= -1 ;
1 p_r2_g100_h62_t38 -1 x_r2_g100 <= 0 ;
1 p_r2_g100_h62_t38 -1 x_r2_g62 <= 0 ;
1 p_r2_g100_h62_t38 -1 x_r2_g100 -1 x_r2_g62 >= -1 ;
1 p_r2_g120_h82_t38 -1 x_r2_g120 <= 0 ;
1 p_r2_g120_h82_t38 -1 x_r2_g82 <= 0 ;
1 p_r2_g120_h82_t38 -1 x_r2_g120 -1 x_r2_g82 >= -1 ;
1 p_r2_g158_h120_t38 -1 x_r2_g158 <= 0 ;
1 p_r2_g158_h120_t38 -1 x_r2_g120 <= 0 ;
1 p_r2_g158_h120_t38 -1 x_r2_g158 -1 x_r2_g120 >= -1 ;
1 p_r3_g12_h141_t38 -1 x_r3_g12 <= 0 ;
1 p_r3_g12_h141_t38 -1 x_r3_g141 <= 0 ;
1 p_r3_g12_h141_t38 -1 x_r3_g12 -1 x_r3_g141 >= -1 ;
1 p_r3_g15_h144_t38 -1 x_r3_g15 <= 0 ;
1 p_r3_g15_h144_t38 -1 x_r3_g144 <= 0 ;
1 p_r3_g15_h144_t38 -1 x_r3_g15 -1 x_r3_g144 >= -1 ;
1 p_r3_g16_h145_t38 -1 x_r3_g16 <= 0 ;
1 p_r3_g16_h145_t38 -1 x_r3_g145 <= 0 ;
1 p_r3_g16_h145_t38 -1 x_r3_g16 -1 x_r3_g145 >= -1 ;
1 p_r3_g27_h156_t38 -1 x_r3_g27 <= 0 ;
1 p_r3_g27_h156_t38 -1 x_r3_g156 <= 0 ;
1 p_r3_g27_h156_t38 -1 x_r3_g27 -1 x_r3_g156 >= -1 ;
1 p_r3_g36_h165_t38 -1 x_r3_g36 <= 0 ;
1 p_r3_g36_h165_t38 -1 x_r3_g165 <= 0 ;
1 p_r3_g36_h165_t38 -1 x_r3_g36 -1 x_r3_g165 >= -1 ;
1 p_r3_g53_h15_t38 -1 x_r3_g53 <= 0 ;
1 p_r3_g53_h15_t38 -1 x_r3_g15 <= 0 ;
1 p_r3_g53_h15_t38 -1 x_r3_g53 -1 x_r3_g15 >= -1 ;
1 p_r3_g57_h19_t38 -1 x_r3_g57 <= 0 ;
1 p_r3_g57_h19_t38 -1 x_r3_g19 <= 0 ;
1 p_r3_g57_h19_t38 -1 x_r3_g57 -1 x_r3_g19 >= -1 ;
1 p_r3_g65_h27_t38 -1 x_r3_g65 <= 0 ;
1 p_r3_g65_h27_t38 -1 x_r3_g27 <= 0 ;
1 p_r3_g65_h27_t38 -1 x_r3_g65 -1 x_r3_g27 >= -1 ;
1 p_r3_g72_h34_t38 -1 x_r3_g72 <= 0 ;
1 p_r3_g72_h34_t38 -1 x_r3_g34 <= 0 ;
1 p_r3_g72_h34_t38 -1 x_r3_g72 -1 x_r3_g34 >= -1 ;
1 p_r3_g103_h65_t38 -1 x_r3_g103 <= 0 ;
1 p_r3_g103_h65_t38 -1 x_r3_g65 <= 0 ;
1 p_r3_g103_h65_t38 -1 x_r3_g103 -1 x_r3_g65 >= -1 ;
1 p_r3_g124_h86_t38 -1 x_r3_g124 <= 0 ;
1 p_r3_g124_h86_t38 -1 x_r3_g86 <= 0 ;
1 p_r3_g124_h86_t38 -1 x_r3_g124 -1 x_r3_g86 >= -1 ;
1 p_r3_g141_h103_t38 -1 x_r3_g141 <= 0 ;
1 p_r3_g141_h103_t38 -1 x_r3_g103 <= 0 ;
1 p_r3_g141_h103_t38 -1 x_r3_g141 -1 x_r3_g103 >= -1 ;
1 d_38 -1 x_r0_g4 -2 x_r0_g7 -1 x_r0_g17 -2 x_r0_g20 -1 x_r0_g22 -1 x_r0_g26 -1 x_r0_g28 -1 x_r0_g34 -1 x_r0_g60 -1 x_r0_g62 -2 x_r0_g68 -2 x_r0_g81 -1 x_r0_g84 -2 x_r0_g87 -1 x_r0_g93 -1 x_r0_g97 -2 x_r0_g101 -1 x_r0_g132 -2 x_r0_g144 -1 x_r1_g8 -2 x_r1_g11 -1 x_r1_g15 -1 x_r1_g25 -1 x_r1_g31 -2 x_r1_g41 -1 x_r1_g44 -1 x_r1_g56 -1 x_r1_g62 -1 x_r1_g67 -1 x_r1_g75 -1 x_r1_g80 -1 x_r1_g86 -1 x_r1_g108 -1 x_r1_g117 -1 x_r1_g121 -1 x_r1_g126 -2 x_r1_g128 -1 x_r1_g157 -1 x_r1_g161 -1 x_r2_g1 -1 x_r2_g18 -1 x_r2_g30 -1 x_r2_g60 -2 x_r2_g64 -2 x_r2_g66 -1 x_r2_g67 -1 x_r2_g74 -2 x_r2_g77 -1 x_r2_g91 -2 x_r2_g94 -1 x_r2_g110 -1 x_r2_g128 -1 x_r2_g131 -2 x_r2_g136 -1 x_r2_g139 -1 x_r2_g142 -1 x_r2_g149 -1 x_r2_g152 -1 x_r2_g155 -1 x_r2_g159 -1 x_r2_g162 -1 x_r2_g163 -1 x_r2_g164 -2 x_r3_g3 -1 x_r3_g7 -2 x_r3_g8 -2 x_r3_g11 -1 x_r3_g13 -1 x_r3_g19 -1 x_r3_g24 -1 x_r3_g25 -1 x_r3_g33 -1 x_r3_g34 -1 x_r3_g36 -1 x_r3_g72 -1 x_r3_g76 -2 x_r3_g81 -1 x_r3_g94 -1 x_r3_g105 -1 x_r3_g111 -1 x_r3_g112 -2 x_r3_g113 -1 x_r3_g121 -1 x_r3_g124 -1 x_r3_g125 -1 x_r3_g128 -1 x_r3_g138 -1 x_r3_g144 -1 x_r3_g147 -1 x_r3_g156 -1 x_r3_g165 -1 p_r0_g1_h130_t38 -1 p_r0_g17_h146_t38 -1 p_r0_g47_h9_t38 -1 p_r0_g60_h22_t38 -1 p_r0_g84_h46_t38 -1 p_r0_g126_h88_t38 -1 p_r0_g131_h93_t38 -1 p_r1_g17_h146_t38 -1 p_r1_g26_h155_t38 -1 p_r1_g31_h160_t38 -1 p_r1_g64_h26_t38 -1 p_r1_g76_h38_t38 -1 p_r1_g113_h75_t38 -1 p_r1_g114_h76_t38 -1 p_r1_g146_h108_t38 -1 p_r1_g155_h117_t38 -1 p_r1_g161_h123_t38 -1 p_r1_g164_h126_t38 -1 p_r2_g1_h130_t38 -1 p_r2_g2_h131_t38 -1 p_r2_g30_h159_t38 -1 p_r2_g86_h48_t38 -1 p_r2_g100_h62_t38 -1 p_r2_g120_h82_t38 -1 p_r2_g158_h120_t38 -1 p_r3_g12_h141_t38 -1 p_r3_g15_h144_t38 -1 p_r3_g16_h145_t38 -1 p_r3_g27_h156_t38 -1 p_r3_g36_h165_t38 -1 p_r3_g53_h15_t38 -1 p_r3_g57_h19_t38 -1 p_r3_g65_h27_t38 -1 p_r3_g72_h34_t38 -1 p_r3_g103_h65_t38 -1 p_r3_g124_h86_t38 -1 p_r3_g141_h103_t38 = -65 ;
1 d_38 -1 u_38 <= 0 ;
-1 d_38 -1 u_38 <= 0 ;
1 u_38 -1 M <= 0 ;
1 u_38 <= 0 ;
1 p_r0_g4_h132_t39 -1 x_r0_g4 <= 0 ;
1 p_r0_g4_h132_t39 -1 x_r0_g132 <= 0 ;
1 p_r0_g4_h132_t39 -1 x_r0_g4 -1 x_r0_g132 >= -1 ;
1 p_r0_g34_h162_t39 -1 x_r0_g34 <= 0 ;
1 p_r0_g34_h162_t39 -1 x_r0_g162 <= 0 ;
1 p_r0_g34_h162_t39 -1 x_r0_g34 -1 x_r0_g162 >= -1 ;
1 p_r0_g46_h7_t39 -1 x_r0_g46 <= 0 ;
1 p_r0_g46_h7_t39 -1 x_r0_g7 <= 0 ;
1 p_r0_g46_h7_t39 -1 x_r0_g46 -1 x_r0_g7 >= -1 ;
1 p_r0_g48_h9_t39 -1 x_r0_g48 <= 0 ;
1 p_r0_g48_h9_t39 -1 x_r0_g9 <= 0 ;
1 p_r0_g48_h9_t39 -1 x_r0_g48 -1 x_r0_g9 >= -1 ;
1 p_r0_g67_h28_t39 -1 x_r0_g67 <= 0 ;
1 p_r0_g67_h28_t39 -1 x_r0_g28 <= 0 ;
1 p_r0_g67_h28_t39 -1 x_r0_g67 -1 x_r0_g28 >= -1 ;
1 p_r0_g87_h48_t39 -1 x_r0_g87 <= 0 ;
1 p_r0_g87_h48_t39 -1 x_r0_g48 <= 0 ;
1 p_r0_g87_h48_t39 -1 x_r0_g87 -1 x_r0_g48 >= -1 ;
1 p_r0_g93_h54_t39 -1 x_r0_g93 <= 0 ;
1 p_r0_g93_h54_t39 -1 x_r0_g54 <= 0 ;
1 p_r0_g93_h54_t39 -1 x_r0_g93 -1 x_r0_g54 >= -1 ;
1 p_r0_g101_h62_t39 -1 x_r0_g101 <= 0 ;
1 p_r0_g101_h62_t39 -1 x_r0_g62 <= 0 ;
1 p_r0_g101_h62_t39 -1 x_r0_g101 -1 x_r0_g62 >= -1 ;
1 p_r0_g118_h79_t39 -1 x_r0_g118 <= 0 ;
1 p_r0_g118_h79_t39 -1 x_r0_g79 <= 0 ;
1 p_r0_g118_h79_t39 -1 x_r0_g118 -1 x_r0_g79 >= -1 ;
1 p_r0_g123_h84_t39 -1 x_r0_g123 <= 0 ;
1 p_r0_g123_h84_t39 -1 x_r0_g84 <= 0 ;
1 p_r0_g123_h84_t39 -1 x_r0_g123 -1 x_r0_g84 >= -1 ;
1 p_r0_g126_h87_t39 -1 x_r0_g126 <= 0 ;
1 p_r0_g126_h87_t39 -1 x_r0_g87 <= 0 ;
1 p_r0_g126_h87_t39 -1 x_r0_g126 -1 x_r0_g87 >= -1 ;
1 p_r0_g132_h93_t39 -1 x_r0_g132 <= 0 ;
1 p_r0_g132_h93_t39 -1 x_r0_g93 <= 0 ;
1 p_r0_g132_h93_t39 -1 x_r0_g132 -1 x_r0_g93 >= -1 ;
1 p_r0_g162_h123_t39 -1 x_r0_g162 <= 0 ;
1 p_r0_g162_h123_t39 -1 x_r0_g123 <= 0 ;
1 p_r0_g162_h123_t39 -1 x_r0_g162 -1 x_r0_g123 >= -1 ;
1 p_r1_g15_h143_t39 -1 x_r1_g15 <= 0 ;
1 p_r1_g15_h143_t39 -1 x_r1_g143 <= 0 ;
1 p_r1_g15_h143_t39 -1 x_r1_g15 -1 x_r1_g143 >= -1 ;
1 p_r1_g56_h17_t39 -1 x_r1_g56 <= 0 ;
1 p_r1_g56_h17_t39 -1 x_r1_g17 <= 0 ;
1 p_r1_g56_h17_t39 -1 x_r1_g56 -1 x_r1_g17 >= -1 ;
1 p_r1_g64_h25_t39 -1 x_r1_g64 <= 0 ;
1 p_r1_g64_h25_t39 -1 x_r1_g25 <= 0 ;
1 p_r1_g64_h25_t39 -1 x_r1_g64 -1 x_r1_g25 >= -1 ;
1 p_r1_g80_h41_t39 -1 x_r1_g80 <= 0 ;
1 p_r1_g80_h41_t39 -1 x_r1_g41 <= 0 ;
1 p_r1_g80_h41_t39 -1 x_r1_g80 -1 x_r1_g41 >= -1 ;
1 p_r1_g114_h75_t39 -1 x_r1_g114 <= 0 ;
1 p_r1_g114_h75_t39 -1 x_r1_g75 <= 0 ;
1 p_r1_g114_h75_t39 -1 x_r1_g114 -1 x_r1_g75 >= -1 ;
1 p_r1_g135_h96_t39 -1 x_r1_g135 <= 0 ;
1 p_r1_g135_h96_t39 -1 x_r1_g96 <= 0 ;
1 p_r1_g135_h96_t39 -1 x_r1_g135 -1 x_r1_g96 >= -1 ;
1 p_r1_g160_h121_t39 -1 x_r1_g160 <= 0 ;
1 p_r1_g160_h121_t39 -1 x_r1_g121 <= 0 ;
1 p_r1_g160_h121_t39 -1 x_r1_g160 -1 x_r1_g121 >= -1 ;
1 p_r2_g2_h130_t39 -1 x_r2_g2 <= 0 ;
1 p_r2_g2_h130_t39 -1 x_r2_g130 <= 0 ;
1 p_r2_g2_h130_t39 -1 x_r2_g2 -1 x_r2_g130 >= -1 ;
1 p_r2_g18_h146_t39 -1 x_r2_g18 <= 0 ;
1 p_r2_g18_h146_t39 -1 x_r2_g146 <= 0 ;
1 p_r2_g18_h146_t39 -1 x_r2_g18 -1 x_r2_g146 >= -1 ;
1 p_r2_g30_h158_t39 -1 x_r2_g30 <= 0 ;
1 p_r2_g30_h158_t39 -1 x_r2_g158 <= 0 ;
1 p_r2_g30_h158_t39 -1 x_r2_g30 -1 x_r2_g158 >= -1 ;
1 p_r2_g130_h91_t39 -1 x_r2_g130 <= 0 ;
1 p_r2_g130_h91_t39 -1 x_r2_g91 <= 0 ;
1 p_r2_g130_h91_t39 -1 x_r2_g130 -1 x_r2_g91 >= -1 ;
1 p_r2_g139_h100_t39 -1 x_r2_g139 <= 0 ;
1 p_r2_g139_h100_t39 -1 x_r2_g100 <= 0 ;
1 p_r2_g139_h100_t39 -1 x_r2_g139 -1 x_r2_g100 >= -1 ;
1 p_r2_g146_h107_t39 -1 x_r2_g146 <= 0 ;
1 p_r2_g146_h107_t39 -1 x_r2_g107 <= 0 ;
1 p_r2_g146_h107_t39 -1 x_r2_g146 -1 x_r2_g107 >= -1 ;
1 p_r2_g149_h110_t39 -1 x_r2_g149 <= 0 ;
1 p_r2_g149_h110_t39 -1 x_r2_g110 <= 0 ;
1 p_r2_g149_h110_t39 -1 x_r2_g149 -1 x_r2_g110 >= -1 ;
1 p_r2_g159_h120_t39 -1 x_r2_g159 <= 0 ;
1 p_r2_g159_h120_t39 -1 x_r2_g120 <= 0 ;
1 p_r2_g159_h120_t39 -1 x_r2_g159 -1 x_r2_g120 >= -1 ;
1 p_r3_g13_h141_t39 -1 x_r3_g13 <= 0 ;
1 p_r3_g13_h141_t39 -1 x_r3_g141 <= 0 ;
1 p_r3_g13_h141_t39 -1 x_r3_g13 -1 x_r3_g141 >= -1 ;
1 p_r3_g16_h144_t39 -1 x_r3_g16 <= 0 ;
1 p_r3_g16_h144_t39 -1 x_r3_g144 <= 0 ;
1 p_r3_g16_h144_t39 -1 x_r3_g16 -1 x_r3_g144 >= -1 ;
1 p_r3_g19_h147_t39 -1 x_r3_g19 <= 0 ;
1 p_r3_g19_h147_t39 -1 x_r3_g147 <= 0 ;
1 p_r3_g19_h147_t39 -1 x_r3_g19 -1 x_r3_g147 >= -1 ;
1 p_r3_g72_h33_t39 -1 x_r3_g72 <= 0 ;
1 p_r3_g72_h33_t39 -1 x_r3_g33 <= 0 ;
1 p_r3_g72_h33_t39 -1 x_r3_g72 -1 x_r3_g33 >= -1 ;
1 p_r3_g111_h72_t39 -1 x_r3_g111 <= 0 ;
1 p_r3_g111_h72_t39 -1 x_r3_g72 <= 0 ;
1 p_r3_g111_h72_t39 -1 x_r3_g111 -1 x_r3_g72 >= -1 ;
1 p_r3_g125_h86_t39 -1 x_r3_g125 <= 0 ;
1 p_r3_g125_h86_t39 -1 x_r3_g86 <= 0 ;
1 p_r3_g125_h86_t39 -1 x_r3_g125 -1 x_r3_g86 >= -1 ;
1 p_r3_g144_h105_t39 -1 x_r3_g144 <= 0 ;
1 p_r3_g144_h105_t39 -1 x_r3_g105 <= 0 ;
1 p_r3_g144_h105_t39 -1 x_r3_g144 -1 x_r3_g105 >= -1 ;
1 d_39 -1 x_r0_g1 -1 x_r0_g4 -1 x_r0_g9 -1 x_r0_g20 -1 x_r0_g26 -2 x_r0_g35 -1 x_r0_g37 -1 x_r0_g54 -1 x_r0_g67 -1 x_r0_g69 -1 x_r0_g79 -2 x_r0_g81 -1 x_r0_g84 -2 x_r0_g88 -2 x_r0_g97 -1 x_r0_g118 -1 x_r0_g126 -1 x_r0_g131 -1 x_r0_g153 -1 x_r1_g13 -2 x_r1_g26 -2 x_r1_g31 -1 x_r1_g38 -1 x_r1_g56 -2 x_r1_g59 -1 x_r1_g64 -1 x_r1_g75 -2 x_r1_g76 -1 x_r1_g80 -1 x_r1_g93 -1 x_r1_g96 -1 x_r1_g108 -2 x_r1_g117 -1 x_r1_g121 -1 x_r1_g123 -1 x_r1_g126 -1 x_r1_g128 -2 x_r1_g146 -2 x_r1_g155 -1 x_r1_g157 -1 x_r1_g160 -1 x_r1_g164 -1 x_r2_g1 -1 x_r2_g2 -1 x_r2_g48 -1 x_r2_g60 -1 x_r2_g62 -1 x_r2_g64 -2 x_r2_g66 -1 x_r2_g67 -2 x_r2_g73 -1 x_r2_g74 -1 x_r2_g77 -2 x_r2_g80 -2 x_r2_g82 -2 x_r2_g95 -1 x_r2_g100 -1 x_r2_g107 -1 x_r2_g128 -1 x_r2_g141 -1 x_r2_g142 -1 x_r2_g149 -1 x_r2_g152 -2 x_r2_g155 -1 x_r2_g158 -1 x_r2_g159 -1 x_r2_g162 -1 x_r2_g165 -1 x_r3_g7 -1 x_r3_g8 -1 x_r3_g11 -1 x_r3_g12 -1 x_r3_g15 -1 x_r3_g16 -1 x_r3_g27 -1 x_r3_g34 -1 x_r3_g36 -1 x_r3_g57 -1 x_r3_g65 -1 x_r3_g76 -1 x_r3_g86 -1 x_r3_g94 -1 x_r3_g103 -1 x_r3_g105 -1 x_r3_g112 -1 x_r3_g113 -1 x_r3_g121 -1 x_r3_g123 -1 x_r3_g124 -1 x_r3_g128 -1 x_r3_g138 -2 x_r3_g145 -1 x_r3_g147 -1 x_r3_g156 -1 x_r3_g165 -1 p_r0_g4_h132_t39 -1 p_r0_g34_h162_t39 -1 p_r0_g46_h7_t39 -1 p_r0_g48_h9_t39 -1 p_r0_g67_h28_t39 -1 p_r0_g87_h48_t39 -1 p_r0_g93_h54_t39 -1 p_r0_g101_h62_t39 -1 p_r0_g118_h79_t39 -1 p_r0_g123_h84_t39 -1 p_r0_g126_h87_t39 -1 p_r0_g132_h93_t39 -1 p_r0_g162_h123_t39 -1 p_r1_g15_h143_t39 -1 p_r1_g56_h17_t39 -1 p_r1_g64_h25_t39 -1 p_r1_g80_h41_t39 -1 p_r1_g114_h75_t39 -1 p_r1_g135_h96_t39 -1 p_r1_g160_h121_t39 -1 p_r2_g2_h130_t39 -1 p_r2_g18_h146_t39 -1 p_r2_g30_h158_t39 -1 p_r2_g130_h91_t39 -1 p_r2_g139_h100_t39 -1 p_r2_g146_h107_t39 -1 p_r2_g149_h110_t39 -1 p_r2_g159_h120_t39 -1 p_r3_g13_h141_t39 -1 p_r3_g16_h144_t39 -1 p_r3_g19_h147_t39 -1 p_r3_g72_h33_t39 -1 p_r3_g111_h72_t39 -1 p_r3_g125_h86_t39 -1 p_r3_g144_h105_t39 = -56 ;
1 d_39 -1 u_39 <= 0 ;
-1 d_39 -1 u_39 <= 0 ;
1 u_39 -1 M <= 0 ;
1 u_39 <= 2 ;
1 p_r0_g7_h130_t44 -1 x_r0_g7 <= 0 ;
1 p_r0_g7_h130_t44 -1 x_r0_g130 <= 0 ;
1 p_r0_g7_h130_t44 -1 x_r0_g7 -1 x_r0_g130 >= -1 ;
1 p_r0_g9_h132_t44 -1 x_r0_g9 <= 0 ;
1 p_r0_g9_h132_t44 -1 x_r0_g132 <= 0 ;
1 p_r0_g9_h132_t44 -1 x_r0_g9 -1 x_r0_g132 >= -1 ;
1 p_r0_g48_h4_t44 -1 x_r0_g48 <= 0 ;
1 p_r0_g48_h4_t44 -1 x_r0_g4 <= 0 ;
1 p_r0_g48_h4_t44 -1 x_r0_g48 -1 x_r0_g4 >= -1 ;
1 p_r0_g70_h26_t44 -1 x_r0_g70 <= 0 ;
1 p_r0_g70_h26_t44 -1 x_r0_g26 <= 0 ;
1 p_r0_g70_h26_t44 -1 x_r0_g70 -1 x_r0_g26 >= -1 ;
1 p_r0_g79_h35_t44 -1 x_r0_g79 <= 0 ;
1 p_r0_g79_h35_t44 -1 x_r0_g35 <= 0 ;
1 p_r0_g79_h35_t44 -1 x_r0_g79 -1 x_r0_g35 >= -1 ;
1 p_r0_g81_h37_t44 -1 x_r0_g81 <= 0 ;
1 p_r0_g81_h37_t44 -1 x_r0_g37 <= 0 ;
1 p_r0_g81_h37_t44 -1 x_r0_g81 -1 x_r0_g37 >= -1 ;
1 p_r0_g123_h79_t44 -1 x_r0_g123 <= 0 ;
1 p_r0_g123_h79_t44 -1 x_r0_g79 <= 0 ;
1 p_r0_g123_h79_t44 -1 x_r0_g123 -1 x_r0_g79 >= -1 ;
1 p_r0_g131_h87_t44 -1 x_r0_g131 <= 0 ;
1 p_r0_g131_h87_t44 -1 x_r0_g87 <= 0 ;
1 p_r0_g131_h87_t44 -1 x_r0_g131 -1 x_r0_g87 >= -1 ;
1 p_r0_g132_h88_t44 -1 x_r0_g132 <= 0 ;
1 p_r0_g132_h88_t44 -1 x_r0_g88 <= 0 ;
1 p_r0_g132_h88_t44 -1 x_r0_g132 -1 x_r0_g88 >= -1 ;
1 p_r0_g162_h118_t44 -1 x_r0_g162 <= 0 ;
1 p_r0_g162_h118_t44 -1 x_r0_g118 <= 0 ;
1 p_r0_g162_h118_t44 -1 x_r0_g162 -1 x_r0_g118 >= -1 ;
1 p_r1_g38_h161_t44 -1 x_r1_g38 <= 0 ;
1 p_r1_g38_h161_t44 -1 x_r1_g161 <= 0 ;
1 p_r1_g38_h161_t44 -1 x_r1_g38 -1 x_r1_g161 >= -1 ;
1 p_r1_g41_h164_t44 -1 x_r1_g41 <= 0 ;
1 p_r1_g41_h164_t44 -1 x_r1_g164 <= 0 ;
1 p_r1_g41_h164_t44 -1 x_r1_g41 -1 x_r1_g164 >= -1 ;
1 p_r1_g59_h15_t44 -1 x_r1_g59 <= 0 ;
1 p_r1_g59_h15_t44 -1 x_r1_g15 <= 0 ;
1 p_r1_g59_h15_t44 -1 x_r1_g59 -1 x_r1_g15 >= -1 ;
1 p_r1_g75_h31_t44 -1 x_r1_g75 <= 0 ;
1 p_r1_g75_h31_t44 -1 x_r1_g31 <= 0 ;
1 p_r1_g75_h31_t44 -1 x_r1_g75 -1 x_r1_g31 >= -1 ;
1 p_r1_g108_h64_t44 -1 x_r1_g108 <= 0 ;
1 p_r1_g108_h64_t44 -1 x_r1_g64 <= 0 ;
1 p_r1_g108_h64_t44 -1 x_r1_g108 -1 x_r1_g64 >= -1 ;
1 p_r1_g111_h67_t44 -1 x_r1_g111 <= 0 ;
1 p_r1_g111_h67_t44 -1 x_r1_g67 <= 0 ;
1 p_r1_g111_h67_t44 -1 x_r1_g111 -1 x_r1_g67 >= -1 ;
1 p_r1_g155_h111_t44 -1 x_r1_g155 <= 0 ;
1 p_r1_g155_h111_t44 -1 x_r1_g111 <= 0 ;
1 p_r1_g155_h111_t44 -1 x_r1_g155 -1 x_r1_g111 >= -1 ;
1 p_r1_g157_h113_t44 -1 x_r1_g157 <= 0 ;
1 p_r1_g157_h113_t44 -1 x_r1_g113 <= 0 ;
1 p_r1_g157_h113_t44 -1 x_r1_g157 -1 x_r1_g113 >= -1 ;
1 p_r1_g161_h117_t44 -1 x_r1_g161 <= 0 ;
1 p_r1_g161_h117_t44 -1 x_r1_g117 <= 0 ;
1 p_r1_g161_h117_t44 -1 x_r1_g161 -1 x_r1_g117 >= -1 ;
1 p_r2_g18_h141_t44 -1 x_r2_g18 <= 0 ;
1 p_r2_g18_h141_t44 -1 x_r2_g141 <= 0 ;
1 p_r2_g18_h141_t44 -1 x_r2_g18 -1 x_r2_g141 >= -1 ;
1 p_r2_g62_h18_t44 -1 x_r2_g62 <= 0 ;
1 p_r2_g62_h18_t44 -1 x_r2_g18 <= 0 ;
1 p_r2_g62_h18_t44 -1 x_r2_g62 -1 x_r2_g18 >= -1 ;
1 p_r2_g74_h30_t44 -1 x_r2_g74 <= 0 ;
1 p_r2_g74_h30_t44 -1 x_r2_g30 <= 0 ;
1 p_r2_g74_h30_t44 -1 x_r2_g74 -1 x_r2_g30 >= -1 ;
1 p_r2_g110_h66_t44 -1 x_r2_g110 <= 0 ;
1 p_r2_g110_h66_t44 -1 x_r2_g66 <= 0 ;
1 p_r2_g110_h66_t44 -1 x_r2_g110 -1 x_r2_g66 >= -1 ;
1 p_r2_g130_h86_t44 -1 x_r2_g130 <= 0 ;
1 p_r2_g130_h86_t44 -1 x_r2_g86 <= 0 ;
1 p_r2_g130_h86_t44 -1 x_r2_g130 -1 x_r2_g86 >= -1 ;
1 p_r2_g139_h95_t44 -1 x_r2_g139 <= 0 ;
1 p_r2_g139_h95_t44 -1 x_r2_g95 <= 0 ;
1 p_r2_g139_h95_t44 -1 x_r2_g139 -1 x_r2_g95 >= -1 ;
1 p_r2_g164_h120_t44 -1 x_r2_g164 <= 0 ;
1 p_r2_g164_h120_t44 -1 x_r2_g120 <= 0 ;
1 p_r2_g164_h120_t44 -1 x_r2_g164 -1 x_r2_g120 >= -1 ;
1 p_r3_g15_h138_t44 -1 x_r3_g15 <= 0 ;
1 p_r3_g15_h138_t44 -1 x_r3_g138 <= 0 ;
1 p_r3_g15_h138_t44 -1 x_r3_g15 -1 x_r3_g138 >= -1 ;
1 p_r3_g24_h147_t44 -1 x_r3_g24 <= 0 ;
1 p_r3_g24_h147_t44 -1 x_r3_g147 <= 0 ;
1 p_r3_g24_h147_t44 -1 x_r3_g24 -1 x_r3_g147 >= -1 ;
1 p_r3_g33_h156_t44 -1 x_r3_g33 <= 0 ;
1 p_r3_g33_h156_t44 -1 x_r3_g156 <= 0 ;
1 p_r3_g33_h156_t44 -1 x_r3_g33 -1 x_r3_g156 >= -1 ;
1 p_r3_g57_h13_t44 -1 x_r3_g57 <= 0 ;
1 p_r3_g57_h13_t44 -1 x_r3_g13 <= 0 ;
1 p_r3_g57_h13_t44 -1 x_r3_g57 -1 x_r3_g13 >= -1 ;
1 p_r3_g125_h81_t44 -1 x_r3_g125 <= 0 ;
1 p_r3_g125_h81_t44 -1 x_r3_g81 <= 0 ;
1 p_r3_g125_h81_t44 -1 x_r3_g125 -1 x_r3_g81 >= -1 ;
1 p_r3_g138_h94_t44 -1 x_r3_g138 <= 0 ;
1 p_r3_g138_h94_t44 -1 x_r3_g94 <= 0 ;
1 p_r3_g138_h94_t44 -1 x_r3_g138 -1 x_r3_g94 >= -1 ;
1 p_r3_g147_h103_t44 -1 x_r3_g147 <= 0 ;
1 p_r3_g147_h103_t44 -1 x_r3_g103 <= 0 ;
1 p_r3_g147_h103_t44 -1 x_r3_g147 -1 x_r3_g103 >= -1 ;
1 p_r3_g156_h112_t44 -1 x_r3_g156 <= 0 ;
1 p_r3_g156_h112_t44 -1 x_r3_g112 <= 0 ;
1 p_r3_g156_h112_t44 -1 x_r3_g156 -1 x_r3_g112 >= -1 ;
1 p_r3_g165_h121_t44 -1 x_r3_g165 <= 0 ;
1 p_r3_g165_h121_t44 -1 x_r3_g121 <= 0 ;
1 p_r3_g165_h121_t44 -1 x_r3_g165 -1 x_r3_g121 >= -1 ;
1 d_44 -1 x_r0_g1 -1 x_r0_g4 -1 x_r0_g7 -1 x_r0_g20 -1 x_r0_g26 -1 x_r0_g28 -1 x_r0_g34 -1 x_r0_g35 -1 x_r0_g37 -1 x_r0_g46 -1 x_r0_g47 -1 x_r0_g54 -1 x_r0_g62 -2 x_r0_g69 -1 x_r0_g81 -1 x_r0_g84 -1 x_r0_g87 -2 x_r0_g93 -1 x_r0_g118 -1 x_r0_g126 -1 x_r0_g144 -1 x_r0_g146 -1 x_r0_g153 -1 x_r1_g13 -1 x_r1_g15 -1 x_r1_g17 -1 x_r1_g25 -1 x_r1_g26 -1 x_r1_g31 -1 x_r1_g38 -1 x_r1_g44 -1 x_r1_g56 -1 x_r1_g59 -1 x_r1_g62 -1 x_r1_g64 -1 x_r1_g75 -1 x_r1_g76 -2 x_r1_g80 -2 x_r1_g86 -1 x_r1_g93 -1 x_r1_g96 -2 x_r1_g110 -1 x_r1_g113 -1 x_r1_g114 -1 x_r1_g123 -2 x_r1_g126 -1 x_r1_g128 -1 x_r1_g135 -1 x_r1_g143 -1 x_r1_g155 -2 x_r1_g160 -1 x_r2_g2 -1 x_r2_g30 -1 x_r2_g48 -1 x_r2_g60 -1 x_r2_g64 -2 x_r2_g77 -1 x_r2_g82 -1 x_r2_g91 -1 x_r2_g100 -2 x_r2_g107 -1 x_r2_g130 -1 x_r2_g131 -1 x_r2_g142 -1 x_r2_g146 -2 x_r2_g149 -1 x_r2_g158 -1 x_r2_g159 -1 x_r2_g162 -1 x_r2_g163 -1 x_r2_g164 -1 x_r2_g165 -1 x_r3_g3 -2 x_r3_g11 -1 x_r3_g15 -1 x_r3_g16 -1 x_r3_g19 -1 x_r3_g24 -1 x_r3_g25 -1 x_r3_g33 -1 x_r3_g34 -1 x_r3_g36 -1 x_r3_g53 -1 x_r3_g72 -1 x_r3_g76 -1 x_r3_g81 -1 x_r3_g103 -2 x_r3_g105 -1 x_r3_g112 -1 x_r3_g121 -2 x_r3_g124 -1 x_r3_g125 -1 x_r3_g128 -1 x_r3_g141 -1 x_r3_g145 -1 p_r0_g7_h130_t44 -1 p_r0_g9_h132_t44 -1 p_r0_g48_h4_t44 -1 p_r0_g70_h26_t44 -1 p_r0_g79_h35_t44 -1 p_r0_g81_h37_t44 -1 p_r0_g123_h79_t44 -1 p_r0_g131_h87_t44 -1 p_r0_g132_h88_t44 -1 p_r0_g162_h118_t44 -1 p_r1_g38_h161_t44 -1 p_r1_g41_h164_t44 -1 p_r1_g59_h15_t44 -1 p_r1_g75_h31_t44 -1 p_r1_g108_h64_t44 -1 p_r1_g111_h67_t44 -1 p_r1_g155_h111_t44 -1 p_r1_g157_h113_t44 -1 p_r1_g161_h117_t44 -1 p_r2_g18_h141_t44 -1 p_r2_g62_h18_t44 -1 p_r2_g74_h30_t44 -1 p_r2_g110_h66_t44 -1 p_r2_g130_h86_t44 -1 p_r2_g139_h95_t44 -1 p_r2_g164_h120_t44 -1 p_r3_g15_h138_t44 -1 p_r3_g24_h147_t44 -1 p_r3_g33_h156_t44 -1 p_r3_g57_h13_t44 -1 p_r3_g125_h81_t44 -1 p_r3_g138_h94_t44 -1 p_r3_g147_h103_t44 -1 p_r3_g156_h112_t44 -1 p_r3_g165_h121_t44 = -53 ;
1 d_44 -1 u_44 <= 0 ;
-1 d_44 -1 u_44 <= 0 ;
1 u_44 -1 M <= 0 ;
1 u_44 <= 1 ;
1 p_r0_g9_h118_t58 -1 x_r0_g9 <= 0 ;
1 p_r0_g9_h118_t58 -1 x_r0_g118 <= 0 ;
1 p_r0_g9_h118_t58 -1 x_r0_g9 -1 x_r0_g118 >= -1 ;
1 p_r0_g17_h126_t58 -1 x_r0_g17 <= 0 ;
1 p_r0_g17_h126_t58 -1 x_r0_g126 <= 0 ;
1 p_r0_g17_h126_t58 -1 x_r0_g17 -1 x_r0_g126 >= -1 ;
1 p_r0_g22_h131_t58 -1 x_r0_g22 <= 0 ;
1 p_r0_g22_h131_t58 -1 x_r0_g131 <= 0 ;
1 p_r0_g22_h131_t58 -1 x_r0_g22 -1 x_r0_g131 >= -1 ;
1 p_r0_g35_h144_t58 -1 x_r0_g35 <= 0 ;
1 p_r0_g35_h144_t58 -1 x_r0_g144 <= 0 ;
1 p_r0_g35_h144_t58 -1 x_r0_g35 -1 x_r0_g144 >= -1 ;
1 p_r0_g37_h146_t58 -1 x_r0_g37 <= 0 ;
1 p_r0_g37_h146_t58 -1 x_r0_g146 <= 0 ;
1 p_r0_g37_h146_t58 -1 x_r0_g37 -1 x_r0_g146 >= -1 ;
1 p_r0_g62_h4_t58 -1 x_r0_g62 <= 0 ;
1 p_r0_g62_h4_t58 -1 x_r0_g4 <= 0 ;
1 p_r0_g62_h4_t58 -1 x_r0_g62 -1 x_r0_g4 >= -1 ;
1 p_r0_g67_h9_t58 -1 x_r0_g67 <= 0 ;
1 p_r0_g67_h9_t58 -1 x_r0_g9 <= 0 ;
1 p_r0_g67_h9_t58 -1 x_r0_g67 -1 x_r0_g9 >= -1 ;
1 p_r0_g84_h26_t58 -1 x_r0_g84 <= 0 ;
1 p_r0_g84_h26_t58 -1 x_r0_g26 <= 0 ;
1 p_r0_g84_h26_t58 -1 x_r0_g84 -1 x_r0_g26 >= -1 ;
1 p_r0_g93_h35_t58 -1 x_r0_g93 <= 0 ;
1 p_r0_g93_h35_t58 -1 x_r0_g35 <= 0 ;
1 p_r0_g93_h35_t58 -1 x_r0_g93 -1 x_r0_g35 >= -1 ;
1 p_r0_g118_h60_t58 -1 x_r0_g118 <= 0 ;
1 p_r0_g118_h60_t58 -1 x_r0_g60 <= 0 ;
1 p_r0_g118_h60_t58 -1 x_r0_g118 -1 x_r0_g60 >= -1 ;
1 p_r0_g126_h68_t58 -1 x_r0_g126 <= 0 ;
1 p_r0_g126_h68_t58 -1 x_r0_g68 <= 0 ;
1 p_r0_g126_h68_t58 -1 x_r0_g126 -1 x_r0_g68 >= -1 ;
1 p_r0_g146_h88_t58 -1 x_r0_g146 <= 0 ;
1 p_r0_g146_h88_t58 -1 x_r0_g88 <= 0 ;
1 p_r0_g146_h88_t58 -1 x_r0_g146 -1 x_r0_g88 >= -1 ;
1 p_r1_g8_h117_t58 -1 x_r1_g8 <= 0 ;
1 p_r1_g8_h117_t58 -1 x_r1_g117 <= 0 ;
1 p_r1_g8_h117_t58 -1 x_r1_g8 -1 x_r1_g117 >= -1 ;
1 p_r1_g17_h126_t58 -1 x_r1_g17 <= 0 ;
1 p_r1_g17_h126_t58 -1 x_r1_g126 <= 0 ;
1 p_r1_g17_h126_t58 -1 x_r1_g17 -1 x_r1_g126 >= -1 ;
1 p_r1_g26_h135_t58 -1 x_r1_g26 <= 0 ;
1 p_r1_g26_h135_t58 -1 x_r1_g135 <= 0 ;
1 p_r1_g26_h135_t58 -1 x_r1_g26 -1 x_r1_g135 >= -1 ;
1 p_r1_g75_h17_t58 -1 x_r1_g75 <= 0 ;
1 p_r1_g75_h17_t58 -1 x_r1_g17 <= 0 ;
1 p_r1_g75_h17_t58 -1 x_r1_g75 -1 x_r1_g17 >= -1 ;
1 p_r1_g96_h38_t58 -1 x_r1_g96 <= 0 ;
1 p_r1_g96_h38_t58 -1 x_r1_g38 <= 0 ;
1 p_r1_g96_h38_t58 -1 x_r1_g96 -1 x_r1_g38 >= -1 ;
1 p_r1_g114_h56_t58 -1 x_r1_g114 <= 0 ;
1 p_r1_g114_h56_t58 -1 x_r1_g56 <= 0 ;
1 p_r1_g114_h56_t58 -1 x_r1_g114 -1 x_r1_g56 >= -1 ;
1 p_r1_g117_h59_t58 -1 x_r1_g117 <= 0 ;
1 p_r1_g117_h59_t58 -1 x_r1_g59 <= 0 ;
1 p_r1_g117_h59_t58 -1 x_r1_g117 -1 x_r1_g59 >= -1 ;
1 p_r2_g1_h110_t58 -1 x_r2_g1 <= 0 ;
1 p_r2_g1_h110_t58 -1 x_r2_g110 <= 0 ;
1 p_r2_g1_h110_t58 -1 x_r2_g1 -1 x_r2_g110 >= -1 ;
1 p_r2_g30_h139_t58 -1 x_r2_g30 <= 0 ;
1 p_r2_g30_h139_t58 -1 x_r2_g139 <= 0 ;
1 p_r2_g30_h139_t58 -1 x_r2_g30 -1 x_r2_g139 >= -1 ;
1 p_r2_g60_h2_t58 -1 x_r2_g60 <= 0 ;
1 p_r2_g60_h2_t58 -1 x_r2_g2 <= 0 ;
1 p_r2_g60_h2_t58 -1 x_r2_g60 -1 x_r2_g2 >= -1 ;
1 p_r2_g120_h62_t58 -1 x_r2_g120 <= 0 ;
1 p_r2_g120_h62_t58 -1 x_r2_g62 <= 0 ;
1 p_r2_g120_h62_t58 -1 x_r2_g120 -1 x_r2_g62 >= -1 ;
1 p_r2_g131_h73_t58 -1 x_r2_g131 <= 0 ;
1 p_r2_g131_h73_t58 -1 x_r2_g73 <= 0 ;
1 p_r2_g131_h73_t58 -1 x_r2_g131 -1 x_r2_g73 >= -1 ;
1 p_r2_g149_h91_t58 -1 x_r2_g149 <= 0 ;
1 p_r2_g149_h91_t58 -1 x_r2_g91 <= 0 ;
1 p_r2_g149_h91_t58 -1 x_r2_g149 -1 x_r2_g91 >= -1 ;
1 p_r2_g152_h94_t58 -1 x_r2_g152 <= 0 ;
1 p_r2_g152_h94_t58 -1 x_r2_g94 <= 0 ;
1 p_r2_g152_h94_t58 -1 x_r2_g152 -1 x_r2_g94 >= -1 ;
1 p_r2_g158_h100_t58 -1 x_r2_g158 <= 0 ;
1 p_r2_g158_h100_t58 -1 x_r2_g100 <= 0 ;
1 p_r2_g158_h100_t58 -1 x_r2_g158 -1 x_r2_g100 >= -1 ;
1 p_r2_g165_h107_t58 -1 x_r2_g165 <= 0 ;
1 p_r2_g165_h107_t58 -1 x_r2_g107 <= 0 ;
1 p_r2_g165_h107_t58 -1 x_r2_g165 -1 x_r2_g107 >= -1 ;
1 p_r3_g3_h112_t58 -1 x_r3_g3 <= 0 ;
1 p_r3_g3_h112_t58 -1 x_r3_g112 <= 0 ;
1 p_r3_g3_h112_t58 -1 x_r3_g3 -1 x_r3_g112 >= -1 ;
1 p_r3_g12_h121_t58 -1 x_r3_g12 <= 0 ;
1 p_r3_g12_h121_t58 -1 x_r3_g121 <= 0 ;
1 p_r3_g12_h121_t58 -1 x_r3_g12 -1 x_r3_g121 >= -1 ;
1 p_r3_g15_h124_t58 -1 x_r3_g15 <= 0 ;
1 p_r3_g15_h124_t58 -1 x_r3_g124 <= 0 ;
1 p_r3_g15_h124_t58 -1 x_r3_g15 -1 x_r3_g124 >= -1 ;
1 p_r3_g16_h125_t58 -1 x_r3_g16 <= 0 ;
1 p_r3_g16_h125_t58 -1 x_r3_g125 <= 0 ;
1 p_r3_g16_h125_t58 -1 x_r3_g16 -1 x_r3_g125 >= -1 ;
1 p_r3_g19_h128_t58 -1 x_r3_g19 <= 0 ;
1 p_r3_g19_h128_t58 -1 x_r3_g128 <= 0 ;
1 p_r3_g19_h128_t58 -1 x_r3_g19 -1 x_r3_g128 >= -1 ;
1 p_r3_g36_h145_t58 -1 x_r3_g36 <= 0 ;
1 p_r3_g36_h145_t58 -1 x_r3_g145 <= 0 ;
1 p_r3_g36_h145_t58 -1 x_r3_g36 -1 x_r3_g145 >= -1 ;
1 p_r3_g65_h7_t58 -1 x_r3_g65 <= 0 ;
1 p_r3_g65_h7_t58 -1 x_r3_g7 <= 0 ;
1 p_r3_g65_h7_t58 -1 x_r3_g65 -1 x_r3_g7 >= -1 ;
1 p_r3_g94_h36_t58 -1 x_r3_g94 <= 0 ;
1 p_r3_g94_h36_t58 -1 x_r3_g36 <= 0 ;
1 p_r3_g94_h36_t58 -1 x_r3_g94 -1 x_r3_g36 >= -1 ;
1 p_r3_g111_h53_t58 -1 x_r3_g111 <= 0 ;
1 p_r3_g111_h53_t58 -1 x_r3_g53 <= 0 ;
1 p_r3_g111_h53_t58 -1 x_r3_g111 -1 x_r3_g53 >= -1 ;
1 p_r3_g123_h65_t58 -1 x_r3_g123 <= 0 ;
1 p_r3_g123_h65_t58 -1 x_r3_g65 <= 0 ;
1 p_r3_g123_h65_t58 -1 x_r3_g123 -1 x_r3_g65 >= -1 ;
1 p_r3_g144_h86_t58 -1 x_r3_g144 <= 0 ;
1 p_r3_g144_h86_t58 -1 x_r3_g86 <= 0 ;
1 p_r3_g144_h86_t58 -1 x_r3_g144 -1 x_r3_g86 >= -1 ;
1 d_58 -1 x_r0_g1 -1 x_r0_g4 -2 x_r0_g7 -1 x_r0_g28 -1 x_r0_g34 -1 x_r0_g46 -2 x_r0_g48 -1 x_r0_g54 -1 x_r0_g62 -1 x_r0_g67 -2 x_r0_g69 -1 x_r0_g70 -1 x_r0_g79 -1 x_r0_g81 -1 x_r0_g84 -1 x_r0_g88 -1 x_r0_g93 -1 x_r0_g97 -2 x_r0_g101 -2 x_r0_g123 -1 x_r0_g132 -1 x_r1_g8 -1 x_r1_g11 -1 x_r1_g15 -1 x_r1_g26 -2 x_r1_g31 -1 x_r1_g59 -1 x_r1_g76 -1 x_r1_g80 -1 x_r1_g96 -1 x_r1_g108 -1 x_r1_g110 -1 x_r1_g111 -1 x_r1_g123 -1 x_r1_g126 -1 x_r1_g128 -2 x_r1_g146 -1 x_r1_g155 -1 x_r1_g161 -1 x_r2_g48 -1 x_r2_g62 -1 x_r2_g64 -1 x_r2_g74 -1 x_r2_g77 -1 x_r2_g82 -1 x_r2_g86 -1 x_r2_g91 -1 x_r2_g95 -1 x_r2_g107 -1 x_r2_g128 -1 x_r2_g130 -2 x_r2_g136 -1 x_r2_g141 -1 x_r2_g142 -1 x_r2_g152 -1 x_r2_g155 -1 x_r2_g158 -1 x_r2_g159 -1 x_r2_g162 -1 x_r2_g163 -1 x_r2_g165 -1 x_r3_g3 -1 x_r3_g8 -1 x_r3_g13 -1 x_r3_g16 -1 x_r3_g19 -2 x_r3_g25 -1 x_r3_g33 -1 x_r3_g34 -1 x_r3_g53 -1 x_r3_g57 -2 x_r3_g76 -1 x_r3_g81 -1 x_r3_g86 -1 x_r3_g103 -2 x_r3_g105 -1 x_r3_g111 -2 x_r3_g113 -1 x_r3_g124 -1 x_r3_g138 -2 x_r3_g141 -2 x_r3_g147 -2 x_r3_g156 -1 p_r0_g9_h118_t58 -1 p_r0_g17_h126_t58 -1 p_r0_g22_h131_t58 -1 p_r0_g35_h144_t58 -1 p_r0_g37_h146_t58 -1 p_r0_g62_h4_t58 -1 p_r0_g67_h9_t58 -1 p_r0_g84_h26_t58 -1 p_r0_g93_h35_t58 -1 p_r0_g118_h60_t58 -1 p_r0_g126_h68_t58 -1 p_r0_g146_h88_t58 -1 p_r1_g8_h117_t58 -1 p_r1_g17_h126_t58 -1 p_r1_g26_h135_t58 -1 p_r1_g75_h17_t58 -1 p_r1_g96_h38_t58 -1 p_r1_g114_h56_t58 -1 p_r1_g117_h59_t58 -1 p_r2_g1_h110_t58 -1 p_r2_g30_h139_t58 -1 p_r2_g60_h2_t58 -1 p_r2_g120_h62_t58 -1 p_r2_g131_h73_t58 -1 p_r2_g149_h91_t58 -1 p_r2_g152_h94_t58 -1 p_r2_g158_h100_t58 -1 p_r2_g165_h107_t58 -1 p_r3_g3_h112_t58 -1 p_r3_g12_h121_t58 -1 p_r3_g15_h124_t58 -1 p_r3_g16_h125_t58 -1 p_r3_g19_h128_t58 -1 p_r3_g36_h145_t58 -1 p_r3_g65_h7_t58 -1 p_r3_g94_h36_t58 -1 p_r3_g111_h53_t58 -1 p_r3_g123_h65_t58 -1 p_r3_g144_h86_t58 = -65 ;
1 d_58 -1 u_58 <= 0 ;
-1 d_58 -1 u_58 <= 0 ;
1 u_58 -1 M <= 0 ;
1 u_58 <= 1 ;
1 p_r0_g26_h131_t62 -1 x_r0_g26 <= 0 ;
1 p_r0_g26_h131_t62 -1 x_r0_g131 <= 0 ;
1 p_r0_g26_h131_t62 -1 x_r0_g26 -1 x_r0_g131 >= -1 ;
1 p_r0_g48_h153_t62 -1 x_r0_g48 <= 0 ;
1 p_r0_g48_h153_t62 -1 x_r0_g153 <= 0 ;
1 p_r0_g48_h153_t62 -1 x_r0_g48 -1 x_r0_g153 >= -1 ;
1 p_r0_g69_h7_t62 -1 x_r0_g69 <= 0 ;
1 p_r0_g69_h7_t62 -1 x_r0_g7 <= 0 ;
1 p_r0_g69_h7_t62 -1 x_r0_g69 -1 x_r0_g7 >= -1 ;
1 p_r0_g79_h17_t62 -1 x_r0_g79 <= 0 ;
1 p_r0_g79_h17_t62 -1 x_r0_g17 <= 0 ;
1 p_r0_g79_h17_t62 -1 x_r0_g79 -1 x_r0_g17 >= -1 ;
1 p_r0_g84_h22_t62 -1 x_r0_g84 <= 0 ;
1 p_r0_g84_h22_t62 -1 x_r0_g22 <= 0 ;
1 p_r0_g84_h22_t62 -1 x_r0_g84 -1 x_r0_g22 >= -1 ;
1 p_r0_g88_h26_t62 -1 x_r0_g88 <= 0 ;
1 p_r0_g88_h26_t62 -1 x_r0_g26 <= 0 ;
1 p_r0_g88_h26_t62 -1 x_r0_g88 -1 x_r0_g26 >= -1 ;
1 p_r0_g97_h35_t62 -1 x_r0_g97 <= 0 ;
1 p_r0_g97_h35_t62 -1 x_r0_g35 <= 0 ;
1 p_r0_g97_h35_t62 -1 x_r0_g97 -1 x_r0_g35 >= -1 ;
1 p_r0_g130_h68_t62 -1 x_r0_g130 <= 0 ;
1 p_r0_g130_h68_t62 -1 x_r0_g68 <= 0 ;
1 p_r0_g130_h68_t62 -1 x_r0_g130 -1 x_r0_g68 >= -1 ;
1 p_r0_g131_h69_t62 -1 x_r0_g131 <= 0 ;
1 p_r0_g131_h69_t62 -1 x_r0_g69 <= 0 ;
1 p_r0_g131_h69_t62 -1 x_r0_g131 -1 x_r0_g69 >= -1 ;
1 p_r0_g132_h70_t62 -1 x_r0_g132 <= 0 ;
1 p_r0_g132_h70_t62 -1 x_r0_g70 <= 0 ;
1 p_r0_g132_h70_t62 -1 x_r0_g132 -1 x_r0_g70 >= -1 ;
1 p_r0_g146_h84_t62 -1 x_r0_g146 <= 0 ;
1 p_r0_g146_h84_t62 -1 x_r0_g84 <= 0 ;
1 p_r0_g146_h84_t62 -1 x_r0_g146 -1 x_r0_g84 >= -1 ;
1 p_r1_g8_h113_t62 -1 x_r1_g8 <= 0 ;
1 p_r1_g8_h113_t62 -1 x_r1_g113 <= 0 ;
1 p_r1_g8_h113_t62 -1 x_r1_g8 -1 x_r1_g113 >= -1 ;
1 p_r1_g38_h143_t62 -1 x_r1_g38 <= 0 ;
1 p_r1_g38_h143_t62 -1 x_r1_g143 <= 0 ;
1 p_r1_g38_h143_t62 -1 x_r1_g38 -1 x_r1_g143 >= -1 ;
1 p_r1_g41_h146_t62 -1 x_r1_g41 <= 0 ;
1 p_r1_g41_h146_t62 -1 x_r1_g146 <= 0 ;
1 p_r1_g41_h146_t62 -1 x_r1_g41 -1 x_r1_g146 >= -1 ;
1 p_r1_g56_h161_t62 -1 x_r1_g56 <= 0 ;
1 p_r1_g56_h161_t62 -1 x_r1_g161 <= 0 ;
1 p_r1_g56_h161_t62 -1 x_r1_g56 -1 x_r1_g161 >= -1 ;
1 p_r1_g59_h164_t62 -1 x_r1_g59 <= 0 ;
1 p_r1_g59_h164_t62 -1 x_r1_g164 <= 0 ;
1 p_r1_g59_h164_t62 -1 x_r1_g59 -1 x_r1_g164 >= -1 ;
1 p_r1_g75_h13_t62 -1 x_r1_g75 <= 0 ;
1 p_r1_g75_h13_t62 -1 x_r1_g13 <= 0 ;
1 p_r1_g75_h13_t62 -1 x_r1_g75 -1 x_r1_g13 >= -1 ;
1 p_r1_g93_h31_t62 -1 x_r1_g93 <= 0 ;
1 p_r1_g93_h31_t62 -1 x_r1_g31 <= 0 ;
1 p_r1_g93_h31_t62 -1 x_r1_g93 -1 x_r1_g31 >= -1 ;
1 p_r1_g121_h59_t62 -1 x_r1_g121 <= 0 ;
1 p_r1_g121_h59_t62 -1 x_r1_g59 <= 0 ;
1 p_r1_g121_h59_t62 -1 x_r1_g121 -1 x_r1_g59 >= -1 ;
1 p_r1_g126_h64_t62 -1 x_r1_g126 <= 0 ;
1 p_r1_g126_h64_t62 -1 x_r1_g64 <= 0 ;
1 p_r1_g126_h64_t62 -1 x_r1_g126 -1 x_r1_g64 >= -1 ;
1 p_r1_g155_h93_t62 -1 x_r1_g155 <= 0 ;
1 p_r1_g155_h93_t62 -1 x_r1_g93 <= 0 ;
1 p_r1_g155_h93_t62 -1 x_r1_g155 -1 x_r1_g93 >= -1 ;
1 p_r2_g2_h107_t62 -1 x_r2_g2 <= 0 ;
1 p_r2_g2_h107_t62 -1 x_r2_g107 <= 0 ;
1 p_r2_g2_h107_t62 -1 x_r2_g2 -1 x_r2_g107 >= -1 ;
1 p_r2_g60_h165_t62 -1 x_r2_g60 <= 0 ;
1 p_r2_g60_h165_t62 -1 x_r2_g165 <= 0 ;
1 p_r2_g60_h165_t62 -1 x_r2_g60 -1 x_r2_g165 >= -1 ;
1 p_r2_g64_h2_t62 -1 x_r2_g64 <= 0 ;
1 p_r2_g64_h2_t62 -1 x_r2_g2 <= 0 ;
1 p_r2_g64_h2_t62 -1 x_r2_g64 -1 x_r2_g2 >= -1 ;
1 p_r2_g80_h18_t62 -1 x_r2_g80 <= 0 ;
1 p_r2_g80_h18_t62 -1 x_r2_g18 <= 0 ;
1 p_r2_g80_h18_t62 -1 x_r2_g80 -1 x_r2_g18 >= -1 ;
1 p_r2_g110_h48_t62 -1 x_r2_g110 <= 0 ;
1 p_r2_g110_h48_t62 -1 x_r2_g48 <= 0 ;
1 p_r2_g110_h48_t62 -1 x_r2_g110 -1 x_r2_g48 >= -1 ;
1 p_r2_g128_h66_t62 -1 x_r2_g128 <= 0 ;
1 p_r2_g128_h66_t62 -1 x_r2_g66 <= 0 ;
1 p_r2_g128_h66_t62 -1 x_r2_g128 -1 x_r2_g66 >= -1 ;
1 p_r2_g136_h74_t62 -1 x_r2_g136 <= 0 ;
1 p_r2_g136_h74_t62 -1 x_r2_g74 <= 0 ;
1 p_r2_g136_h74_t62 -1 x_r2_g136 -1 x_r2_g74 >= -1 ;
1 p_r2_g139_h77_t62 -1 x_r2_g139 <= 0 ;
1 p_r2_g139_h77_t62 -1 x_r2_g77 <= 0 ;
1 p_r2_g139_h77_t62 -1 x_r2_g139 -1 x_r2_g77 >= -1 ;
1 p_r2_g142_h80_t62 -1 x_r2_g142 <= 0 ;
1 p_r2_g142_h80_t62 -1 x_r2_g80 <= 0 ;
1 p_r2_g142_h80_t62 -1 x_r2_g142 -1 x_r2_g80 >= -1 ;
1 p_r2_g162_h100_t62 -1 x_r2_g162 <= 0 ;
1 p_r2_g162_h100_t62 -1 x_r2_g100 <= 0 ;
1 p_r2_g162_h100_t62 -1 x_r2_g162 -1 x_r2_g100 >= -1 ;
1 p_r3_g7_h112_t62 -1 x_r3_g7 <= 0 ;
1 p_r3_g7_h112_t62 -1 x_r3_g112 <= 0 ;
1 p_r3_g7_h112_t62 -1 x_r3_g7 -1 x_r3_g112 >= -1 ;
1 p_r3_g8_h113_t62 -1 x_r3_g8 <= 0 ;
1 p_r3_g8_h113_t62 -1 x_r3_g113 <= 0 ;
1 p_r3_g8_h113_t62 -1 x_r3_g8 -1 x_r3_g113 >= -1 ;
1 p_r3_g16_h121_t62 -1 x_r3_g16 <= 0 ;
1 p_r3_g16_h121_t62 -1 x_r3_g121 <= 0 ;
1 p_r3_g16_h121_t62 -1 x_r3_g16 -1 x_r3_g121 >= -1 ;
1 p_r3_g19_h124_t62 -1 x_r3_g19 <= 0 ;
1 p_r3_g19_h124_t62 -1 x_r3_g124 <= 0 ;
1 p_r3_g19_h124_t62 -1 x_r3_g19 -1 x_r3_g124 >= -1 ;
1 p_r3_g33_h138_t62 -1 x_r3_g33 <= 0 ;
1 p_r3_g33_h138_t62 -1 x_r3_g138 <= 0 ;
1 p_r3_g33_h138_t62 -1 x_r3_g33 -1 x_r3_g138 >= -1 ;
1 p_r3_g36_h141_t62 -1 x_r3_g36 <= 0 ;
1 p_r3_g36_h141_t62 -1 x_r3_g141 <= 0 ;
1 p_r3_g36_h141_t62 -1 x_r3_g36 -1 x_r3_g141 >= -1 ;
1 p_r3_g65_h3_t62 -1 x_r3_g65 <= 0 ;
1 p_r3_g65_h3_t62 -1 x_r3_g3 <= 0 ;
1 p_r3_g65_h3_t62 -1 x_r3_g65 -1 x_r3_g3 >= -1 ;
1 p_r3_g81_h19_t62 -1 x_r3_g81 <= 0 ;
1 p_r3_g81_h19_t62 -1 x_r3_g19 <= 0 ;
1 p_r3_g81_h19_t62 -1 x_r3_g81 -1 x_r3_g19 >= -1 ;
1 p_r3_g86_h24_t62 -1 x_r3_g86 <= 0 ;
1 p_r3_g86_h24_t62 -1 x_r3_g24 <= 0 ;
1 p_r3_g86_h24_t62 -1 x_r3_g86 -1 x_r3_g24 >= -1 ;
1 p_r3_g138_h76_t62 -1 x_r3_g138 <= 0 ;
1 p_r3_g138_h76_t62 -1 x_r3_g76 <= 0 ;
1 p_r3_g138_h76_t62 -1 x_r3_g138 -1 x_r3_g76 >= -1 ;
1 p_r3_g156_h94_t62 -1 x_r3_g156 <= 0 ;
1 p_r3_g156_h94_t62 -1 x_r3_g94 <= 0 ;
1 p_r3_g156_h94_t62 -1 x_r3_g156 -1 x_r3_g94 >= -1 ;
1 p_r3_g165_h103_t62 -1 x_r3_g165 <= 0 ;
1 p_r3_g165_h103_t62 -1 x_r3_g103 <= 0 ;
1 p_r3_g165_h103_t62 -1 x_r3_g165 -1 x_r3_g103 >= -1 ;
1 d_62 -2 x_r0_g1 -1 x_r0_g17 -1 x_r0_g20 -1 x_r0_g22 -1 x_r0_g28 -1 x_r0_g34 -1 x_r0_g37 -1 x_r0_g46 -1 x_r0_g47 -2 x_r0_g54 -2 x_r0_g60 -1 x_r0_g67 -1 x_r0_g68 -2 x_r0_g81 -2 x_r0_g87 -1 x_r0_g93 -1 x_r0_g97 -1 x_r0_g101 -1 x_r0_g118 -1 x_r0_g130 -1 x_r0_g162 -1 x_r1_g8 -1 x_r1_g11 -1 x_r1_g17 -2 x_r1_g25 -1 x_r1_g26 -1 x_r1_g38 -1 x_r1_g41 -1 x_r1_g62 -1 x_r1_g76 -1 x_r1_g80 -2 x_r1_g108 -1 x_r1_g111 -1 x_r1_g121 -1 x_r1_g123 -1 x_r1_g128 -1 x_r1_g143 -1 x_r1_g146 -1 x_r1_g157 -1 x_r1_g160 -1 x_r2_g1 -1 x_r2_g30 -1 x_r2_g48 -1 x_r2_g60 -1 x_r2_g62 -1 x_r2_g64 -1 x_r2_g66 -1 x_r2_g67 -1 x_r2_g73 -1 x_r2_g82 -1 x_r2_g86 -1 x_r2_g91 -2 x_r2_g95 -1 x_r2_g120 -2 x_r2_g130 -1 x_r2_g131 -1 x_r2_g136 -1 x_r2_g139 -1 x_r2_g146 -1 x_r2_g149 -1 x_r2_g152 -1 x_r2_g155 -2 x_r2_g163 -1 x_r2_g164 -1 x_r3_g3 -1 x_r3_g12 -2 x_r3_g13 -1 x_r3_g15 -1 x_r3_g16 -1 x_r3_g24 -2 x_r3_g27 -1 x_r3_g34 -1 x_r3_g36 -2 x_r3_g57 -1 x_r3_g65 -1 x_r3_g72 -1 x_r3_g81 -1 x_r3_g86 -1 x_r3_g94 -1 x_r3_g103 -1 x_r3_g105 -2 x_r3_g111 -1 x_r3_g121 -2 x_r3_g123 -1 x_r3_g124 -1 x_r3_g125 -1 x_r3_g128 -1 x_r3_g144 -2 x_r3_g145 -1 p_r0_g26_h131_t62 -1 p_r0_g48_h153_t62 -1 p_r0_g69_h7_t62 -1 p_r0_g79_h17_t62 -1 p_r0_g84_h22_t62 -1 p_r0_g88_h26_t62 -1 p_r0_g97_h35_t62 -1 p_r0_g130_h68_t62 -1 p_r0_g131_h69_t62 -1 p_r0_g132_h70_t62 -1 p_r0_g146_h84_t62 -1 p_r1_g8_h113_t62 -1 p_r1_g38_h143_t62 -1 p_r1_g41_h146_t62 -1 p_r1_g56_h161_t62 -1 p_r1_g59_h164_t62 -1 p_r1_g75_h13_t62 -1 p_r1_g93_h31_t62 -1 p_r1_g121_h59_t62 -1 p_r1_g126_h64_t62 -1 p_r1_g155_h93_t62 -1 p_r2_g2_h107_t62 -1 p_r2_g60_h165_t62 -1 p_r2_g64_h2_t62 -1 p_r2_g80_h18_t62 -1 p_r2_g110_h48_t62 -1 p_r2_g128_h66_t62 -1 p_r2_g136_h74_t62 -1 p_r2_g139_h77_t62 -1 p_r2_g142_h80_t62 -1 p_r2_g162_h100_t62 -1 p_r3_g7_h112_t62 -1 p_r3_g8_h113_t62 -1 p_r3_g16_h121_t62 -1 p_r3_g19_h124_t62 -1 p_r3_g33_h138_t62 -1 p_r3_g36_h141_t62 -1 p_r3_g65_h3_t62 -1 p_r3_g81_h19_t62 -1 p_r3_g86_h24_t62 -1 p_r3_g138_h76_t62 -1 p_r3_g156_h94_t62 -1 p_r3_g165_h103_t62 = -64 ;
1 d_62 -1 u_62 <= 0 ;
-1 d_62 -1 u_62 <= 0 ;
1 u_62 -1 M <= 0 ;
1 u_62 <= 0 ;
1 p_r0_g20_h123_t64 -1 x_r0_g20 <= 0 ;
1 p_r0_g20_h123_t64 -1 x_r0_g123 <= 0 ;
1 p_r0_g20_h123_t64 -1 x_r0_g20 -1 x_r0_g123 >= -1 ;
1 p_r0_g28_h131_t64 -1 x_r0_g28 <= 0 ;
1 p_r0_g28_h131_t64 -1 x_r0_g131 <= 0 ;
1 p_r0_g28_h131_t64 -1 x_r0_g28 -1 x_r0_g131 >= -1 ;
1 p_r0_g68_h4_t64 -1 x_r0_g68 <= 0 ;
1 p_r0_g68_h4_t64 -1 x_r0_g4 <= 0 ;
1 p_r0_g68_h4_t64 -1 x_r0_g68 -1 x_r0_g4 >= -1 ;
1 p_r0_g81_h17_t64 -1 x_r0_g81 <= 0 ;
1 p_r0_g81_h17_t64 -1 x_r0_g17 <= 0 ;
1 p_r0_g81_h17_t64 -1 x_r0_g81 -1 x_r0_g17 >= -1 ;
1 p_r0_g84_h20_t64 -1 x_r0_g84 <= 0 ;
1 p_r0_g84_h20_t64 -1 x_r0_g20 <= 0 ;
1 p_r0_g84_h20_t64 -1 x_r0_g84 -1 x_r0_g20 >= -1 ;
1 p_r0_g101_h37_t64 -1 x_r0_g101 <= 0 ;
1 p_r0_g101_h37_t64 -1 x_r0_g37 <= 0 ;
1 p_r0_g101_h37_t64 -1 x_r0_g101 -1 x_r0_g37 >= -1 ;
1 p_r0_g118_h54_t64 -1 x_r0_g118 <= 0 ;
1 p_r0_g118_h54_t64 -1 x_r0_g54 <= 0 ;
1 p_r0_g118_h54_t64 -1 x_r0_g118 -1 x_r0_g54 >= -1 ;
1 p_r0_g126_h62_t64 -1 x_r0_g126 <= 0 ;
1 p_r0_g126_h62_t64 -1 x_r0_g62 <= 0 ;
1 p_r0_g126_h62_t64 -1 x_r0_g126 -1 x_r0_g62 >= -1 ;
1 p_r0_g131_h67_t64 -1 x_r0_g131 <= 0 ;
1 p_r0_g131_h67_t64 -1 x_r0_g67 <= 0 ;
1 p_r0_g131_h67_t64 -1 x_r0_g131 -1 x_r0_g67 >= -1 ;
1 p_r0_g132_h68_t64 -1 x_r0_g132 <= 0 ;
1 p_r0_g132_h68_t64 -1 x_r0_g68 <= 0 ;
1 p_r0_g132_h68_t64 -1 x_r0_g132 -1 x_r0_g68 >= -1 ;
1 p_r1_g8_h111_t64 -1 x_r1_g8 <= 0 ;
1 p_r1_g8_h111_t64 -1 x_r1_g111 <= 0 ;
1 p_r1_g8_h111_t64 -1 x_r1_g8 -1 x_r1_g111 >= -1 ;
1 p_r1_g11_h114_t64 -1 x_r1_g11 <= 0 ;
1 p_r1_g11_h114_t64 -1 x_r1_g114 <= 0 ;
1 p_r1_g11_h114_t64 -1 x_r1_g11 -1 x_r1_g114 >= -1 ;
1 p_r1_g25_h128_t64 -1 x_r1_g25 <= 0 ;
1 p_r1_g25_h128_t64 -1 x_r1_g128 <= 0 ;
1 p_r1_g25_h128_t64 -1 x_r1_g25 -1 x_r1_g128 >= -1 ;
1 p_r1_g75_h11_t64 -1 x_r1_g75 <= 0 ;
1 p_r1_g75_h11_t64 -1 x_r1_g11 <= 0 ;
1 p_r1_g75_h11_t64 -1 x_r1_g75 -1 x_r1_g11 >= -1 ;
1 p_r1_g108_h44_t64 -1 x_r1_g108 <= 0 ;
1 p_r1_g108_h44_t64 -1 x_r1_g44 <= 0 ;
1 p_r1_g108_h44_t64 -1 x_r1_g108 -1 x_r1_g44 >= -1 ;
1 p_r1_g123_h59_t64 -1 x_r1_g123 <= 0 ;
1 p_r1_g123_h59_t64 -1 x_r1_g59 <= 0 ;
1 p_r1_g123_h59_t64 -1 x_r1_g123 -1 x_r1_g59 >= -1 ;
1 p_r1_g126_h62_t64 -1 x_r1_g126 <= 0 ;
1 p_r1_g126_h62_t64 -1 x_r1_g62 <= 0 ;
1 p_r1_g126_h62_t64 -1 x_r1_g126 -1 x_r1_g62 >= -1 ;
1 p_r1_g128_h64_t64 -1 x_r1_g128 <= 0 ;
1 p_r1_g128_h64_t64 -1 x_r1_g64 <= 0 ;
1 p_r1_g128_h64_t64 -1 x_r1_g128 -1 x_r1_g64 >= -1 ;
1 p_r1_g157_h93_t64 -1 x_r1_g157 <= 0 ;
1 p_r1_g157_h93_t64 -1 x_r1_g93 <= 0 ;
1 p_r1_g157_h93_t64 -1 x_r1_g157 -1 x_r1_g93 >= -1 ;
1 p_r1_g160_h96_t64 -1 x_r1_g160 <= 0 ;
1 p_r1_g160_h96_t64 -1 x_r1_g96 <= 0 ;
1 p_r1_g160_h96_t64 -1 x_r1_g160 -1 x_r1_g96 >= -1 ;
1 p_r2_g60_h163_t64 -1 x_r2_g60 <= 0 ;
1 p_r2_g60_h163_t64 -1 x_r2_g163 <= 0 ;
1 p_r2_g60_h163_t64 -1 x_r2_g60 -1 x_r2_g163 >= -1 ;
1 p_r2_g62_h165_t64 -1 x_r2_g62 <= 0 ;
1 p_r2_g62_h165_t64 -1 x_r2_g165 <= 0 ;
1 p_r2_g62_h165_t64 -1 x_r2_g62 -1 x_r2_g165 >= -1 ;
1 p_r2_g66_h2_t64 -1 x_r2_g66 <= 0 ;
1 p_r2_g66_h2_t64 -1 x_r2_g2 <= 0 ;
1 p_r2_g66_h2_t64 -1 x_r2_g66 -1 x_r2_g2 >= -1 ;
1 p_r2_g82_h18_t64 -1 x_r2_g82 <= 0 ;
1 p_r2_g82_h18_t64 -1 x_r2_g18 <= 0 ;
1 p_r2_g82_h18_t64 -1 x_r2_g82 -1 x_r2_g18 >= -1 ;
1 p_r2_g94_h30_t64 -1 x_r2_g94 <= 0 ;
1 p_r2_g94_h30_t64 -1 x_r2_g30 <= 0 ;
1 p_r2_g94_h30_t64 -1 x_r2_g94 -1 x_r2_g30 >= -1 ;
1 p_r2_g128_h64_t64 -1 x_r2_g128 <= 0 ;
1 p_r2_g128_h64_t64 -1 x_r2_g64 <= 0 ;
1 p_r2_g128_h64_t64 -1 x_r2_g128 -1 x_r2_g64 >= -1 ;
1 p_r2_g130_h66_t64 -1 x_r2_g130 <= 0 ;
1 p_r2_g130_h66_t64 -1 x_r2_g66 <= 0 ;
1 p_r2_g130_h66_t64 -1 x_r2_g130 -1 x_r2_g66 >= -1 ;
1 p_r2_g131_h67_t64 -1 x_r2_g131 <= 0 ;
1 p_r2_g131_h67_t64 -1 x_r2_g67 <= 0 ;
1 p_r2_g131_h67_t64 -1 x_r2_g131 -1 x_r2_g67 >= -1 ;
1 p_r2_g141_h77_t64 -1 x_r2_g141 <= 0 ;
1 p_r2_g141_h77_t64 -1 x_r2_g77 <= 0 ;
1 p_r2_g141_h77_t64 -1 x_r2_g141 -1 x_r2_g77 >= -1 ;
1 p_r2_g146_h82_t64 -1 x_r2_g146 <= 0 ;
1 p_r2_g146_h82_t64 -1 x_r2_g82 <= 0 ;
1 p_r2_g146_h82_t64 -1 x_r2_g146 -1 x_r2_g82 >= -1 ;
1 p_r2_g155_h91_t64 -1 x_r2_g155 <= 0 ;
1 p_r2_g155_h91_t64 -1 x_r2_g91 <= 0 ;
1 p_r2_g155_h91_t64 -1 x_r2_g155 -1 x_r2_g91 >= -1 ;
1 p_r2_g158_h94_t64 -1 x_r2_g158 <= 0 ;
1 p_r2_g158_h94_t64 -1 x_r2_g94 <= 0 ;
1 p_r2_g158_h94_t64 -1 x_r2_g158 -1 x_r2_g94 >= -1 ;
1 p_r2_g159_h95_t64 -1 x_r2_g159 <= 0 ;
1 p_r2_g159_h95_t64 -1 x_r2_g95 <= 0 ;
1 p_r2_g159_h95_t64 -1 x_r2_g159 -1 x_r2_g95 >= -1 ;
1 p_r2_g164_h100_t64 -1 x_r2_g164 <= 0 ;
1 p_r2_g164_h100_t64 -1 x_r2_g100 <= 0 ;
1 p_r2_g164_h100_t64 -1 x_r2_g164 -1 x_r2_g100 >= -1 ;
1 p_r3_g8_h111_t64 -1 x_r3_g8 <= 0 ;
1 p_r3_g8_h111_t64 -1 x_r3_g111 <= 0 ;
1 p_r3_g8_h111_t64 -1 x_r3_g8 -1 x_r3_g111 >= -1 ;
1 p_r3_g25_h128_t64 -1 x_r3_g25 <= 0 ;
1 p_r3_g25_h128_t64 -1 x_r3_g128 <= 0 ;
1 p_r3_g25_h128_t64 -1 x_r3_g25 -1 x_r3_g128 >= -1 ;
1 p_r3_g53_h156_t64 -1 x_r3_g53 <= 0 ;
1 p_r3_g53_h156_t64 -1 x_r3_g156 <= 0 ;
1 p_r3_g53_h156_t64 -1 x_r3_g53 -1 x_r3_g156 >= -1 ;
1 p_r3_g72_h8_t64 -1 x_r3_g72 <= 0 ;
1 p_r3_g72_h8_t64 -1 x_r3_g8 <= 0 ;
1 p_r3_g72_h8_t64 -1 x_r3_g72 -1 x_r3_g8 >= -1 ;
1 p_r3_g76_h12_t64 -1 x_r3_g76 <= 0 ;
1 p_r3_g76_h12_t64 -1 x_r3_g12 <= 0 ;
1 p_r3_g76_h12_t64 -1 x_r3_g76 -1 x_r3_g12 >= -1 ;
1 p_r3_g121_h57_t64 -1 x_r3_g121 <= 0 ;
1 p_r3_g121_h57_t64 -1 x_r3_g57 <= 0 ;
1 p_r3_g121_h57_t64 -1 x_r3_g121 -1 x_r3_g57 >= -1 ;
1 p_r3_g145_h81_t64 -1 x_r3_g145 <= 0 ;
1 p_r3_g145_h81_t64 -1 x_r3_g81 <= 0 ;
1 p_r3_g145_h81_t64 -1 x_r3_g145 -1 x_r3_g81 >= -1 ;
1 d_64 -1 x_r0_g1 -1 x_r0_g17 -1 x_r0_g22 -1 x_r0_g26 -2 x_r0_g34 -1 x_r0_g46 -1 x_r0_g48 -1 x_r0_g54 -1 x_r0_g60 -1 x_r0_g62 -1 x_r0_g67 -1 x_r0_g69 -1 x_r0_g70 -2 x_r0_g79 -1 x_r0_g87 -1 x_r0_g88 -1 x_r0_g93 -1 x_r0_g101 -1 x_r0_g118 -1 x_r0_g123 -1 x_r0_g146 -2 x_r0_g162 -1 x_r1_g13 -1 x_r1_g15 -1 x_r1_g17 -1 x_r1_g25 -1 x_r1_g26 -1 x_r1_g31 -1 x_r1_g38 -1 x_r1_g56 -1 x_r1_g67 -1 x_r1_g76 -1 x_r1_g80 -1 x_r1_g93 -1 x_r1_g96 -1 x_r1_g110 -2 x_r1_g113 -1 x_r1_g117 -2 x_r1_g121 -1 x_r1_g123 -1 x_r1_g135 -2 x_r1_g143 -1 x_r1_g146 -1 x_r1_g155 -1 x_r1_g160 -1 x_r1_g164 -2 x_r2_g1 -1 x_r2_g2 -1 x_r2_g18 -2 x_r2_g48 -1 x_r2_g62 -1 x_r2_g64 -1 x_r2_g73 -1 x_r2_g86 -1 x_r2_g91 -1 x_r2_g95 -2 x_r2_g107 -2 x_r2_g110 -1 x_r2_g120 -1 x_r2_g128 -1 x_r2_g130 -1 x_r2_g131 -1 x_r2_g136 -1 x_r2_g139 -2 x_r2_g142 -1 x_r2_g146 -2 x_r2_g149 -1 x_r2_g152 -1 x_r2_g159 -1 x_r2_g162 -1 x_r2_g164 -1 x_r2_g165 -1 x_r3_g3 -1 x_r3_g7 -1 x_r3_g11 -1 x_r3_g13 -1 x_r3_g15 -2 x_r3_g16 -2 x_r3_g19 -1 x_r3_g24 -1 x_r3_g25 -2 x_r3_g34 -1 x_r3_g36 -1 x_r3_g57 -2 x_r3_g65 -1 x_r3_g76 -1 x_r3_g81 -1 x_r3_g86 -1 x_r3_g94 -1 x_r3_g103 -2 x_r3_g105 -1 x_r3_g111 -1 x_r3_g112 -1 x_r3_g113 -1 x_r3_g121 -2 x_r3_g123 -2 x_r3_g125 -1 x_r3_g138 -2 x_r3_g141 -2 x_r3_g144 -1 x_r3_g147 -1 x_r3_g165 -1 p_r0_g20_h123_t64 -1 p_r0_g28_h131_t64 -1 p_r0_g68_h4_t64 -1 p_r0_g81_h17_t64 -1 p_r0_g84_h20_t64 -1 p_r0_g101_h37_t64 -1 p_r0_g118_h54_t64 -1 p_r0_g126_h62_t64 -1 p_r0_g131_h67_t64 -1 p_r0_g132_h68_t64 -1 p_r1_g8_h111_t64 -1 p_r1_g11_h114_t64 -1 p_r1_g25_h128_t64 -1 p_r1_g75_h11_t64 -1 p_r1_g108_h44_t64 -1 p_r1_g123_h59_t64 -1 p_r1_g126_h62_t64 -1 p_r1_g128_h64_t64 -1 p_r1_g157_h93_t64 -1 p_r1_g160_h96_t64 -1 p_r2_g60_h163_t64 -1 p_r2_g62_h165_t64 -1 p_r2_g66_h2_t64 -1 p_r2_g82_h18_t64 -1 p_r2_g94_h30_t64 -1 p_r2_g128_h64_t64 -1 p_r2_g130_h66_t64 -1 p_r2_g131_h67_t64 -1 p_r2_g141_h77_t64 -1 p_r2_g146_h82_t64 -1 p_r2_g155_h91_t64 -1 p_r2_g158_h94_t64 -1 p_r2_g159_h95_t64 -1 p_r2_g164_h100_t64 -1 p_r3_g8_h111_t64 -1 p_r3_g25_h128_t64 -1 p_r3_g53_h156_t64 -1 p_r3_g72_h8_t64 -1 p_r3_g76_h12_t64 -1 p_r3_g121_h57_t64 -1 p_r3_g145_h81_t64 = -78 ;
1 d_64 -1 u_64 <= 0 ;
-1 d_64 -1 u_64 <= 0 ;
1 u_64 -1 M <= 0 ;
1 u_64 <= 1 ;
1 p_r0_g20_h118_t69 -1 x_r0_g20 <= 0 ;
1 p_r0_g20_h118_t69 -1 x_r0_g118 <= 0 ;
1 p_r0_g20_h118_t69 -1 x_r0_g20 -1 x_r0_g118 >= -1 ;
1 p_r0_g28_h126_t69 -1 x_r0_g28 <= 0 ;
1 p_r0_g28_h126_t69 -1 x_r0_g126 <= 0 ;
1 p_r0_g28_h126_t69 -1 x_r0_g28 -1 x_r0_g126 >= -1 ;
1 p_r0_g34_h132_t69 -1 x_r0_g34 <= 0 ;
1 p_r0_g34_h132_t69 -1 x_r0_g132 <= 0 ;
1 p_r0_g34_h132_t69 -1 x_r0_g34 -1 x_r0_g132 >= -1 ;
1 p_r0_g46_h144_t69 -1 x_r0_g46 <= 0 ;
1 p_r0_g46_h144_t69 -1 x_r0_g144 <= 0 ;
1 p_r0_g46_h144_t69 -1 x_r0_g46 -1 x_r0_g144 >= -1 ;
1 p_r0_g48_h146_t69 -1 x_r0_g48 <= 0 ;
1 p_r0_g48_h146_t69 -1 x_r0_g146 <= 0 ;
1 p_r0_g48_h146_t69 -1 x_r0_g48 -1 x_r0_g146 >= -1 ;
1 p_r0_g70_h1_t69 -1 x_r0_g70 <= 0 ;
1 p_r0_g70_h1_t69 -1 x_r0_g1 <= 0 ;
1 p_r0_g70_h1_t69 -1 x_r0_g70 -1 x_r0_g1 >= -1 ;
1 p_r0_g97_h28_t69 -1 x_r0_g97 <= 0 ;
1 p_r0_g97_h28_t69 -1 x_r0_g28 <= 0 ;
1 p_r0_g97_h28_t69 -1 x_r0_g97 -1 x_r0_g28 >= -1 ;
1 p_r0_g123_h54_t69 -1 x_r0_g123 <= 0 ;
1 p_r0_g123_h54_t69 -1 x_r0_g54 <= 0 ;
1 p_r0_g123_h54_t69 -1 x_r0_g123 -1 x_r0_g54 >= -1 ;
1 p_r0_g131_h62_t69 -1 x_r0_g131 <= 0 ;
1 p_r0_g131_h62_t69 -1 x_r0_g62 <= 0 ;
1 p_r0_g131_h62_t69 -1 x_r0_g131 -1 x_r0_g62 >= -1 ;
1 p_r0_g153_h84_t69 -1 x_r0_g153 <= 0 ;
1 p_r0_g153_h84_t69 -1 x_r0_g84 <= 0 ;
1 p_r0_g153_h84_t69 -1 x_r0_g153 -1 x_r0_g84 >= -1 ;
1 p_r0_g162_h93_t69 -1 x_r0_g162 <= 0 ;
1 p_r0_g162_h93_t69 -1 x_r0_g93 <= 0 ;
1 p_r0_g162_h93_t69 -1 x_r0_g162 -1 x_r0_g93 >= -1 ;
1 p_r1_g13_h111_t69 -1 x_r1_g13 <= 0 ;
1 p_r1_g13_h111_t69 -1 x_r1_g111 <= 0 ;
1 p_r1_g13_h111_t69 -1 x_r1_g13 -1 x_r1_g111 >= -1 ;
1 p_r1_g15_h113_t69 -1 x_r1_g15 <= 0 ;
1 p_r1_g15_h113_t69 -1 x_r1_g113 <= 0 ;
1 p_r1_g15_h113_t69 -1 x_r1_g15 -1 x_r1_g113 >= -1 ;
1 p_r1_g25_h123_t69 -1 x_r1_g25 <= 0 ;
1 p_r1_g25_h123_t69 -1 x_r1_g123 <= 0 ;
1 p_r1_g25_h123_t69 -1 x_r1_g25 -1 x_r1_g123 >= -1 ;
1 p_r1_g59_h157_t69 -1 x_r1_g59 <= 0 ;
1 p_r1_g59_h157_t69 -1 x_r1_g157 <= 0 ;
1 p_r1_g59_h157_t69 -1 x_r1_g59 -1 x_r1_g157 >= -1 ;
1 p_r1_g62_h160_t69 -1 x_r1_g62 <= 0 ;
1 p_r1_g62_h160_t69 -1 x_r1_g160 <= 0 ;
1 p_r1_g62_h160_t69 -1 x_r1_g62 -1 x_r1_g160 >= -1 ;
1 p_r1_g80_h11_t69 -1 x_r1_g80 <= 0 ;
1 p_r1_g80_h11_t69 -1 x_r1_g11 <= 0 ;
1 p_r1_g80_h11_t69 -1 x_r1_g80 -1 x_r1_g11 >= -1 ;
1 p_r1_g86_h17_t69 -1 x_r1_g86 <= 0 ;
1 p_r1_g86_h17_t69 -1 x_r1_g17 <= 0 ;
1 p_r1_g86_h17_t69 -1 x_r1_g86 -1 x_r1_g17 >= -1 ;
1 p_r1_g110_h41_t69 -1 x_r1_g110 <= 0 ;
1 p_r1_g110_h41_t69 -1 x_r1_g41 <= 0 ;
1 p_r1_g110_h41_t69 -1 x_r1_g110 -1 x_r1_g41 >= -1 ;
1 p_r1_g113_h44_t69 -1 x_r1_g113 <= 0 ;
1 p_r1_g113_h44_t69 -1 x_r1_g44 <= 0 ;
1 p_r1_g113_h44_t69 -1 x_r1_g113 -1 x_r1_g44 >= -1 ;
1 p_r1_g128_h59_t69 -1 x_r1_g128 <= 0 ;
1 p_r1_g128_h59_t69 -1 x_r1_g59 <= 0 ;
1 p_r1_g128_h59_t69 -1 x_r1_g128 -1 x_r1_g59 >= -1 ;
1 p_r1_g155_h86_t69 -1 x_r1_g155 <= 0 ;
1 p_r1_g155_h86_t69 -1 x_r1_g86 <= 0 ;
1 p_r1_g155_h86_t69 -1 x_r1_g155 -1 x_r1_g86 >= -1 ;
1 p_r2_g2_h100_t69 -1 x_r2_g2 <= 0 ;
1 p_r2_g2_h100_t69 -1 x_r2_g100 <= 0 ;
1 p_r2_g2_h100_t69 -1 x_r2_g2 -1 x_r2_g100 >= -1 ;
1 p_r2_g30_h128_t69 -1 x_r2_g30 <= 0 ;
1 p_r2_g30_h128_t69 -1 x_r2_g128 <= 0 ;
1 p_r2_g30_h128_t69 -1 x_r2_g30 -1 x_r2_g128 >= -1 ;
1 p_r2_g48_h146_t69 -1 x_r2_g48 <= 0 ;
1 p_r2_g48_h146_t69 -1 x_r2_g146 <= 0 ;
1 p_r2_g48_h146_t69 -1 x_r2_g48 -1 x_r2_g146 >= -1 ;
1 p_r2_g60_h158_t69 -1 x_r2_g60 <= 0 ;
1 p_r2_g60_h158_t69 -1 x_r2_g158 <= 0 ;
1 p_r2_g60_h158_t69 -1 x_r2_g60 -1 x_r2_g158 >= -1 ;
1 p_r2_g64_h162_t69 -1 x_r2_g64 <= 0 ;
1 p_r2_g64_h162_t69 -1 x_r2_g162 <= 0 ;
1 p_r2_g64_h162_t69 -1 x_r2_g64 -1 x_r2_g162 >= -1 ;
1 p_r2_g66_h164_t69 -1 x_r2_g66 <= 0 ;
1 p_r2_g66_h164_t69 -1 x_r2_g164 <= 0 ;
1 p_r2_g66_h164_t69 -1 x_r2_g66 -1 x_r2_g164 >= -1 ;
1 p_r2_g67_h165_t69 -1 x_r2_g67 <= 0 ;
1 p_r2_g67_h165_t69 -1 x_r2_g165 <= 0 ;
1 p_r2_g67_h165_t69 -1 x_r2_g67 -1 x_r2_g165 >= -1 ;
1 p_r2_g131_h62_t69 -1 x_r2_g131 <= 0 ;
1 p_r2_g131_h62_t69 -1 x_r2_g62 <= 0 ;
1 p_r2_g131_h62_t69 -1 x_r2_g131 -1 x_r2_g62 >= -1 ;
1 p_r2_g136_h67_t69 -1 x_r2_g136 <= 0 ;
1 p_r2_g136_h67_t69 -1 x_r2_g67 <= 0 ;
1 p_r2_g136_h67_t69 -1 x_r2_g136 -1 x_r2_g67 >= -1 ;
1 p_r2_g142_h73_t69 -1 x_r2_g142 <= 0 ;
1 p_r2_g142_h73_t69 -1 x_r2_g73 <= 0 ;
1 p_r2_g142_h73_t69 -1 x_r2_g142 -1 x_r2_g73 >= -1 ;
1 p_r2_g146_h77_t69 -1 x_r2_g146 <= 0 ;
1 p_r2_g146_h77_t69 -1 x_r2_g77 <= 0 ;
1 p_r2_g146_h77_t69 -1 x_r2_g146 -1 x_r2_g77 >= -1 ;
1 p_r2_g149_h80_t69 -1 x_r2_g149 <= 0 ;
1 p_r2_g149_h80_t69 -1 x_r2_g80 <= 0 ;
1 p_r2_g149_h80_t69 -1 x_r2_g149 -1 x_r2_g80 >= -1 ;
1 p_r2_g155_h86_t69 -1 x_r2_g155 <= 0 ;
1 p_r2_g155_h86_t69 -1 x_r2_g86 <= 0 ;
1 p_r2_g155_h86_t69 -1 x_r2_g155 -1 x_r2_g86 >= -1 ;
1 p_r2_g163_h94_t69 -1 x_r2_g163 <= 0 ;
1 p_r2_g163_h94_t69 -1 x_r2_g94 <= 0 ;
1 p_r2_g163_h94_t69 -1 x_r2_g163 -1 x_r2_g94 >= -1 ;
1 p_r2_g164_h95_t69 -1 x_r2_g164 <= 0 ;
1 p_r2_g164_h95_t69 -1 x_r2_g95 <= 0 ;
1 p_r2_g164_h95_t69 -1 x_r2_g164 -1 x_r2_g95 >= -1 ;
1 p_r3_g7_h105_t69 -1 x_r3_g7 <= 0 ;
1 p_r3_g7_h105_t69 -1 x_r3_g105 <= 0 ;
1 p_r3_g7_h105_t69 -1 x_r3_g7 -1 x_r3_g105 >= -1 ;
1 p_r3_g13_h111_t69 -1 x_r3_g13 <= 0 ;
1 p_r3_g13_h111_t69 -1 x_r3_g111 <= 0 ;
1 p_r3_g13_h111_t69 -1 x_r3_g13 -1 x_r3_g111 >= -1 ;
1 p_r3_g15_h113_t69 -1 x_r3_g15 <= 0 ;
1 p_r3_g15_h113_t69 -1 x_r3_g113 <= 0 ;
1 p_r3_g15_h113_t69 -1 x_r3_g15 -1 x_r3_g113 >= -1 ;
1 p_r3_g25_h123_t69 -1 x_r3_g25 <= 0 ;
1 p_r3_g25_h123_t69 -1 x_r3_g123 <= 0 ;
1 p_r3_g25_h123_t69 -1 x_r3_g25 -1 x_r3_g123 >= -1 ;
1 p_r3_g27_h125_t69 -1 x_r3_g27 <= 0 ;
1 p_r3_g27_h125_t69 -1 x_r3_g125 <= 0 ;
1 p_r3_g27_h125_t69 -1 x_r3_g27 -1 x_r3_g125 >= -1 ;
1 p_r3_g72_h3_t69 -1 x_r3_g72 <= 0 ;
1 p_r3_g72_h3_t69 -1 x_r3_g3 <= 0 ;
1 p_r3_g72_h3_t69 -1 x_r3_g72 -1 x_r3_g3 >= -1 ;
1 p_r3_g76_h7_t69 -1 x_r3_g76 <= 0 ;
1 p_r3_g76_h7_t69 -1 x_r3_g7 <= 0 ;
1 p_r3_g76_h7_t69 -1 x_r3_g76 -1 x_r3_g7 >= -1 ;
1 p_r3_g81_h12_t69 -1 x_r3_g81 <= 0 ;
1 p_r3_g81_h12_t69 -1 x_r3_g12 <= 0 ;
1 p_r3_g81_h12_t69 -1 x_r3_g81 -1 x_r3_g12 >= -1 ;
1 p_r3_g94_h25_t69 -1 x_r3_g94 <= 0 ;
1 p_r3_g94_h25_t69 -1 x_r3_g25 <= 0 ;
1 p_r3_g94_h25_t69 -1 x_r3_g94 -1 x_r3_g25 >= -1 ;
1 p_r3_g103_h34_t69 -1 x_r3_g103 <= 0 ;
1 p_r3_g103_h34_t69 -1 x_r3_g34 <= 0 ;
1 p_r3_g103_h34_t69 -1 x_r3_g103 -1 x_r3_g34 >= -1 ;
1 p_r3_g105_h36_t69 -1 x_r3_g105 <= 0 ;
1 p_r3_g105_h36_t69 -1 x_r3_g36 <= 0 ;
1 p_r3_g105_h36_t69 -1 x_r3_g105 -1 x_r3_g36 >= -1 ;
1 p_r3_g141_h72_t69 -1 x_r3_g141 <= 0 ;
1 p_r3_g141_h72_t69 -1 x_r3_g72 <= 0 ;
1 p_r3_g141_h72_t69 -1 x_r3_g141 -1 x_r3_g72 >= -1 ;
1 p_r3_g145_h76_t69 -1 x_r3_g145 <= 0 ;
1 p_r3_g145_h76_t69 -1 x_r3_g76 <= 0 ;
1 p_r3_g145_h76_t69 -1 x_r3_g145 -1 x_r3_g76 >= -1 ;
1 d_69 -1 x_r0_g4 -1 x_r0_g22 -1 x_r0_g34 -1 x_r0_g37 -1 x_r0_g47 -1 x_r0_g54 -1 x_r0_g60 -1 x_r0_g62 -2 x_r0_g67 -1 x_r0_g68 -1 x_r0_g70 -1 x_r0_g81 -1 x_r0_g84 -2 x_r0_g88 -1 x_r0_g101 -1 x_r0_g118 -1 x_r0_g123 -1 x_r0_g132 -1 x_r0_g146 -1 x_r0_g153 -1 x_r1_g11 -1 x_r1_g13 -1 x_r1_g15 -1 x_r1_g17 -2 x_r1_g26 -1 x_r1_g31 -1 x_r1_g38 -1 x_r1_g56 -1 x_r1_g96 -2 x_r1_g108 -1 x_r1_g111 -1 x_r1_g114 -1 x_r1_g126 -2 x_r1_g135 -1 x_r1_g155 -1 x_r1_g157 -1 x_r1_g160 -2 x_r1_g164 -1 x_r2_g1 -2 x_r2_g18 -1 x_r2_g60 -1 x_r2_g62 -1 x_r2_g66 -1 x_r2_g73 -1 x_r2_g82 -1 x_r2_g91 -1 x_r2_g94 -1 x_r2_g95 -1 x_r2_g100 -1 x_r2_g110 -1 x_r2_g130 -1 x_r2_g131 -2 x_r2_g139 -1 x_r2_g141 -1 x_r2_g152 -2 x_r2_g159 -1 x_r2_g162 -1 x_r2_g163 -2 x_r3_g8 -1 x_r3_g11 -1 x_r3_g12 -1 x_r3_g24 -1 x_r3_g34 -1 x_r3_g36 -2 x_r3_g53 -2 x_r3_g65 -1 x_r3_g86 -1 x_r3_g94 -1 x_r3_g103 -1 x_r3_g112 -2 x_r3_g124 -2 x_r3_g128 -1 x_r3_g138 -1 x_r3_g141 -2 x_r3_g144 -1 x_r3_g145 -2 x_r3_g147 -1 p_r0_g20_h118_t69 -1 p_r0_g28_h126_t69 -1 p_r0_g34_h132_t69 -1 p_r0_g46_h144_t69 -1 p_r0_g48_h146_t69 -1 p_r0_g70_h1_t69 -1 p_r0_g97_h28_t69 -1 p_r0_g123_h54_t69 -1 p_r0_g131_h62_t69 -1 p_r0_g153_h84_t69 -1 p_r0_g162_h93_t69 -1 p_r1_g13_h111_t69 -1 p_r1_g15_h113_t69 -1 p_r1_g25_h123_t69 -1 p_r1_g59_h157_t69 -1 p_r1_g62_h160_t69 -1 p_r1_g80_h11_t69 -1 p_r1_g86_h17_t69 -1 p_r1_g110_h41_t69 -1 p_r1_g113_h44_t69 -1 p_r1_g128_h59_t69 -1 p_r1_g155_h86_t69 -1 p_r2_g2_h100_t69 -1 p_r2_g30_h128_t69 -1 p_r2_g48_h146_t69 -1 p_r2_g60_h158_t69 -1 p_r2_g64_h162_t69 -1 p_r2_g66_h164_t69 -1 p_r2_g67_h165_t69 -1 p_r2_g131_h62_t69 -1 p_r2_g136_h67_t69 -1 p_r2_g142_h73_t69 -1 p_r2_g146_h77_t69 -1 p_r2_g149_h80_t69 -1 p_r2_g155_h86_t69 -1 p_r2_g163_h94_t69 -1 p_r2_g164_h95_t69 -1 p_r3_g7_h105_t69 -1 p_r3_g13_h111_t69 -1 p_r3_g15_h113_t69 -1 p_r3_g25_h123_t69 -1 p_r3_g27_h125_t69 -1 p_r3_g72_h3_t69 -1 p_r3_g76_h7_t69 -1 p_r3_g81_h12_t69 -1 p_r3_g94_h25_t69 -1 p_r3_g103_h34_t69 -1 p_r3_g105_h36_t69 -1 p_r3_g141_h72_t69 -1 p_r3_g145_h76_t69 = -78 ;
1 d_69 -1 u_69 <= 0 ;
-1 d_69 -1 u_69 <= 0 ;
1 u_69 -1 M <= 0 ;
1 u_69 <= 2 ;
1 p_r0_g7_h101_t73 -1 x_r0_g7 <= 0 ;
1 p_r0_g7_h101_t73 -1 x_r0_g101 <= 0 ;
1 p_r0_g7_h101_t73 -1 x_r0_g7 -1 x_r0_g101 >= -1 ;
1 p_r0_g37_h131_t73 -1 x_r0_g37 <= 0 ;
1 p_r0_g37_h131_t73 -1 x_r0_g131 <= 0 ;
1 p_r0_g37_h131_t73 -1 x_r0_g37 -1 x_r0_g131 >= -1 ;
1 p_r0_g68_h162_t73 -1 x_r0_g68 <= 0 ;
1 p_r0_g68_h162_t73 -1 x_r0_g162 <= 0 ;
1 p_r0_g68_h162_t73 -1 x_r0_g68 -1 x_r0_g162 >= -1 ;
1 p_r0_g93_h20_t73 -1 x_r0_g93 <= 0 ;
1 p_r0_g93_h20_t73 -1 x_r0_g20 <= 0 ;
1 p_r0_g93_h20_t73 -1 x_r0_g93 -1 x_r0_g20 >= -1 ;
1 p_r0_g101_h28_t73 -1 x_r0_g101 <= 0 ;
1 p_r0_g101_h28_t73 -1 x_r0_g28 <= 0 ;
1 p_r0_g101_h28_t73 -1 x_r0_g101 -1 x_r0_g28 >= -1 ;
1 p_r1_g17_h111_t73 -1 x_r1_g17 <= 0 ;
1 p_r1_g17_h111_t73 -1 x_r1_g111 <= 0 ;
1 p_r1_g17_h111_t73 -1 x_r1_g17 -1 x_r1_g111 >= -1 ;
1 p_r1_g41_h135_t73 -1 x_r1_g41 <= 0 ;
1 p_r1_g41_h135_t73 -1 x_r1_g135 <= 0 ;
1 p_r1_g41_h135_t73 -1 x_r1_g41 -1 x_r1_g135 >= -1 ;
1 p_r1_g67_h161_t73 -1 x_r1_g67 <= 0 ;
1 p_r1_g67_h161_t73 -1 x_r1_g161 <= 0 ;
1 p_r1_g67_h161_t73 -1 x_r1_g67 -1 x_r1_g161 >= -1 ;
1 p_r1_g86_h13_t73 -1 x_r1_g86 <= 0 ;
1 p_r1_g86_h13_t73 -1 x_r1_g13 <= 0 ;
1 p_r1_g86_h13_t73 -1 x_r1_g86 -1 x_r1_g13 >= -1 ;
1 p_r1_g111_h38_t73 -1 x_r1_g111 <= 0 ;
1 p_r1_g111_h38_t73 -1 x_r1_g38 <= 0 ;
1 p_r1_g111_h38_t73 -1 x_r1_g111 -1 x_r1_g38 >= -1 ;
1 p_r1_g114_h41_t73 -1 x_r1_g114 <= 0 ;
1 p_r1_g114_h41_t73 -1 x_r1_g41 <= 0 ;
1 p_r1_g114_h41_t73 -1 x_r1_g114 -1 x_r1_g41 >= -1 ;
1 p_r1_g117_h44_t73 -1 x_r1_g117 <= 0 ;
1 p_r1_g117_h44_t73 -1 x_r1_g44 <= 0 ;
1 p_r1_g117_h44_t73 -1 x_r1_g117 -1 x_r1_g44 >= -1 ;
1 p_r1_g135_h62_t73 -1 x_r1_g135 <= 0 ;
1 p_r1_g135_h62_t73 -1 x_r1_g62 <= 0 ;
1 p_r1_g135_h62_t73 -1 x_r1_g135 -1 x_r1_g62 >= -1 ;
1 p_r2_g1_h95_t73 -1 x_r2_g1 <= 0 ;
1 p_r2_g1_h95_t73 -1 x_r2_g95 <= 0 ;
1 p_r2_g1_h95_t73 -1 x_r2_g1 -1 x_r2_g95 >= -1 ;
1 p_r2_g48_h142_t73 -1 x_r2_g48 <= 0 ;
1 p_r2_g48_h142_t73 -1 x_r2_g142 <= 0 ;
1 p_r2_g48_h142_t73 -1 x_r2_g48 -1 x_r2_g142 >= -1 ;
1 p_r2_g64_h158_t73 -1 x_r2_g64 <= 0 ;
1 p_r2_g64_h158_t73 -1 x_r2_g158 <= 0 ;
1 p_r2_g64_h158_t73 -1 x_r2_g64 -1 x_r2_g158 >= -1 ;
1 p_r2_g74_h1_t73 -1 x_r2_g74 <= 0 ;
1 p_r2_g74_h1_t73 -1 x_r2_g1 <= 0 ;
1 p_r2_g74_h1_t73 -1 x_r2_g74 -1 x_r2_g1 >= -1 ;
1 p_r2_g91_h18_t73 -1 x_r2_g91 <= 0 ;
1 p_r2_g91_h18_t73 -1 x_r2_g18 <= 0 ;
1 p_r2_g91_h18_t73 -1 x_r2_g91 -1 x_r2_g18 >= -1 ;
1 p_r2_g139_h66_t73 -1 x_r2_g139 <= 0 ;
1 p_r2_g139_h66_t73 -1 x_r2_g66 <= 0 ;
1 p_r2_g139_h66_t73 -1 x_r2_g139 -1 x_r2_g66 >= -1 ;
1 p_r2_g146_h73_t73 -1 x_r2_g146 <= 0 ;
1 p_r2_g146_h73_t73 -1 x_r2_g73 <= 0 ;
1 p_r2_g146_h73_t73 -1 x_r2_g146 -1 x_r2_g73 >= -1 ;
1 p_r2_g155_h82_t73 -1 x_r2_g155 <= 0 ;
1 p_r2_g155_h82_t73 -1 x_r2_g82 <= 0 ;
1 p_r2_g155_h82_t73 -1 x_r2_g155 -1 x_r2_g82 >= -1 ;
1 p_r2_g159_h86_t73 -1 x_r2_g159 <= 0 ;
1 p_r2_g159_h86_t73 -1 x_r2_g86 <= 0 ;
1 p_r2_g159_h86_t73 -1 x_r2_g159 -1 x_r2_g86 >= -1 ;
1 p_r2_g164_h91_t73 -1 x_r2_g164 <= 0 ;
1 p_r2_g164_h91_t73 -1 x_r2_g91 <= 0 ;
1 p_r2_g164_h91_t73 -1 x_r2_g164 -1 x_r2_g91 >= -1 ;
1 p_r3_g11_h105_t73 -1 x_r3_g11 <= 0 ;
1 p_r3_g11_h105_t73 -1 x_r3_g105 <= 0 ;
1 p_r3_g11_h105_t73 -1 x_r3_g11 -1 x_r3_g105 >= -1 ;
1 p_r3_g19_h113_t73 -1 x_r3_g19 <= 0 ;
1 p_r3_g19_h113_t73 -1 x_r3_g113 <= 0 ;
1 p_r3_g19_h113_t73 -1 x_r3_g19 -1 x_r3_g113 >= -1 ;
1 p_r3_g27_h121_t73 -1 x_r3_g27 <= 0 ;
1 p_r3_g27_h121_t73 -1 x_r3_g121 <= 0 ;
1 p_r3_g27_h121_t73 -1 x_r3_g27 -1 x_r3_g121 >= -1 ;
1 p_r3_g34_h128_t73 -1 x_r3_g34 <= 0 ;
1 p_r3_g34_h128_t73 -1 x_r3_g128 <= 0 ;
1 p_r3_g34_h128_t73 -1 x_r3_g34 -1 x_r3_g128 >= -1 ;
1 p_r3_g53_h147_t73 -1 x_r3_g53 <= 0 ;
1 p_r3_g53_h147_t73 -1 x_r3_g147 <= 0 ;
1 p_r3_g53_h147_t73 -1 x_r3_g53 -1 x_r3_g147 >= -1 ;
1 p_r3_g76_h3_t73 -1 x_r3_g76 <= 0 ;
1 p_r3_g76_h3_t73 -1 x_r3_g3 <= 0 ;
1 p_r3_g76_h3_t73 -1 x_r3_g76 -1 x_r3_g3 >= -1 ;
1 p_r3_g81_h8_t73 -1 x_r3_g81 <= 0 ;
1 p_r3_g81_h8_t73 -1 x_r3_g8 <= 0 ;
1 p_r3_g81_h8_t73 -1 x_r3_g81 -1 x_r3_g8 >= -1 ;
1 p_r3_g86_h13_t73 -1 x_r3_g86 <= 0 ;
1 p_r3_g86_h13_t73 -1 x_r3_g13 <= 0 ;
1 p_r3_g86_h13_t73 -1 x_r3_g86 -1 x_r3_g13 >= -1 ;
1 p_r3_g138_h65_t73 -1 x_r3_g138 <= 0 ;
1 p_r3_g138_h65_t73 -1 x_r3_g65 <= 0 ;
1 p_r3_g138_h65_t73 -1 x_r3_g138 -1 x_r3_g65 >= -1 ;
1 p_r3_g145_h72_t73 -1 x_r3_g145 <= 0 ;
1 p_r3_g145_h72_t73 -1 x_r3_g72 <= 0 ;
1 p_r3_g145_h72_t73 -1 x_r3_g145 -1 x_r3_g72 >= -1 ;
1 d_73 -1 x_r0_g1 -2 x_r0_g4 -1 x_r0_g9 -1 x_r0_g17 -1 x_r0_g22 -1 x_r0_g26 -1 x_r0_g28 -1 x_r0_g46 -1 x_r0_g47 -1 x_r0_g48 -1 x_r0_g54 -2 x_r0_g69 -1 x_r0_g70 -2 x_r0_g79 -2 x_r0_g84 -2 x_r0_g87 -1 x_r0_g88 -1 x_r0_g97 -1 x_r0_g118 -1 x_r0_g130 -1 x_r0_g131 -2 x_r0_g132 -1 x_r0_g146 -1 x_r0_g153 -1 x_r1_g8 -1 x_r1_g11 -1 x_r1_g13 -2 x_r1_g15 -1 x_r1_g17 -2 x_r1_g25 -1 x_r1_g38 -1 x_r1_g44 -1 x_r1_g59 -1 x_r1_g62 -1 x_r1_g67 -1 x_r1_g76 -1 x_r1_g86 -2 x_r1_g93 -2 x_r1_g110 -1 x_r1_g113 -1 x_r1_g114 -1 x_r1_g121 -1 x_r1_g123 -2 x_r1_g126 -2 x_r1_g143 -1 x_r1_g155 -1 x_r1_g157 -2 x_r1_g160 -1 x_r1_g161 -2 x_r1_g164 -1 x_r2_g2 -1 x_r2_g18 -1 x_r2_g48 -1 x_r2_g62 -1 x_r2_g64 -1 x_r2_g66 -2 x_r2_g67 -1 x_r2_g73 -2 x_r2_g77 -2 x_r2_g80 -2 x_r2_g94 -1 x_r2_g100 -1 x_r2_g107 -1 x_r2_g120 -1 x_r2_g128 -1 x_r2_g131 -1 x_r2_g136 -1 x_r2_g141 -1 x_r2_g152 -1 x_r2_g155 -1 x_r2_g158 -1 x_r2_g159 -1 x_r2_g162 -1 x_r2_g163 -1 x_r2_g164 -1 x_r3_g7 -1 x_r3_g12 -2 x_r3_g16 -1 x_r3_g24 -2 x_r3_g25 -2 x_r3_g33 -1 x_r3_g57 -1 x_r3_g72 -1 x_r3_g76 -1 x_r3_g81 -2 x_r3_g103 -1 x_r3_g105 -2 x_r3_g111 -2 x_r3_g112 -1 x_r3_g113 -1 x_r3_g124 -1 x_r3_g128 -2 x_r3_g141 -1 x_r3_g147 -2 x_r3_g156 -1 p_r0_g7_h101_t73 -1 p_r0_g37_h131_t73 -1 p_r0_g68_h162_t73 -1 p_r0_g93_h20_t73 -1 p_r0_g101_h28_t73 -1 p_r1_g17_h111_t73 -1 p_r1_g41_h135_t73 -1 p_r1_g67_h161_t73 -1 p_r1_g86_h13_t73 -1 p_r1_g111_h38_t73 -1 p_r1_g114_h41_t73 -1 p_r1_g117_h44_t73 -1 p_r1_g135_h62_t73 -1 p_r2_g1_h95_t73 -1 p_r2_g48_h142_t73 -1 p_r2_g64_h158_t73 -1 p_r2_g74_h1_t73 -1 p_r2_g91_h18_t73 -1 p_r2_g139_h66_t73 -1 p_r2_g146_h73_t73 -1 p_r2_g155_h82_t73 -1 p_r2_g159_h86_t73 -1 p_r2_g164_h91_t73 -1 p_r3_g11_h105_t73 -1 p_r3_g19_h113_t73 -1 p_r3_g27_h121_t73 -1 p_r3_g34_h128_t73 -1 p_r3_g53_h147_t73 -1 p_r3_g76_h3_t73 -1 p_r3_g81_h8_t73 -1 p_r3_g86_h13_t73 -1 p_r3_g138_h65_t73 -1 p_r3_g145_h72_t73 = -52 ;
1 d_73 -1 u_73 <= 0 ;
-1 d_73 -1 u_73 <= 0 ;
1 u_73 -1 M <= 0 ;
1 u_73 <= 2 ;
1 p_r0_g1_h93_t75 -1 x_r0_g1 <= 0 ;
1 p_r0_g1_h93_t75 -1 x_r0_g93 <= 0 ;
1 p_r0_g1_h93_t75 -1 x_r0_g1 -1 x_r0_g93 >= -1 ;
1 p_r0_g9_h101_t75 -1 x_r0_g9 <= 0 ;
1 p_r0_g9_h101_t75 -1 x_r0_g101 <= 0 ;
1 p_r0_g9_h101_t75 -1 x_r0_g9 -1 x_r0_g101 >= -1 ;
1 p_r0_g26_h118_t75 -1 x_r0_g26 <= 0 ;
1 p_r0_g26_h118_t75 -1 x_r0_g118 <= 0 ;
1 p_r0_g26_h118_t75 -1 x_r0_g26 -1 x_r0_g118 >= -1 ;
1 p_r0_g34_h126_t75 -1 x_r0_g34 <= 0 ;
1 p_r0_g34_h126_t75 -1 x_r0_g126 <= 0 ;
1 p_r0_g34_h126_t75 -1 x_r0_g34 -1 x_r0_g126 >= -1 ;
1 p_r0_g54_h146_t75 -1 x_r0_g54 <= 0 ;
1 p_r0_g54_h146_t75 -1 x_r0_g146 <= 0 ;
1 p_r0_g54_h146_t75 -1 x_r0_g54 -1 x_r0_g146 >= -1 ;
1 p_r0_g70_h162_t75 -1 x_r0_g70 <= 0 ;
1 p_r0_g70_h162_t75 -1 x_r0_g162 <= 0 ;
1 p_r0_g70_h162_t75 -1 x_r0_g70 -1 x_r0_g162 >= -1 ;
1 p_r0_g79_h4_t75 -1 x_r0_g79 <= 0 ;
1 p_r0_g79_h4_t75 -1 x_r0_g4 <= 0 ;
1 p_r0_g79_h4_t75 -1 x_r0_g79 -1 x_r0_g4 >= -1 ;
1 p_r0_g84_h9_t75 -1 x_r0_g84 <= 0 ;
1 p_r0_g84_h9_t75 -1 x_r0_g9 <= 0 ;
1 p_r0_g84_h9_t75 -1 x_r0_g84 -1 x_r0_g9 >= -1 ;
1 p_r0_g97_h22_t75 -1 x_r0_g97 <= 0 ;
1 p_r0_g97_h22_t75 -1 x_r0_g22 <= 0 ;
1 p_r0_g97_h22_t75 -1 x_r0_g97 -1 x_r0_g22 >= -1 ;
1 p_r0_g101_h26_t75 -1 x_r0_g101 <= 0 ;
1 p_r0_g101_h26_t75 -1 x_r0_g26 <= 0 ;
1 p_r0_g101_h26_t75 -1 x_r0_g101 -1 x_r0_g26 >= -1 ;
1 p_r0_g123_h48_t75 -1 x_r0_g123 <= 0 ;
1 p_r0_g123_h48_t75 -1 x_r0_g48 <= 0 ;
1 p_r0_g123_h48_t75 -1 x_r0_g123 -1 x_r0_g48 >= -1 ;
1 p_r0_g144_h69_t75 -1 x_r0_g144 <= 0 ;
1 p_r0_g144_h69_t75 -1 x_r0_g69 <= 0 ;
1 p_r0_g144_h69_t75 -1 x_r0_g144 -1 x_r0_g69 >= -1 ;
1 p_r0_g162_h87_t75 -1 x_r0_g162 <= 0 ;
1 p_r0_g162_h87_t75 -1 x_r0_g87 <= 0 ;
1 p_r0_g162_h87_t75 -1 x_r0_g162 -1 x_r0_g87 >= -1 ;
1 p_r1_g25_h117_t75 -1 x_r1_g25 <= 0 ;
1 p_r1_g25_h117_t75 -1 x_r1_g117 <= 0 ;
1 p_r1_g25_h117_t75 -1 x_r1_g25 -1 x_r1_g117 >= -1 ;
1 p_r1_g31_h123_t75 -1 x_r1_g31 <= 0 ;
1 p_r1_g31_h123_t75 -1 x_r1_g123 <= 0 ;
1 p_r1_g31_h123_t75 -1 x_r1_g31 -1 x_r1_g123 >= -1 ;
1 p_r1_g86_h11_t75 -1 x_r1_g86 <= 0 ;
1 p_r1_g86_h11_t75 -1 x_r1_g11 <= 0 ;
1 p_r1_g86_h11_t75 -1 x_r1_g86 -1 x_r1_g11 >= -1 ;
1 p_r1_g113_h38_t75 -1 x_r1_g113 <= 0 ;
1 p_r1_g113_h38_t75 -1 x_r1_g38 <= 0 ;
1 p_r1_g113_h38_t75 -1 x_r1_g113 -1 x_r1_g38 >= -1 ;
1 p_r1_g155_h80_t75 -1 x_r1_g155 <= 0 ;
1 p_r1_g155_h80_t75 -1 x_r1_g80 <= 0 ;
1 p_r1_g155_h80_t75 -1 x_r1_g155 -1 x_r1_g80 >= -1 ;
1 p_r1_g161_h86_t75 -1 x_r1_g161 <= 0 ;
1 p_r1_g161_h86_t75 -1 x_r1_g86 <= 0 ;
1 p_r1_g161_h86_t75 -1 x_r1_g161 -1 x_r1_g86 >= -1 ;
1 p_r2_g2_h94_t75 -1 x_r2_g2 <= 0 ;
1 p_r2_g2_h94_t75 -1 x_r2_g94 <= 0 ;
1 p_r2_g2_h94_t75 -1 x_r2_g2 -1 x_r2_g94 >= -1 ;
1 p_r2_g18_h110_t75 -1 x_r2_g18 <= 0 ;
1 p_r2_g18_h110_t75 -1 x_r2_g110 <= 0 ;
1 p_r2_g18_h110_t75 -1 x_r2_g18 -1 x_r2_g110 >= -1 ;
1 p_r2_g60_h152_t75 -1 x_r2_g60 <= 0 ;
1 p_r2_g60_h152_t75 -1 x_r2_g152 <= 0 ;
1 p_r2_g60_h152_t75 -1 x_r2_g60 -1 x_r2_g152 >= -1 ;
1 p_r2_g66_h158_t75 -1 x_r2_g66 <= 0 ;
1 p_r2_g66_h158_t75 -1 x_r2_g158 <= 0 ;
1 p_r2_g66_h158_t75 -1 x_r2_g66 -1 x_r2_g158 >= -1 ;
1 p_r2_g67_h159_t75 -1 x_r2_g67 <= 0 ;
1 p_r2_g67_h159_t75 -1 x_r2_g159 <= 0 ;
1 p_r2_g67_h159_t75 -1 x_r2_g67 -1 x_r2_g159 >= -1 ;
1 p_r2_g73_h165_t75 -1 x_r2_g73 <= 0 ;
1 p_r2_g73_h165_t75 -1 x_r2_g165 <= 0 ;
1 p_r2_g73_h165_t75 -1 x_r2_g73 -1 x_r2_g165 >= -1 ;
1 p_r2_g77_h2_t75 -1 x_r2_g77 <= 0 ;
1 p_r2_g77_h2_t75 -1 x_r2_g2 <= 0 ;
1 p_r2_g77_h2_t75 -1 x_r2_g77 -1 x_r2_g2 >= -1 ;
1 p_r2_g139_h64_t75 -1 x_r2_g139 <= 0 ;
1 p_r2_g139_h64_t75 -1 x_r2_g64 <= 0 ;
1 p_r2_g139_h64_t75 -1 x_r2_g139 -1 x_r2_g64 >= -1 ;
1 p_r2_g141_h66_t75 -1 x_r2_g141 <= 0 ;
1 p_r2_g141_h66_t75 -1 x_r2_g66 <= 0 ;
1 p_r2_g141_h66_t75 -1 x_r2_g141 -1 x_r2_g66 >= -1 ;
1 p_r2_g142_h67_t75 -1 x_r2_g142 <= 0 ;
1 p_r2_g142_h67_t75 -1 x_r2_g67 <= 0 ;
1 p_r2_g142_h67_t75 -1 x_r2_g142 -1 x_r2_g67 >= -1 ;
1 p_r2_g149_h74_t75 -1 x_r2_g149 <= 0 ;
1 p_r2_g149_h74_t75 -1 x_r2_g74 <= 0 ;
1 p_r2_g149_h74_t75 -1 x_r2_g149 -1 x_r2_g74 >= -1 ;
1 p_r2_g152_h77_t75 -1 x_r2_g152 <= 0 ;
1 p_r2_g152_h77_t75 -1 x_r2_g77 <= 0 ;
1 p_r2_g152_h77_t75 -1 x_r2_g152 -1 x_r2_g77 >= -1 ;
1 p_r2_g155_h80_t75 -1 x_r2_g155 <= 0 ;
1 p_r2_g155_h80_t75 -1 x_r2_g80 <= 0 ;
1 p_r2_g155_h80_t75 -1 x_r2_g155 -1 x_r2_g80 >= -1 ;
1 p_r3_g11_h103_t75 -1 x_r3_g11 <= 0 ;
1 p_r3_g11_h103_t75 -1 x_r3_g103 <= 0 ;
1 p_r3_g11_h103_t75 -1 x_r3_g11 -1 x_r3_g103 >= -1 ;
1 p_r3_g13_h105_t75 -1 x_r3_g13 <= 0 ;
1 p_r3_g13_h105_t75 -1 x_r3_g105 <= 0 ;
1 p_r3_g13_h105_t75 -1 x_r3_g13 -1 x_r3_g105 >= -1 ;
1 p_r3_g19_h111_t75 -1 x_r3_g19 <= 0 ;
1 p_r3_g19_h111_t75 -1 x_r3_g111 <= 0 ;
1 p_r3_g19_h111_t75 -1 x_r3_g19 -1 x_r3_g111 >= -1 ;
1 p_r3_g33_h125_t75 -1 x_r3_g33 <= 0 ;
1 p_r3_g33_h125_t75 -1 x_r3_g125 <= 0 ;
1 p_r3_g33_h125_t75 -1 x_r3_g33 -1 x_r3_g125 >= -1 ;
1 p_r3_g36_h128_t75 -1 x_r3_g36 <= 0 ;
1 p_r3_g36_h128_t75 -1 x_r3_g128 <= 0 ;
1 p_r3_g36_h128_t75 -1 x_r3_g36 -1 x_r3_g128 >= -1 ;
1 p_r3_g53_h145_t75 -1 x_r3_g53 <= 0 ;
1 p_r3_g53_h145_t75 -1 x_r3_g145 <= 0 ;
1 p_r3_g53_h145_t75 -1 x_r3_g53 -1 x_r3_g145 >= -1 ;
1 p_r3_g86_h11_t75 -1 x_r3_g86 <= 0 ;
1 p_r3_g86_h11_t75 -1 x_r3_g11 <= 0 ;
1 p_r3_g86_h11_t75 -1 x_r3_g86 -1 x_r3_g11 >= -1 ;
1 p_r3_g94_h19_t75 -1 x_r3_g94 <= 0 ;
1 p_r3_g94_h19_t75 -1 x_r3_g19 <= 0 ;
1 p_r3_g94_h19_t75 -1 x_r3_g94 -1 x_r3_g19 >= -1 ;
1 p_r3_g111_h36_t75 -1 x_r3_g111 <= 0 ;
1 p_r3_g111_h36_t75 -1 x_r3_g36 <= 0 ;
1 p_r3_g111_h36_t75 -1 x_r3_g111 -1 x_r3_g36 >= -1 ;
1 p_r3_g128_h53_t75 -1 x_r3_g128 <= 0 ;
1 p_r3_g128_h53_t75 -1 x_r3_g53 <= 0 ;
1 p_r3_g128_h53_t75 -1 x_r3_g128 -1 x_r3_g53 >= -1 ;
1 p_r3_g147_h72_t75 -1 x_r3_g147 <= 0 ;
1 p_r3_g147_h72_t75 -1 x_r3_g72 <= 0 ;
1 p_r3_g147_h72_t75 -1 x_r3_g147 -1 x_r3_g72 >= -1 ;
1 p_r3_g156_h81_t75 -1 x_r3_g156 <= 0 ;
1 p_r3_g156_h81_t75 -1 x_r3_g81 <= 0 ;
1 p_r3_g156_h81_t75 -1 x_r3_g156 -1 x_r3_g81 >= -1 ;
1 d_75 -2 x_r0_g28 -1 x_r0_g35 -2 x_r0_g47 -1 x_r0_g60 -1 x_r0_g62 -2 x_r0_g67 -2 x_r0_g68 -1 x_r0_g81 -1 x_r0_g84 -1 x_r0_g87 -2 x_r0_g88 -1 x_r0_g97 -1 x_r0_g118 -1 x_r0_g126 -2 x_r0_g130 -1 x_r0_g132 -1 x_r0_g144 -1 x_r1_g8 -1 x_r1_g11 -1 x_r1_g13 -2 x_r1_g15 -1 x_r1_g17 -1 x_r1_g25 -1 x_r1_g38 -1 x_r1_g41 -1 x_r1_g44 -1 x_r1_g62 -1 x_r1_g64 -1 x_r1_g67 -1 x_r1_g76 -2 x_r1_g93 -1 x_r1_g108 -1 x_r1_g110 -1 x_r1_g111 -1 x_r1_g114 -1 x_r1_g117 -2 x_r1_g121 -2 x_r1_g128 -1 x_r1_g143 -2 x_r1_g157 -1 x_r1_g160 -1 x_r1_g161 -1 x_r1_g164 -1 x_r2_g1 -1 x_r2_g18 -2 x_r2_g30 -1 x_r2_g48 -1 x_r2_g60 -1 x_r2_g62 -1 x_r2_g73 -2 x_r2_g82 -1 x_r2_g86 -1 x_r2_g95 -1 x_r2_g100 -1 x_r2_g120 -2 x_r2_g131 -1 x_r2_g136 -1 x_r2_g141 -1 x_r2_g155 -1 x_r2_g158 -2 x_r2_g162 -1 x_r2_g165 -1 x_r3_g3 -1 x_r3_g7 -1 x_r3_g8 -1 x_r3_g16 -1 x_r3_g24 -1 x_r3_g27 -1 x_r3_g33 -2 x_r3_g57 -1 x_r3_g65 -2 x_r3_g76 -1 x_r3_g81 -1 x_r3_g94 -1 x_r3_g103 -1 x_r3_g105 -2 x_r3_g112 -1 x_r3_g113 -1 x_r3_g121 -2 x_r3_g124 -1 x_r3_g138 -2 x_r3_g141 -1 x_r3_g147 -1 p_r0_g1_h93_t75 -1 p_r0_g9_h101_t75 -1 p_r0_g26_h118_t75 -1 p_r0_g34_h126_t75 -1 p_r0_g54_h146_t75 -1 p_r0_g70_h162_t75 -1 p_r0_g79_h4_t75 -1 p_r0_g84_h9_t75 -1 p_r0_g97_h22_t75 -1 p_r0_g101_h26_t75 -1 p_r0_g123_h48_t75 -1 p_r0_g144_h69_t75 -1 p_r0_g162_h87_t75 -1 p_r1_g25_h117_t75 -1 p_r1_g31_h123_t75 -1 p_r1_g86_h11_t75 -1 p_r1_g113_h38_t75 -1 p_r1_g155_h80_t75 -1 p_r1_g161_h86_t75 -1 p_r2_g2_h94_t75 -1 p_r2_g18_h110_t75 -1 p_r2_g60_h152_t75 -1 p_r2_g66_h158_t75 -1 p_r2_g67_h159_t75 -1 p_r2_g73_h165_t75 -1 p_r2_g77_h2_t75 -1 p_r2_g139_h64_t75 -1 p_r2_g141_h66_t75 -1 p_r2_g142_h67_t75 -1 p_r2_g149_h74_t75 -1 p_r2_g152_h77_t75 -1 p_r2_g155_h80_t75 -1 p_r3_g11_h103_t75 -1 p_r3_g13_h105_t75 -1 p_r3_g19_h111_t75 -1 p_r3_g33_h125_t75 -1 p_r3_g36_h128_t75 -1 p_r3_g53_h145_t75 -1 p_r3_g86_h11_t75 -1 p_r3_g94_h19_t75 -1 p_r3_g111_h36_t75 -1 p_r3_g128_h53_t75 -1 p_r3_g147_h72_t75 -1 p_r3_g156_h81_t75 = -65 ;
1 d_75 -1 u_75 <= 0 ;
-1 d_75 -1 u_75 <= 0 ;
1 u_75 -1 M <= 0 ;
1 u_75 <= 1 ;
1 M <= 3 ;
1 u_1 10 u_2 10 u_3 1 u_4 1 u_7 1 u_13 1 u_18 1 u_19 1 u_21 1 u_26 1 u_29 1 u_37 1 u_38 1 u_39 1 u_44 1 u_58 1 u_62 1 u_64 1 u_69 1 u_73 1 u_75 <= 62 ;
1 F -1 x_r0_g1 -1 x_r0_g4 -1 x_r0_g9 -1 x_r0_g17 -1 x_r0_g22 -1 x_r0_g26 -1 x_r0_g28 -1 x_r0_g35 -1 x_r0_g46 -1 x_r0_g69 -1 x_r0_g79 -1 x_r0_g81 -1 x_r0_g84 -1 x_r0_g87 -1 x_r0_g93 -1 x_r0_g97 -1 x_r0_g130 -1 x_r0_g144 -1 x_r0_g153 -1 x_r0_g162 -1 x_r1_g8 -1 x_r1_g13 -1 x_r1_g17 -1 x_r1_g25 -1 x_r1_g41 -1 x_r1_g59 -1 x_r1_g67 -1 x_r1_g75 -1 x_r1_g76 -1 x_r1_g86 -1 x_r1_g93 -1 x_r1_g110 -1 x_r1_g111 -1 x_r1_g117 -1 x_r1_g121 -1 x_r1_g126 -1 x_r1_g135 -1 x_r1_g143 -1 x_r1_g157 -1 x_r1_g161 -1 x_r2_g2 -1 x_r2_g62 -1 x_r2_g66 -1 x_r2_g67 -1 x_r2_g73 -1 x_r2_g77 -1 x_r2_g80 -1 x_r2_g91 -1 x_r2_g95 -1 x_r2_g100 -1 x_r2_g107 -1 x_r2_g131 -1 x_r2_g141 -1 x_r2_g142 -1 x_r2_g149 -1 x_r2_g155 -1 x_r2_g158 -1 x_r2_g159 -1 x_r2_g164 -1 x_r2_g165 -1 x_r3_g3 -1 x_r3_g7 -1 x_r3_g11 -1 x_r3_g15 -1 x_r3_g16 -1 x_r3_g24 -1 x_r3_g25 -1 x_r3_g33 -1 x_r3_g34 -1 x_r3_g57 -1 x_r3_g72 -1 x_r3_g103 -1 x_r3_g105 -1 x_r3_g113 -1 x_r3_g121 -1 x_r3_g125 -1 x_r3_g141 -1 x_r3_g147 -1 x_r3_g156 -1 x_r3_g165 1 x_r0_g7 1 x_r0_g20 1 x_r0_g34 1 x_r0_g37 1 x_r0_g47 1 x_r0_g48 1 x_r0_g54 1 x_r0_g60 1 x_r0_g62 1 x_r0_g67 1 x_r0_g68 1 x_r0_g70 1 x_r0_g88 1 x_r0_g101 1 x_r0_g118 1 x_r0_g123 1 x_r0_g126 1 x_r0_g131 1 x_r0_g132 1 x_r0_g146 1 x_r1_g11 1 x_r1_g15 1 x_r1_g26 1 x_r1_g31 1 x_r1_g38 1 x_r1_g44 1 x_r1_g56 1 x_r1_g62 1 x_r1_g64 1 x_r1_g80 1 x_r1_g96 1 x_r1_g108 1 x_r1_g113 1 x_r1_g114 1 x_r1_g123 1 x_r1_g128 1 x_r1_g146 1 x_r1_g155 1 x_r1_g160 1 x_r1_g164 1 x_r2_g1 1 x_r2_g18 1 x_r2_g30 1 x_r2_g48 1 x_r2_g60 1 x_r2_g64 1 x_r2_g74 1 x_r2_g82 1 x_r2_g86 1 x_r2_g94 1 x_r2_g110 1 x_r2_g120 1 x_r2_g128 1 x_r2_g130 1 x_r2_g136 1 x_r2_g139 1 x_r2_g146 1 x_r2_g152 1 x_r2_g162 1 x_r2_g163 1 x_r3_g8 1 x_r3_g12 1 x_r3_g13 1 x_r3_g19 1 x_r3_g27 1 x_r3_g36 1 x_r3_g53 1 x_r3_g65 1 x_r3_g76 1 x_r3_g81 1 x_r3_g86 1 x_r3_g94 1 x_r3_g111 1 x_r3_g112 1 x_r3_g123 1 x_r3_g124 1 x_r3_g128 1 x_r3_g138 1 x_r3_g144 1 x_r3_g145 = 80 ;
1 F <= 8 ;
