* #variable= 1434 #constraint= 3793
* int d_1 d_2 d_3 d_4 d_7 d_9 d_10 d_12 d_13 d_16 d_18 d_19 d_20 d_21 d_22 d_23 d_26 d_29 d_36 d_37 d_38 d_39 d_44 d_50 d_58 d_62 d_64 d_69 d_73 d_75 d_83 u_1 u_2 u_3 u_4 u_7 u_9 u_10 u_12 u_13 u_16 u_18 u_19 u_20 u_21 u_22 u_23 u_26 u_29 u_36 u_37 u_38 u_39 u_44 u_50 u_58 u_62 u_64 u_69 u_73 u_75 u_83 M F ;
min: 1 M ;
1 x_r0_g1 1 x_r0_g4 1 x_r0_g7 1 x_r0_g9 1 x_r0_g14 1 x_r0_g17 1 x_r0_g20 1 x_r0_g22 1 x_r0_g23 1 x_r0_g25 1 x_r0_g26 1 x_r0_g28 1 x_r0_g32 1 x_r0_g34 1 x_r0_g35 1 x_r0_g36 1 x_r0_g37 1 x_r0_g47 1 x_r0_g48 1 x_r0_g54 1 x_r0_g60 1 x_r0_g67 1 x_r0_g68 1 x_r0_g69 1 x_r0_g70 1 x_r0_g79 1 x_r0_g84 1 x_r0_g87 1 x_r0_g97 1 x_r0_g101 1 x_r0_g102 1 x_r0_g118 1 x_r0_g121 1 x_r0_g123 1 x_r0_g130 1 x_r0_g131 1 x_r0_g143 1 x_r0_g144 1 x_r0_g153 1 x_r0_g162 = 20 ;
1 x_r1_g8 1 x_r1_g11 1 x_r1_g13 1 x_r1_g15 1 x_r1_g17 1 x_r1_g25 1 x_r1_g30 1 x_r1_g31 1 x_r1_g35 1 x_r1_g38 1 x_r1_g53 1 x_r1_g59 1 x_r1_g62 1 x_r1_g64 1 x_r1_g67 1 x_r1_g75 1 x_r1_g76 1 x_r1_g80 1 x_r1_g83 1 x_r1_g90 1 x_r1_g91 1 x_r1_g93 1 x_r1_g96 1 x_r1_g107 1 x_r1_g108 1 x_r1_g110 1 x_r1_g111 1 x_r1_g113 1 x_r1_g114 1 x_r1_g117 1 x_r1_g121 1 x_r1_g126 1 x_r1_g128 1 x_r1_g132 1 x_r1_g143 1 x_r1_g146 1 x_r1_g154 1 x_r1_g155 1 x_r1_g157 1 x_r1_g161 = 20 ;
1 x_r2_g2 1 x_r2_g18 1 x_r2_g29 1 x_r2_g30 1 x_r2_g34 1 x_r2_g48 1 x_r2_g60 1 x_r2_g62 1 x_r2_g64 1 x_r2_g66 1 x_r2_g67 1 x_r2_g70 1 x_r2_g73 1 x_r2_g74 1 x_r2_g77 1 x_r2_g80 1 x_r2_g82 1 x_r2_g86 1 x_r2_g91 1 x_r2_g95 1 x_r2_g98 1 x_r2_g100 1 x_r2_g107 1 x_r2_g110 1 x_r2_g111 1 x_r2_g120 1 x_r2_g128 1 x_r2_g135 1 x_r2_g136 1 x_r2_g139 1 x_r2_g142 1 x_r2_g149 1 x_r2_g152 1 x_r2_g155 1 x_r2_g158 1 x_r2_g159 1 x_r2_g162 1 x_r2_g163 1 x_r2_g164 1 x_r2_g165 = 20 ;
1 x_r3_g3 1 x_r3_g7 1 x_r3_g8 1 x_r3_g11 1 x_r3_g13 1 x_r3_g15 1 x_r3_g16 1 x_r3_g18 1 x_r3_g19 1 x_r3_g27 1 x_r3_g33 1 x_r3_g34 1 x_r3_g36 1 x_r3_g51 1 x_r3_g53 1 x_r3_g56 1 x_r3_g57 1 x_r3_g65 1 x_r3_g72 1 x_r3_g77 1 x_r3_g79 1 x_r3_g91 1 x_r3_g94 1 x_r3_g103 1 x_r3_g106 1 x_r3_g111 1 x_r3_g113 1 x_r3_g121 1 x_r3_g123 1 x_r3_g124 1 x_r3_g125 1 x_r3_g128 1 x_r3_g138 1 x_r3_g144 1 x_r3_g145 1 x_r3_g147 1 x_r3_g154 1 x_r3_g159 1 x_r3_g162 1 x_r3_g165 = 20 ;
1 p_r0_g23_h22_t1 -1 x_r0_g23 <= 0 ;
1 p_r0_g23_h22_t1 -1 x_r0_g22 <= 0 ;
1 p_r0_g23_h22_t1 -1 x_r0_g23 -1 x_r0_g22 >= -1 ;
1 p_r0_g26_h25_t1 -1 x_r0_g26 <= 0 ;
1 p_r0_g26_h25_t1 -1 x_r0_g25 <= 0 ;
1 p_r0_g26_h25_t1 -1 x_r0_g26 -1 x_r0_g25 >= -1 ;
1 p_r0_g35_h34_t1 -1 x_r0_g35 <= 0 ;
1 p_r0_g35_h34_t1 -1 x_r0_g34 <= 0 ;
1 p_r0_g35_h34_t1 -1 x_r0_g35 -1 x_r0_g34 >= -1 ;
1 p_r0_g36_h35_t1 -1 x_r0_g36 <= 0 ;
1 p_r0_g36_h35_t1 -1 x_r0_g35 <= 0 ;
1 p_r0_g36_h35_t1 -1 x_r0_g36 -1 x_r0_g35 >= -1 ;
1 p_r0_g37_h36_t1 -1 x_r0_g37 <= 0 ;
1 p_r0_g37_h36_t1 -1 x_r0_g36 <= 0 ;
1 p_r0_g37_h36_t1 -1 x_r0_g37 -1 x_r0_g36 >= -1 ;
1 p_r0_g48_h47_t1 -1 x_r0_g48 <= 0 ;
1 p_r0_g48_h47_t1 -1 x_r0_g47 <= 0 ;
1 p_r0_g48_h47_t1 -1 x_r0_g48 -1 x_r0_g47 >= -1 ;
1 p_r0_g68_h67_t1 -1 x_r0_g68 <= 0 ;
1 p_r0_g68_h67_t1 -1 x_r0_g67 <= 0 ;
1 p_r0_g68_h67_t1 -1 x_r0_g68 -1 x_r0_g67 >= -1 ;
1 p_r0_g69_h68_t1 -1 x_r0_g69 <= 0 ;
1 p_r0_g69_h68_t1 -1 x_r0_g68 <= 0 ;
1 p_r0_g69_h68_t1 -1 x_r0_g69 -1 x_r0_g68 >= -1 ;
1 p_r0_g70_h69_t1 -1 x_r0_g70 <= 0 ;
1 p_r0_g70_h69_t1 -1 x_r0_g69 <= 0 ;
1 p_r0_g70_h69_t1 -1 x_r0_g70 -1 x_r0_g69 >= -1 ;
1 p_r0_g102_h101_t1 -1 x_r0_g102 <= 0 ;
1 p_r0_g102_h101_t1 -1 x_r0_g101 <= 0 ;
1 p_r0_g102_h101_t1 -1 x_r0_g102 -1 x_r0_g101 >= -1 ;
1 p_r0_g131_h130_t1 -1 x_r0_g131 <= 0 ;
1 p_r0_g131_h130_t1 -1 x_r0_g130 <= 0 ;
1 p_r0_g131_h130_t1 -1 x_r0_g131 -1 x_r0_g130 >= -1 ;
1 p_r0_g144_h143_t1 -1 x_r0_g144 <= 0 ;
1 p_r0_g144_h143_t1 -1 x_r0_g143 <= 0 ;
1 p_r0_g144_h143_t1 -1 x_r0_g144 -1 x_r0_g143 >= -1 ;
1 p_r1_g31_h30_t1 -1 x_r1_g31 <= 0 ;
1 p_r1_g31_h30_t1 -1 x_r1_g30 <= 0 ;
1 p_r1_g31_h30_t1 -1 x_r1_g31 -1 x_r1_g30 >= -1 ;
1 p_r1_g76_h75_t1 -1 x_r1_g76 <= 0 ;
1 p_r1_g76_h75_t1 -1 x_r1_g75 <= 0 ;
1 p_r1_g76_h75_t1 -1 x_r1_g76 -1 x_r1_g75 >= -1 ;
1 p_r1_g91_h90_t1 -1 x_r1_g91 <= 0 ;
1 p_r1_g91_h90_t1 -1 x_r1_g90 <= 0 ;
1 p_r1_g91_h90_t1 -1 x_r1_g91 -1 x_r1_g90 >= -1 ;
1 p_r1_g108_h107_t1 -1 x_r1_g108 <= 0 ;
1 p_r1_g108_h107_t1 -1 x_r1_g107 <= 0 ;
1 p_r1_g108_h107_t1 -1 x_r1_g108 -1 x_r1_g107 >= -1 ;
1 p_r1_g111_h110_t1 -1 x_r1_g111 <= 0 ;
1 p_r1_g111_h110_t1 -1 x_r1_g110 <= 0 ;
1 p_r1_g111_h110_t1 -1 x_r1_g111 -1 x_r1_g110 >= -1 ;
1 p_r1_g114_h113_t1 -1 x_r1_g114 <= 0 ;
1 p_r1_g114_h113_t1 -1 x_r1_g113 <= 0 ;
1 p_r1_g114_h113_t1 -1 x_r1_g114 -1 x_r1_g113 >= -1 ;
1 p_r1_g155_h154_t1 -1 x_r1_g155 <= 0 ;
1 p_r1_g155_h154_t1 -1 x_r1_g154 <= 0 ;
1 p_r1_g155_h154_t1 -1 x_r1_g155 -1 x_r1_g154 >= -1 ;
1 p_r2_g30_h29_t1 -1 x_r2_g30 <= 0 ;
1 p_r2_g30_h29_t1 -1 x_r2_g29 <= 0 ;
1 p_r2_g30_h29_t1 -1 x_r2_g30 -1 x_r2_g29 >= -1 ;
1 p_r2_g67_h66_t1 -1 x_r2_g67 <= 0 ;
1 p_r2_g67_h66_t1 -1 x_r2_g66 <= 0 ;
1 p_r2_g67_h66_t1 -1 x_r2_g67 -1 x_r2_g66 >= -1 ;
1 p_r2_g74_h73_t1 -1 x_r2_g74 <= 0 ;
1 p_r2_g74_h73_t1 -1 x_r2_g73 <= 0 ;
1 p_r2_g74_h73_t1 -1 x_r2_g74 -1 x_r2_g73 >= -1 ;
1 p_r2_g111_h110_t1 -1 x_r2_g111 <= 0 ;
1 p_r2_g111_h110_t1 -1 x_r2_g110 <= 0 ;
1 p_r2_g111_h110_t1 -1 x_r2_g111 -1 x_r2_g110 >= -1 ;
1 p_r2_g136_h135_t1 -1 x_r2_g136 <= 0 ;
1 p_r2_g136_h135_t1 -1 x_r2_g135 <= 0 ;
1 p_r2_g136_h135_t1 -1 x_r2_g136 -1 x_r2_g135 >= -1 ;
1 p_r2_g159_h158_t1 -1 x_r2_g159 <= 0 ;
1 p_r2_g159_h158_t1 -1 x_r2_g158 <= 0 ;
1 p_r2_g159_h158_t1 -1 x_r2_g159 -1 x_r2_g158 >= -1 ;
1 p_r2_g163_h162_t1 -1 x_r2_g163 <= 0 ;
1 p_r2_g163_h162_t1 -1 x_r2_g162 <= 0 ;
1 p_r2_g163_h162_t1 -1 x_r2_g163 -1 x_r2_g162 >= -1 ;
1 p_r2_g164_h163_t1 -1 x_r2_g164 <= 0 ;
1 p_r2_g164_h163_t1 -1 x_r2_g163 <= 0 ;
1 p_r2_g164_h163_t1 -1 x_r2_g164 -1 x_r2_g163 >= -1 ;
1 p_r2_g165_h164_t1 -1 x_r2_g165 <= 0 ;
1 p_r2_g165_h164_t1 -1 x_r2_g164 <= 0 ;
1 p_r2_g165_h164_t1 -1 x_r2_g165 -1 x_r2_g164 >= -1 ;
1 p_r3_g8_h7_t1 -1 x_r3_g8 <= 0 ;
1 p_r3_g8_h7_t1 -1 x_r3_g7 <= 0 ;
1 p_r3_g8_h7_t1 -1 x_r3_g8 -1 x_r3_g7 >= -1 ;
1 p_r3_g16_h15_t1 -1 x_r3_g16 <= 0 ;
1 p_r3_g16_h15_t1 -1 x_r3_g15 <= 0 ;
1 p_r3_g16_h15_t1 -1 x_r3_g16 -1 x_r3_g15 >= -1 ;
1 p_r3_g19_h18_t1 -1 x_r3_g19 <= 0 ;
1 p_r3_g19_h18_t1 -1 x_r3_g18 <= 0 ;
1 p_r3_g19_h18_t1 -1 x_r3_g19 -1 x_r3_g18 >= -1 ;
1 p_r3_g34_h33_t1 -1 x_r3_g34 <= 0 ;
1 p_r3_g34_h33_t1 -1 x_r3_g33 <= 0 ;
1 p_r3_g34_h33_t1 -1 x_r3_g34 -1 x_r3_g33 >= -1 ;
1 p_r3_g57_h56_t1 -1 x_r3_g57 <= 0 ;
1 p_r3_g57_h56_t1 -1 x_r3_g56 <= 0 ;
1 p_r3_g57_h56_t1 -1 x_r3_g57 -1 x_r3_g56 >= -1 ;
1 p_r3_g124_h123_t1 -1 x_r3_g124 <= 0 ;
1 p_r3_g124_h123_t1 -1 x_r3_g123 <= 0 ;
1 p_r3_g124_h123_t1 -1 x_r3_g124 -1 x_r3_g123 >= -1 ;
1 p_r3_g125_h124_t1 -1 x_r3_g125 <= 0 ;
1 p_r3_g125_h124_t1 -1 x_r3_g124 <= 0 ;
1 p_r3_g125_h124_t1 -1 x_r3_g125 -1 x_r3_g124 >= -1 ;
1 p_r3_g145_h144_t1 -1 x_r3_g145 <= 0 ;
1 p_r3_g145_h144_t1 -1 x_r3_g144 <= 0 ;
1 p_r3_g145_h144_t1 -1 x_r3_g145 -1 x_r3_g144 >= -1 ;
1 d_1 -2 x_r0_g4 -1 x_r0_g7 -2 x_r0_g14 -1 x_r0_g20 -1 x_r0_g37 -1 x_r0_g48 -1 x_r0_g54 -1 x_r0_g60 -1 x_r0_g87 -1 x_r0_g97 -1 x_r0_g101 -1 x_r0_g102 -1 x_r0_g118 -2 x_r0_g121 -1 x_r0_g123 -1 x_r0_g131 -1 x_r0_g143 -1 x_r0_g153 -1 x_r0_g162 -1 x_r1_g11 -1 x_r1_g15 -2 x_r1_g17 -1 x_r1_g25 -1 x_r1_g30 -1 x_r1_g31 -1 x_r1_g35 -2 x_r1_g38 -1 x_r1_g64 -2 x_r1_g67 -2 x_r1_g80 -2 x_r1_g83 -1 x_r1_g90 -1 x_r1_g96 -1 x_r1_g108 -1 x_r1_g110 -1 x_r1_g111 -1 x_r1_g113 -1 x_r1_g114 -1 x_r1_g117 -1 x_r1_g126 -1 x_r1_g128 -1 x_r1_g155 -1 x_r1_g157 -1 x_r1_g161 -1 x_r2_g2 -1 x_r2_g29 -1 x_r2_g30 -1 x_r2_g34 -1 x_r2_g48 -1 x_r2_g60 -2 x_r2_g62 -2 x_r2_g64 -1 x_r2_g66 -1 x_r2_g67 -1 x_r2_g74 -1 x_r2_g77 -1 x_r2_g82 -2 x_r2_g86 -1 x_r2_g91 -1 x_r2_g95 -1 x_r2_g100 -1 x_r2_g111 -2 x_r2_g120 -1 x_r2_g128 -1 x_r2_g135 -1 x_r2_g136 -1 x_r2_g139 -2 x_r2_g149 -2 x_r2_g152 -1 x_r2_g158 -1 x_r2_g159 -1 x_r2_g162 -2 x_r3_g3 -1 x_r3_g7 -1 x_r3_g8 -1 x_r3_g11 -1 x_r3_g13 -1 x_r3_g16 -1 x_r3_g18 -1 x_r3_g19 -2 x_r3_g27 -1 x_r3_g33 -1 x_r3_g36 -1 x_r3_g56 -1 x_r3_g65 -2 x_r3_g77 -2 x_r3_g79 -2 x_r3_g111 -1 x_r3_g113 -1 x_r3_g121 -1 x_r3_g123 -2 x_r3_g128 -2 x_r3_g138 -1 x_r3_g144 -1 x_r3_g147 -1 x_r3_g159 -1 x_r3_g162 -1 x_r3_g165 -1 p_r0_g23_h22_t1 -1 p_r0_g26_h25_t1 -1 p_r0_g35_h34_t1 -1 p_r0_g36_h35_t1 -1 p_r0_g37_h36_t1 -1 p_r0_g48_h47_t1 -1 p_r0_g68_h67_t1 -1 p_r0_g69_h68_t1 -1 p_r0_g70_h69_t1 -1 p_r0_g102_h101_t1 -1 p_r0_g131_h130_t1 -1 p_r0_g144_h143_t1 -1 p_r1_g31_h30_t1 -1 p_r1_g76_h75_t1 -1 p_r1_g91_h90_t1 -1 p_r1_g108_h107_t1 -1 p_r1_g111_h110_t1 -1 p_r1_g114_h113_t1 -1 p_r1_g155_h154_t1 -1 p_r2_g30_h29_t1 -1 p_r2_g67_h66_t1 -1 p_r2_g74_h73_t1 -1 p_r2_g111_h110_t1 -1 p_r2_g136_h135_t1 -1 p_r2_g159_h158_t1 -1 p_r2_g163_h162_t1 -1 p_r2_g164_h163_t1 -1 p_r2_g165_h164_t1 -1 p_r3_g8_h7_t1 -1 p_r3_g16_h15_t1 -1 p_r3_g19_h18_t1 -1 p_r3_g34_h33_t1 -1 p_r3_g57_h56_t1 -1 p_r3_g124_h123_t1 -1 p_r3_g125_h124_t1 -1 p_r3_g145_h144_t1 = -79 ;
1 d_1 -1 u_1 <= 0 ;
-1 d_1 -1 u_1 <= 0 ;
1 u_1 -1 M <= 0 ;
1 u_1 <= 1 ;
1 p_r0_g9_h7_t2 -1 x_r0_g9 <= 0 ;
1 p_r0_g9_h7_t2 -1 x_r0_g7 <= 0 ;
1 p_r0_g9_h7_t2 -1 x_r0_g9 -1 x_r0_g7 >= -1 ;
1 p_r0_g22_h20_t2 -1 x_r0_g22 <= 0 ;
1 p_r0_g22_h20_t2 -1 x_r0_g20 <= 0 ;
1 p_r0_g22_h20_t2 -1 x_r0_g22 -1 x_r0_g20 >= -1 ;
1 p_r0_g25_h23_t2 -1 x_r0_g25 <= 0 ;
1 p_r0_g25_h23_t2 -1 x_r0_g23 <= 0 ;
1 p_r0_g25_h23_t2 -1 x_r0_g25 -1 x_r0_g23 >= -1 ;
1 p_r0_g28_h26_t2 -1 x_r0_g28 <= 0 ;
1 p_r0_g28_h26_t2 -1 x_r0_g26 <= 0 ;
1 p_r0_g28_h26_t2 -1 x_r0_g28 -1 x_r0_g26 >= -1 ;
1 p_r0_g34_h32_t2 -1 x_r0_g34 <= 0 ;
1 p_r0_g34_h32_t2 -1 x_r0_g32 <= 0 ;
1 p_r0_g34_h32_t2 -1 x_r0_g34 -1 x_r0_g32 >= -1 ;
1 p_r0_g36_h34_t2 -1 x_r0_g36 <= 0 ;
1 p_r0_g36_h34_t2 -1 x_r0_g34 <= 0 ;
1 p_r0_g36_h34_t2 -1 x_r0_g36 -1 x_r0_g34 >= -1 ;
1 p_r0_g37_h35_t2 -1 x_r0_g37 <= 0 ;
1 p_r0_g37_h35_t2 -1 x_r0_g35 <= 0 ;
1 p_r0_g37_h35_t2 -1 x_r0_g37 -1 x_r0_g35 >= -1 ;
1 p_r0_g69_h67_t2 -1 x_r0_g69 <= 0 ;
1 p_r0_g69_h67_t2 -1 x_r0_g67 <= 0 ;
1 p_r0_g69_h67_t2 -1 x_r0_g69 -1 x_r0_g67 >= -1 ;
1 p_r0_g70_h68_t2 -1 x_r0_g70 <= 0 ;
1 p_r0_g70_h68_t2 -1 x_r0_g68 <= 0 ;
1 p_r0_g70_h68_t2 -1 x_r0_g70 -1 x_r0_g68 >= -1 ;
1 p_r0_g123_h121_t2 -1 x_r0_g123 <= 0 ;
1 p_r0_g123_h121_t2 -1 x_r0_g121 <= 0 ;
1 p_r0_g123_h121_t2 -1 x_r0_g123 -1 x_r0_g121 >= -1 ;
1 p_r1_g13_h11_t2 -1 x_r1_g13 <= 0 ;
1 p_r1_g13_h11_t2 -1 x_r1_g11 <= 0 ;
1 p_r1_g13_h11_t2 -1 x_r1_g13 -1 x_r1_g11 >= -1 ;
1 p_r1_g15_h13_t2 -1 x_r1_g15 <= 0 ;
1 p_r1_g15_h13_t2 -1 x_r1_g13 <= 0 ;
1 p_r1_g15_h13_t2 -1 x_r1_g15 -1 x_r1_g13 >= -1 ;
1 p_r1_g17_h15_t2 -1 x_r1_g17 <= 0 ;
1 p_r1_g17_h15_t2 -1 x_r1_g15 <= 0 ;
1 p_r1_g17_h15_t2 -1 x_r1_g17 -1 x_r1_g15 >= -1 ;
1 p_r1_g64_h62_t2 -1 x_r1_g64 <= 0 ;
1 p_r1_g64_h62_t2 -1 x_r1_g62 <= 0 ;
1 p_r1_g64_h62_t2 -1 x_r1_g64 -1 x_r1_g62 >= -1 ;
1 p_r1_g93_h91_t2 -1 x_r1_g93 <= 0 ;
1 p_r1_g93_h91_t2 -1 x_r1_g91 <= 0 ;
1 p_r1_g93_h91_t2 -1 x_r1_g93 -1 x_r1_g91 >= -1 ;
1 p_r1_g110_h108_t2 -1 x_r1_g110 <= 0 ;
1 p_r1_g110_h108_t2 -1 x_r1_g108 <= 0 ;
1 p_r1_g110_h108_t2 -1 x_r1_g110 -1 x_r1_g108 >= -1 ;
1 p_r1_g113_h111_t2 -1 x_r1_g113 <= 0 ;
1 p_r1_g113_h111_t2 -1 x_r1_g111 <= 0 ;
1 p_r1_g113_h111_t2 -1 x_r1_g113 -1 x_r1_g111 >= -1 ;
1 p_r1_g128_h126_t2 -1 x_r1_g128 <= 0 ;
1 p_r1_g128_h126_t2 -1 x_r1_g126 <= 0 ;
1 p_r1_g128_h126_t2 -1 x_r1_g128 -1 x_r1_g126 >= -1 ;
1 p_r1_g157_h155_t2 -1 x_r1_g157 <= 0 ;
1 p_r1_g157_h155_t2 -1 x_r1_g155 <= 0 ;
1 p_r1_g157_h155_t2 -1 x_r1_g157 -1 x_r1_g155 >= -1 ;
1 p_r2_g62_h60_t2 -1 x_r2_g62 <= 0 ;
1 p_r2_g62_h60_t2 -1 x_r2_g60 <= 0 ;
1 p_r2_g62_h60_t2 -1 x_r2_g62 -1 x_r2_g60 >= -1 ;
1 p_r2_g64_h62_t2 -1 x_r2_g64 <= 0 ;
1 p_r2_g64_h62_t2 -1 x_r2_g62 <= 0 ;
1 p_r2_g64_h62_t2 -1 x_r2_g64 -1 x_r2_g62 >= -1 ;
1 p_r2_g66_h64_t2 -1 x_r2_g66 <= 0 ;
1 p_r2_g66_h64_t2 -1 x_r2_g64 <= 0 ;
1 p_r2_g66_h64_t2 -1 x_r2_g66 -1 x_r2_g64 >= -1 ;
1 p_r2_g82_h80_t2 -1 x_r2_g82 <= 0 ;
1 p_r2_g82_h80_t2 -1 x_r2_g80 <= 0 ;
1 p_r2_g82_h80_t2 -1 x_r2_g82 -1 x_r2_g80 >= -1 ;
1 p_r2_g100_h98_t2 -1 x_r2_g100 <= 0 ;
1 p_r2_g100_h98_t2 -1 x_r2_g98 <= 0 ;
1 p_r2_g100_h98_t2 -1 x_r2_g100 -1 x_r2_g98 >= -1 ;
1 p_r2_g164_h162_t2 -1 x_r2_g164 <= 0 ;
1 p_r2_g164_h162_t2 -1 x_r2_g162 <= 0 ;
1 p_r2_g164_h162_t2 -1 x_r2_g164 -1 x_r2_g162 >= -1 ;
1 p_r2_g165_h163_t2 -1 x_r2_g165 <= 0 ;
1 p_r2_g165_h163_t2 -1 x_r2_g163 <= 0 ;
1 p_r2_g165_h163_t2 -1 x_r2_g165 -1 x_r2_g163 >= -1 ;
1 p_r3_g13_h11_t2 -1 x_r3_g13 <= 0 ;
1 p_r3_g13_h11_t2 -1 x_r3_g11 <= 0 ;
1 p_r3_g13_h11_t2 -1 x_r3_g13 -1 x_r3_g11 >= -1 ;
1 p_r3_g15_h13_t2 -1 x_r3_g15 <= 0 ;
1 p_r3_g15_h13_t2 -1 x_r3_g13 <= 0 ;
1 p_r3_g15_h13_t2 -1 x_r3_g15 -1 x_r3_g13 >= -1 ;
1 p_r3_g18_h16_t2 -1 x_r3_g18 <= 0 ;
1 p_r3_g18_h16_t2 -1 x_r3_g16 <= 0 ;
1 p_r3_g18_h16_t2 -1 x_r3_g18 -1 x_r3_g16 >= -1 ;
1 p_r3_g36_h34_t2 -1 x_r3_g36 <= 0 ;
1 p_r3_g36_h34_t2 -1 x_r3_g34 <= 0 ;
1 p_r3_g36_h34_t2 -1 x_r3_g36 -1 x_r3_g34 >= -1 ;
1 p_r3_g53_h51_t2 -1 x_r3_g53 <= 0 ;
1 p_r3_g53_h51_t2 -1 x_r3_g51 <= 0 ;
1 p_r3_g53_h51_t2 -1 x_r3_g53 -1 x_r3_g51 >= -1 ;
1 p_r3_g79_h77_t2 -1 x_r3_g79 <= 0 ;
1 p_r3_g79_h77_t2 -1 x_r3_g77 <= 0 ;
1 p_r3_g79_h77_t2 -1 x_r3_g79 -1 x_r3_g77 >= -1 ;
1 p_r3_g113_h111_t2 -1 x_r3_g113 <= 0 ;
1 p_r3_g113_h111_t2 -1 x_r3_g111 <= 0 ;
1 p_r3_g113_h111_t2 -1 x_r3_g113 -1 x_r3_g111 >= -1 ;
1 p_r3_g123_h121_t2 -1 x_r3_g123 <= 0 ;
1 p_r3_g123_h121_t2 -1 x_r3_g121 <= 0 ;
1 p_r3_g123_h121_t2 -1 x_r3_g123 -1 x_r3_g121 >= -1 ;
1 p_r3_g125_h123_t2 -1 x_r3_g125 <= 0 ;
1 p_r3_g125_h123_t2 -1 x_r3_g123 <= 0 ;
1 p_r3_g125_h123_t2 -1 x_r3_g125 -1 x_r3_g123 >= -1 ;
1 p_r3_g147_h145_t2 -1 x_r3_g147 <= 0 ;
1 p_r3_g147_h145_t2 -1 x_r3_g145 <= 0 ;
1 p_r3_g147_h145_t2 -1 x_r3_g147 -1 x_r3_g145 >= -1 ;
1 d_2 -1 x_r0_g1 -1 x_r0_g4 -1 x_r0_g7 -1 x_r0_g9 -1 x_r0_g14 -2 x_r0_g17 -1 x_r0_g28 -1 x_r0_g32 -1 x_r0_g36 -2 x_r0_g47 -1 x_r0_g54 -2 x_r0_g60 -1 x_r0_g67 -1 x_r0_g79 -1 x_r0_g101 -1 x_r0_g102 -2 x_r0_g118 -1 x_r0_g121 -1 x_r0_g123 -1 x_r0_g130 -2 x_r0_g144 -2 x_r0_g153 -1 x_r0_g162 -1 x_r1_g8 -1 x_r1_g25 -1 x_r1_g30 -1 x_r1_g31 -1 x_r1_g35 -2 x_r1_g38 -1 x_r1_g59 -1 x_r1_g64 -2 x_r1_g67 -1 x_r1_g76 -2 x_r1_g80 -1 x_r1_g83 -1 x_r1_g90 -1 x_r1_g91 -1 x_r1_g93 -1 x_r1_g96 -1 x_r1_g107 -1 x_r1_g110 -1 x_r1_g111 -1 x_r1_g113 -2 x_r1_g114 -2 x_r1_g117 -2 x_r1_g121 -1 x_r1_g126 -1 x_r1_g128 -1 x_r1_g132 -1 x_r1_g143 -1 x_r1_g154 -1 x_r1_g157 -2 x_r1_g161 -2 x_r2_g2 -1 x_r2_g18 -2 x_r2_g29 -1 x_r2_g30 -1 x_r2_g48 -1 x_r2_g60 -1 x_r2_g66 -1 x_r2_g67 -1 x_r2_g70 -1 x_r2_g73 -1 x_r2_g77 -1 x_r2_g80 -1 x_r2_g91 -1 x_r2_g95 -1 x_r2_g100 -1 x_r2_g107 -1 x_r2_g110 -1 x_r2_g111 -1 x_r2_g120 -2 x_r2_g128 -1 x_r2_g135 -1 x_r2_g136 -1 x_r2_g139 -1 x_r2_g142 -1 x_r2_g149 -1 x_r2_g152 -2 x_r2_g155 -1 x_r2_g158 -2 x_r2_g159 -1 x_r2_g162 -1 x_r2_g163 -1 x_r2_g165 -2 x_r3_g3 -2 x_r3_g7 -1 x_r3_g8 -1 x_r3_g11 -1 x_r3_g15 -1 x_r3_g18 -1 x_r3_g19 -1 x_r3_g34 -1 x_r3_g36 -1 x_r3_g51 -1 x_r3_g53 -2 x_r3_g57 -1 x_r3_g72 -1 x_r3_g77 -1 x_r3_g79 -1 x_r3_g91 -1 x_r3_g106 -1 x_r3_g121 -1 x_r3_g124 -1 x_r3_g125 -1 x_r3_g138 -1 x_r3_g144 -1 x_r3_g145 -1 x_r3_g147 -1 x_r3_g162 -1 x_r3_g165 -1 p_r0_g9_h7_t2 -1 p_r0_g22_h20_t2 -1 p_r0_g25_h23_t2 -1 p_r0_g28_h26_t2 -1 p_r0_g34_h32_t2 -1 p_r0_g36_h34_t2 -1 p_r0_g37_h35_t2 -1 p_r0_g69_h67_t2 -1 p_r0_g70_h68_t2 -1 p_r0_g123_h121_t2 -1 p_r1_g13_h11_t2 -1 p_r1_g15_h13_t2 -1 p_r1_g17_h15_t2 -1 p_r1_g64_h62_t2 -1 p_r1_g93_h91_t2 -1 p_r1_g110_h108_t2 -1 p_r1_g113_h111_t2 -1 p_r1_g128_h126_t2 -1 p_r1_g157_h155_t2 -1 p_r2_g62_h60_t2 -1 p_r2_g64_h62_t2 -1 p_r2_g66_h64_t2 -1 p_r2_g82_h80_t2 -1 p_r2_g100_h98_t2 -1 p_r2_g164_h162_t2 -1 p_r2_g165_h163_t2 -1 p_r3_g13_h11_t2 -1 p_r3_g15_h13_t2 -1 p_r3_g18_h16_t2 -1 p_r3_g36_h34_t2 -1 p_r3_g53_h51_t2 -1 p_r3_g79_h77_t2 -1 p_r3_g113_h111_t2 -1 p_r3_g123_h121_t2 -1 p_r3_g125_h123_t2 -1 p_r3_g147_h145_t2 = -62 ;
1 d_2 -1 u_2 <= 0 ;
-1 d_2 -1 u_2 <= 0 ;
1 u_2 -1 M <= 0 ;
1 u_2 <= 2 ;
1 p_r0_g4_h1_t3 -1 x_r0_g4 <= 0 ;
1 p_r0_g4_h1_t3 -1 x_r0_g1 <= 0 ;
1 p_r0_g4_h1_t3 -1 x_r0_g4 -1 x_r0_g1 >= -1 ;
1 p_r0_g7_h4_t3 -1 x_r0_g7 <= 0 ;
1 p_r0_g7_h4_t3 -1 x_r0_g4 <= 0 ;
1 p_r0_g7_h4_t3 -1 x_r0_g7 -1 x_r0_g4 >= -1 ;
1 p_r0_g17_h14_t3 -1 x_r0_g17 <= 0 ;
1 p_r0_g17_h14_t3 -1 x_r0_g14 <= 0 ;
1 p_r0_g17_h14_t3 -1 x_r0_g17 -1 x_r0_g14 >= -1 ;
1 p_r0_g20_h17_t3 -1 x_r0_g20 <= 0 ;
1 p_r0_g20_h17_t3 -1 x_r0_g17 <= 0 ;
1 p_r0_g20_h17_t3 -1 x_r0_g20 -1 x_r0_g17 >= -1 ;
1 p_r0_g23_h20_t3 -1 x_r0_g23 <= 0 ;
1 p_r0_g23_h20_t3 -1 x_r0_g20 <= 0 ;
1 p_r0_g23_h20_t3 -1 x_r0_g23 -1 x_r0_g20 >= -1 ;
1 p_r0_g25_h22_t3 -1 x_r0_g25 <= 0 ;
1 p_r0_g25_h22_t3 -1 x_r0_g22 <= 0 ;
1 p_r0_g25_h22_t3 -1 x_r0_g25 -1 x_r0_g22 >= -1 ;
1 p_r0_g26_h23_t3 -1 x_r0_g26 <= 0 ;
1 p_r0_g26_h23_t3 -1 x_r0_g23 <= 0 ;
1 p_r0_g26_h23_t3 -1 x_r0_g26 -1 x_r0_g23 >= -1 ;
1 p_r0_g28_h25_t3 -1 x_r0_g28 <= 0 ;
1 p_r0_g28_h25_t3 -1 x_r0_g25 <= 0 ;
1 p_r0_g28_h25_t3 -1 x_r0_g28 -1 x_r0_g25 >= -1 ;
1 p_r0_g35_h32_t3 -1 x_r0_g35 <= 0 ;
1 p_r0_g35_h32_t3 -1 x_r0_g32 <= 0 ;
1 p_r0_g35_h32_t3 -1 x_r0_g35 -1 x_r0_g32 >= -1 ;
1 p_r0_g37_h34_t3 -1 x_r0_g37 <= 0 ;
1 p_r0_g37_h34_t3 -1 x_r0_g34 <= 0 ;
1 p_r0_g37_h34_t3 -1 x_r0_g37 -1 x_r0_g34 >= -1 ;
1 p_r0_g70_h67_t3 -1 x_r0_g70 <= 0 ;
1 p_r0_g70_h67_t3 -1 x_r0_g67 <= 0 ;
1 p_r0_g70_h67_t3 -1 x_r0_g70 -1 x_r0_g67 >= -1 ;
1 p_r0_g87_h84_t3 -1 x_r0_g87 <= 0 ;
1 p_r0_g87_h84_t3 -1 x_r0_g84 <= 0 ;
1 p_r0_g87_h84_t3 -1 x_r0_g87 -1 x_r0_g84 >= -1 ;
1 p_r0_g121_h118_t3 -1 x_r0_g121 <= 0 ;
1 p_r0_g121_h118_t3 -1 x_r0_g118 <= 0 ;
1 p_r0_g121_h118_t3 -1 x_r0_g121 -1 x_r0_g118 >= -1 ;
1 p_r1_g11_h8_t3 -1 x_r1_g11 <= 0 ;
1 p_r1_g11_h8_t3 -1 x_r1_g8 <= 0 ;
1 p_r1_g11_h8_t3 -1 x_r1_g11 -1 x_r1_g8 >= -1 ;
1 p_r1_g38_h35_t3 -1 x_r1_g38 <= 0 ;
1 p_r1_g38_h35_t3 -1 x_r1_g35 <= 0 ;
1 p_r1_g38_h35_t3 -1 x_r1_g38 -1 x_r1_g35 >= -1 ;
1 p_r1_g62_h59_t3 -1 x_r1_g62 <= 0 ;
1 p_r1_g62_h59_t3 -1 x_r1_g59 <= 0 ;
1 p_r1_g62_h59_t3 -1 x_r1_g62 -1 x_r1_g59 >= -1 ;
1 p_r1_g67_h64_t3 -1 x_r1_g67 <= 0 ;
1 p_r1_g67_h64_t3 -1 x_r1_g64 <= 0 ;
1 p_r1_g67_h64_t3 -1 x_r1_g67 -1 x_r1_g64 >= -1 ;
1 p_r1_g83_h80_t3 -1 x_r1_g83 <= 0 ;
1 p_r1_g83_h80_t3 -1 x_r1_g80 <= 0 ;
1 p_r1_g83_h80_t3 -1 x_r1_g83 -1 x_r1_g80 >= -1 ;
1 p_r1_g93_h90_t3 -1 x_r1_g93 <= 0 ;
1 p_r1_g93_h90_t3 -1 x_r1_g90 <= 0 ;
1 p_r1_g93_h90_t3 -1 x_r1_g93 -1 x_r1_g90 >= -1 ;
1 p_r1_g96_h93_t3 -1 x_r1_g96 <= 0 ;
1 p_r1_g96_h93_t3 -1 x_r1_g93 <= 0 ;
1 p_r1_g96_h93_t3 -1 x_r1_g96 -1 x_r1_g93 >= -1 ;
1 p_r1_g110_h107_t3 -1 x_r1_g110 <= 0 ;
1 p_r1_g110_h107_t3 -1 x_r1_g107 <= 0 ;
1 p_r1_g110_h107_t3 -1 x_r1_g110 -1 x_r1_g107 >= -1 ;
1 p_r1_g111_h108_t3 -1 x_r1_g111 <= 0 ;
1 p_r1_g111_h108_t3 -1 x_r1_g108 <= 0 ;
1 p_r1_g111_h108_t3 -1 x_r1_g111 -1 x_r1_g108 >= -1 ;
1 p_r1_g113_h110_t3 -1 x_r1_g113 <= 0 ;
1 p_r1_g113_h110_t3 -1 x_r1_g110 <= 0 ;
1 p_r1_g113_h110_t3 -1 x_r1_g113 -1 x_r1_g110 >= -1 ;
1 p_r1_g114_h111_t3 -1 x_r1_g114 <= 0 ;
1 p_r1_g114_h111_t3 -1 x_r1_g111 <= 0 ;
1 p_r1_g114_h111_t3 -1 x_r1_g114 -1 x_r1_g111 >= -1 ;
1 p_r1_g117_h114_t3 -1 x_r1_g117 <= 0 ;
1 p_r1_g117_h114_t3 -1 x_r1_g114 <= 0 ;
1 p_r1_g117_h114_t3 -1 x_r1_g117 -1 x_r1_g114 >= -1 ;
1 p_r1_g146_h143_t3 -1 x_r1_g146 <= 0 ;
1 p_r1_g146_h143_t3 -1 x_r1_g143 <= 0 ;
1 p_r1_g146_h143_t3 -1 x_r1_g146 -1 x_r1_g143 >= -1 ;
1 p_r1_g157_h154_t3 -1 x_r1_g157 <= 0 ;
1 p_r1_g157_h154_t3 -1 x_r1_g154 <= 0 ;
1 p_r1_g157_h154_t3 -1 x_r1_g157 -1 x_r1_g154 >= -1 ;
1 p_r2_g67_h64_t3 -1 x_r2_g67 <= 0 ;
1 p_r2_g67_h64_t3 -1 x_r2_g64 <= 0 ;
1 p_r2_g67_h64_t3 -1 x_r2_g67 -1 x_r2_g64 >= -1 ;
1 p_r2_g70_h67_t3 -1 x_r2_g70 <= 0 ;
1 p_r2_g70_h67_t3 -1 x_r2_g67 <= 0 ;
1 p_r2_g70_h67_t3 -1 x_r2_g70 -1 x_r2_g67 >= -1 ;
1 p_r2_g73_h70_t3 -1 x_r2_g73 <= 0 ;
1 p_r2_g73_h70_t3 -1 x_r2_g70 <= 0 ;
1 p_r2_g73_h70_t3 -1 x_r2_g73 -1 x_r2_g70 >= -1 ;
1 p_r2_g77_h74_t3 -1 x_r2_g77 <= 0 ;
1 p_r2_g77_h74_t3 -1 x_r2_g74 <= 0 ;
1 p_r2_g77_h74_t3 -1 x_r2_g77 -1 x_r2_g74 >= -1 ;
1 p_r2_g80_h77_t3 -1 x_r2_g80 <= 0 ;
1 p_r2_g80_h77_t3 -1 x_r2_g77 <= 0 ;
1 p_r2_g80_h77_t3 -1 x_r2_g80 -1 x_r2_g77 >= -1 ;
1 p_r2_g98_h95_t3 -1 x_r2_g98 <= 0 ;
1 p_r2_g98_h95_t3 -1 x_r2_g95 <= 0 ;
1 p_r2_g98_h95_t3 -1 x_r2_g98 -1 x_r2_g95 >= -1 ;
1 p_r2_g110_h107_t3 -1 x_r2_g110 <= 0 ;
1 p_r2_g110_h107_t3 -1 x_r2_g107 <= 0 ;
1 p_r2_g110_h107_t3 -1 x_r2_g110 -1 x_r2_g107 >= -1 ;
1 p_r2_g139_h136_t3 -1 x_r2_g139 <= 0 ;
1 p_r2_g139_h136_t3 -1 x_r2_g136 <= 0 ;
1 p_r2_g139_h136_t3 -1 x_r2_g139 -1 x_r2_g136 >= -1 ;
1 p_r2_g142_h139_t3 -1 x_r2_g142 <= 0 ;
1 p_r2_g142_h139_t3 -1 x_r2_g139 <= 0 ;
1 p_r2_g142_h139_t3 -1 x_r2_g142 -1 x_r2_g139 >= -1 ;
1 p_r2_g152_h149_t3 -1 x_r2_g152 <= 0 ;
1 p_r2_g152_h149_t3 -1 x_r2_g149 <= 0 ;
1 p_r2_g152_h149_t3 -1 x_r2_g152 -1 x_r2_g149 >= -1 ;
1 p_r2_g155_h152_t3 -1 x_r2_g155 <= 0 ;
1 p_r2_g155_h152_t3 -1 x_r2_g152 <= 0 ;
1 p_r2_g155_h152_t3 -1 x_r2_g155 -1 x_r2_g152 >= -1 ;
1 p_r2_g158_h155_t3 -1 x_r2_g158 <= 0 ;
1 p_r2_g158_h155_t3 -1 x_r2_g155 <= 0 ;
1 p_r2_g158_h155_t3 -1 x_r2_g158 -1 x_r2_g155 >= -1 ;
1 p_r2_g162_h159_t3 -1 x_r2_g162 <= 0 ;
1 p_r2_g162_h159_t3 -1 x_r2_g159 <= 0 ;
1 p_r2_g162_h159_t3 -1 x_r2_g162 -1 x_r2_g159 >= -1 ;
1 p_r2_g165_h162_t3 -1 x_r2_g165 <= 0 ;
1 p_r2_g165_h162_t3 -1 x_r2_g162 <= 0 ;
1 p_r2_g165_h162_t3 -1 x_r2_g165 -1 x_r2_g162 >= -1 ;
1 p_r3_g11_h8_t3 -1 x_r3_g11 <= 0 ;
1 p_r3_g11_h8_t3 -1 x_r3_g8 <= 0 ;
1 p_r3_g11_h8_t3 -1 x_r3_g11 -1 x_r3_g8 >= -1 ;
1 p_r3_g16_h13_t3 -1 x_r3_g16 <= 0 ;
1 p_r3_g16_h13_t3 -1 x_r3_g13 <= 0 ;
1 p_r3_g16_h13_t3 -1 x_r3_g16 -1 x_r3_g13 >= -1 ;
1 p_r3_g18_h15_t3 -1 x_r3_g18 <= 0 ;
1 p_r3_g18_h15_t3 -1 x_r3_g15 <= 0 ;
1 p_r3_g18_h15_t3 -1 x_r3_g18 -1 x_r3_g15 >= -1 ;
1 p_r3_g19_h16_t3 -1 x_r3_g19 <= 0 ;
1 p_r3_g19_h16_t3 -1 x_r3_g16 <= 0 ;
1 p_r3_g19_h16_t3 -1 x_r3_g19 -1 x_r3_g16 >= -1 ;
1 p_r3_g36_h33_t3 -1 x_r3_g36 <= 0 ;
1 p_r3_g36_h33_t3 -1 x_r3_g33 <= 0 ;
1 p_r3_g36_h33_t3 -1 x_r3_g36 -1 x_r3_g33 >= -1 ;
1 p_r3_g56_h53_t3 -1 x_r3_g56 <= 0 ;
1 p_r3_g56_h53_t3 -1 x_r3_g53 <= 0 ;
1 p_r3_g56_h53_t3 -1 x_r3_g56 -1 x_r3_g53 >= -1 ;
1 p_r3_g94_h91_t3 -1 x_r3_g94 <= 0 ;
1 p_r3_g94_h91_t3 -1 x_r3_g91 <= 0 ;
1 p_r3_g94_h91_t3 -1 x_r3_g94 -1 x_r3_g91 >= -1 ;
1 p_r3_g106_h103_t3 -1 x_r3_g106 <= 0 ;
1 p_r3_g106_h103_t3 -1 x_r3_g103 <= 0 ;
1 p_r3_g106_h103_t3 -1 x_r3_g106 -1 x_r3_g103 >= -1 ;
1 p_r3_g124_h121_t3 -1 x_r3_g124 <= 0 ;
1 p_r3_g124_h121_t3 -1 x_r3_g121 <= 0 ;
1 p_r3_g124_h121_t3 -1 x_r3_g124 -1 x_r3_g121 >= -1 ;
1 p_r3_g128_h125_t3 -1 x_r3_g128 <= 0 ;
1 p_r3_g128_h125_t3 -1 x_r3_g125 <= 0 ;
1 p_r3_g128_h125_t3 -1 x_r3_g128 -1 x_r3_g125 >= -1 ;
1 p_r3_g147_h144_t3 -1 x_r3_g147 <= 0 ;
1 p_r3_g147_h144_t3 -1 x_r3_g144 <= 0 ;
1 p_r3_g147_h144_t3 -1 x_r3_g147 -1 x_r3_g144 >= -1 ;
1 p_r3_g162_h159_t3 -1 x_r3_g162 <= 0 ;
1 p_r3_g162_h159_t3 -1 x_r3_g159 <= 0 ;
1 p_r3_g162_h159_t3 -1 x_r3_g162 -1 x_r3_g159 >= -1 ;
1 p_r3_g165_h162_t3 -1 x_r3_g165 <= 0 ;
1 p_r3_g165_h162_t3 -1 x_r3_g162 <= 0 ;
1 p_r3_g165_h162_t3 -1 x_r3_g165 -1 x_r3_g162 >= -1 ;
1 d_3 -1 x_r0_g1 -2 x_r0_g9 -1 x_r0_g14 -1 x_r0_g22 -1 x_r0_g35 -1 x_r0_g37 -2 x_r0_g48 -1 x_r0_g54 -1 x_r0_g60 -1 x_r0_g68 -1 x_r0_g87 -1 x_r0_g97 -1 x_r0_g101 -2 x_r0_g123 -1 x_r0_g130 -1 x_r0_g143 -2 x_r0_g162 -2 x_r1_g13 -1 x_r1_g15 -1 x_r1_g17 -1 x_r1_g30 -1 x_r1_g35 -1 x_r1_g53 -1 x_r1_g59 -1 x_r1_g62 -1 x_r1_g67 -1 x_r1_g75 -1 x_r1_g76 -1 x_r1_g90 -1 x_r1_g91 -1 x_r1_g113 -1 x_r1_g121 -1 x_r1_g126 -1 x_r1_g143 -1 x_r1_g157 -1 x_r1_g161 -1 x_r2_g18 -1 x_r2_g29 -2 x_r2_g30 -1 x_r2_g34 -1 x_r2_g60 -1 x_r2_g62 -1 x_r2_g64 -1 x_r2_g66 -1 x_r2_g80 -1 x_r2_g82 -1 x_r2_g86 -1 x_r2_g91 -1 x_r2_g98 -1 x_r2_g107 -1 x_r2_g110 -1 x_r2_g111 -1 x_r2_g135 -1 x_r2_g149 -1 x_r2_g158 -1 x_r2_g163 -2 x_r2_g164 -1 x_r2_g165 -1 x_r3_g3 -1 x_r3_g7 -1 x_r3_g8 -1 x_r3_g15 -1 x_r3_g19 -1 x_r3_g27 -1 x_r3_g33 -1 x_r3_g34 -1 x_r3_g36 -1 x_r3_g56 -2 x_r3_g65 -1 x_r3_g72 -2 x_r3_g77 -1 x_r3_g79 -1 x_r3_g111 -1 x_r3_g113 -1 x_r3_g121 -1 x_r3_g124 -1 x_r3_g125 -2 x_r3_g145 -1 x_r3_g154 -1 x_r3_g165 -1 p_r0_g4_h1_t3 -1 p_r0_g7_h4_t3 -1 p_r0_g17_h14_t3 -1 p_r0_g20_h17_t3 -1 p_r0_g23_h20_t3 -1 p_r0_g25_h22_t3 -1 p_r0_g26_h23_t3 -1 p_r0_g28_h25_t3 -1 p_r0_g35_h32_t3 -1 p_r0_g37_h34_t3 -1 p_r0_g70_h67_t3 -1 p_r0_g87_h84_t3 -1 p_r0_g121_h118_t3 -1 p_r1_g11_h8_t3 -1 p_r1_g38_h35_t3 -1 p_r1_g62_h59_t3 -1 p_r1_g67_h64_t3 -1 p_r1_g83_h80_t3 -1 p_r1_g93_h90_t3 -1 p_r1_g96_h93_t3 -1 p_r1_g110_h107_t3 -1 p_r1_g111_h108_t3 -1 p_r1_g113_h110_t3 -1 p_r1_g114_h111_t3 -1 p_r1_g117_h114_t3 -1 p_r1_g146_h143_t3 -1 p_r1_g157_h154_t3 -1 p_r2_g67_h64_t3 -1 p_r2_g70_h67_t3 -1 p_r2_g73_h70_t3 -1 p_r2_g77_h74_t3 -1 p_r2_g80_h77_t3 -1 p_r2_g98_h95_t3 -1 p_r2_g110_h107_t3 -1 p_r2_g139_h136_t3 -1 p_r2_g142_h139_t3 -1 p_r2_g152_h149_t3 -1 p_r2_g155_h152_t3 -1 p_r2_g158_h155_t3 -1 p_r2_g162_h159_t3 -1 p_r2_g165_h162_t3 -1 p_r3_g11_h8_t3 -1 p_r3_g16_h13_t3 -1 p_r3_g18_h15_t3 -1 p_r3_g19_h16_t3 -1 p_r3_g36_h33_t3 -1 p_r3_g56_h53_t3 -1 p_r3_g94_h91_t3 -1 p_r3_g106_h103_t3 -1 p_r3_g124_h121_t3 -1 p_r3_g128_h125_t3 -1 p_r3_g147_h144_t3 -1 p_r3_g162_h159_t3 -1 p_r3_g165_h162_t3 = -47 ;
1 d_3 -1 u_3 <= 0 ;
-1 d_3 -1 u_3 <= 0 ;
1 u_3 -1 M <= 0 ;
1 u_3 <= 2 ;
1 p_r0_g26_h22_t4 -1 x_r0_g26 <= 0 ;
1 p_r0_g26_h22_t4 -1 x_r0_g22 <= 0 ;
1 p_r0_g26_h22_t4 -1 x_r0_g26 -1 x_r0_g22 >= -1 ;
1 p_r0_g32_h28_t4 -1 x_r0_g32 <= 0 ;
1 p_r0_g32_h28_t4 -1 x_r0_g28 <= 0 ;
1 p_r0_g32_h28_t4 -1 x_r0_g32 -1 x_r0_g28 >= -1 ;
1 p_r0_g36_h32_t4 -1 x_r0_g36 <= 0 ;
1 p_r0_g36_h32_t4 -1 x_r0_g32 <= 0 ;
1 p_r0_g36_h32_t4 -1 x_r0_g36 -1 x_r0_g32 >= -1 ;
1 p_r0_g101_h97_t4 -1 x_r0_g101 <= 0 ;
1 p_r0_g101_h97_t4 -1 x_r0_g97 <= 0 ;
1 p_r0_g101_h97_t4 -1 x_r0_g101 -1 x_r0_g97 >= -1 ;
1 p_r1_g15_h11_t4 -1 x_r1_g15 <= 0 ;
1 p_r1_g15_h11_t4 -1 x_r1_g11 <= 0 ;
1 p_r1_g15_h11_t4 -1 x_r1_g15 -1 x_r1_g11 >= -1 ;
1 p_r1_g17_h13_t4 -1 x_r1_g17 <= 0 ;
1 p_r1_g17_h13_t4 -1 x_r1_g13 <= 0 ;
1 p_r1_g17_h13_t4 -1 x_r1_g17 -1 x_r1_g13 >= -1 ;
1 p_r1_g35_h31_t4 -1 x_r1_g35 <= 0 ;
1 p_r1_g35_h31_t4 -1 x_r1_g31 <= 0 ;
1 p_r1_g35_h31_t4 -1 x_r1_g35 -1 x_r1_g31 >= -1 ;
1 p_r1_g80_h76_t4 -1 x_r1_g80 <= 0 ;
1 p_r1_g80_h76_t4 -1 x_r1_g76 <= 0 ;
1 p_r1_g80_h76_t4 -1 x_r1_g80 -1 x_r1_g76 >= -1 ;
1 p_r1_g111_h107_t4 -1 x_r1_g111 <= 0 ;
1 p_r1_g111_h107_t4 -1 x_r1_g107 <= 0 ;
1 p_r1_g111_h107_t4 -1 x_r1_g111 -1 x_r1_g107 >= -1 ;
1 p_r1_g114_h110_t4 -1 x_r1_g114 <= 0 ;
1 p_r1_g114_h110_t4 -1 x_r1_g110 <= 0 ;
1 p_r1_g114_h110_t4 -1 x_r1_g114 -1 x_r1_g110 >= -1 ;
1 p_r1_g117_h113_t4 -1 x_r1_g117 <= 0 ;
1 p_r1_g117_h113_t4 -1 x_r1_g113 <= 0 ;
1 p_r1_g117_h113_t4 -1 x_r1_g117 -1 x_r1_g113 >= -1 ;
1 p_r1_g121_h117_t4 -1 x_r1_g121 <= 0 ;
1 p_r1_g121_h117_t4 -1 x_r1_g117 <= 0 ;
1 p_r1_g121_h117_t4 -1 x_r1_g121 -1 x_r1_g117 >= -1 ;
1 p_r1_g132_h128_t4 -1 x_r1_g132 <= 0 ;
1 p_r1_g132_h128_t4 -1 x_r1_g128 <= 0 ;
1 p_r1_g132_h128_t4 -1 x_r1_g132 -1 x_r1_g128 >= -1 ;
1 p_r1_g161_h157_t4 -1 x_r1_g161 <= 0 ;
1 p_r1_g161_h157_t4 -1 x_r1_g157 <= 0 ;
1 p_r1_g161_h157_t4 -1 x_r1_g161 -1 x_r1_g157 >= -1 ;
1 p_r2_g2_h165_t4 -1 x_r2_g2 <= 0 ;
1 p_r2_g2_h165_t4 -1 x_r2_g165 <= 0 ;
1 p_r2_g2_h165_t4 -1 x_r2_g2 -1 x_r2_g165 >= -1 ;
1 p_r2_g34_h30_t4 -1 x_r2_g34 <= 0 ;
1 p_r2_g34_h30_t4 -1 x_r2_g30 <= 0 ;
1 p_r2_g34_h30_t4 -1 x_r2_g34 -1 x_r2_g30 >= -1 ;
1 p_r2_g64_h60_t4 -1 x_r2_g64 <= 0 ;
1 p_r2_g64_h60_t4 -1 x_r2_g60 <= 0 ;
1 p_r2_g64_h60_t4 -1 x_r2_g64 -1 x_r2_g60 >= -1 ;
1 p_r2_g66_h62_t4 -1 x_r2_g66 <= 0 ;
1 p_r2_g66_h62_t4 -1 x_r2_g62 <= 0 ;
1 p_r2_g66_h62_t4 -1 x_r2_g66 -1 x_r2_g62 >= -1 ;
1 p_r2_g70_h66_t4 -1 x_r2_g70 <= 0 ;
1 p_r2_g70_h66_t4 -1 x_r2_g66 <= 0 ;
1 p_r2_g70_h66_t4 -1 x_r2_g70 -1 x_r2_g66 >= -1 ;
1 p_r2_g74_h70_t4 -1 x_r2_g74 <= 0 ;
1 p_r2_g74_h70_t4 -1 x_r2_g70 <= 0 ;
1 p_r2_g74_h70_t4 -1 x_r2_g74 -1 x_r2_g70 >= -1 ;
1 p_r2_g77_h73_t4 -1 x_r2_g77 <= 0 ;
1 p_r2_g77_h73_t4 -1 x_r2_g73 <= 0 ;
1 p_r2_g77_h73_t4 -1 x_r2_g77 -1 x_r2_g73 >= -1 ;
1 p_r2_g86_h82_t4 -1 x_r2_g86 <= 0 ;
1 p_r2_g86_h82_t4 -1 x_r2_g82 <= 0 ;
1 p_r2_g86_h82_t4 -1 x_r2_g86 -1 x_r2_g82 >= -1 ;
1 p_r2_g95_h91_t4 -1 x_r2_g95 <= 0 ;
1 p_r2_g95_h91_t4 -1 x_r2_g91 <= 0 ;
1 p_r2_g95_h91_t4 -1 x_r2_g95 -1 x_r2_g91 >= -1 ;
1 p_r2_g111_h107_t4 -1 x_r2_g111 <= 0 ;
1 p_r2_g111_h107_t4 -1 x_r2_g107 <= 0 ;
1 p_r2_g111_h107_t4 -1 x_r2_g111 -1 x_r2_g107 >= -1 ;
1 p_r2_g139_h135_t4 -1 x_r2_g139 <= 0 ;
1 p_r2_g139_h135_t4 -1 x_r2_g135 <= 0 ;
1 p_r2_g139_h135_t4 -1 x_r2_g139 -1 x_r2_g135 >= -1 ;
1 p_r2_g159_h155_t4 -1 x_r2_g159 <= 0 ;
1 p_r2_g159_h155_t4 -1 x_r2_g155 <= 0 ;
1 p_r2_g159_h155_t4 -1 x_r2_g159 -1 x_r2_g155 >= -1 ;
1 p_r2_g162_h158_t4 -1 x_r2_g162 <= 0 ;
1 p_r2_g162_h158_t4 -1 x_r2_g158 <= 0 ;
1 p_r2_g162_h158_t4 -1 x_r2_g162 -1 x_r2_g158 >= -1 ;
1 p_r2_g163_h159_t4 -1 x_r2_g163 <= 0 ;
1 p_r2_g163_h159_t4 -1 x_r2_g159 <= 0 ;
1 p_r2_g163_h159_t4 -1 x_r2_g163 -1 x_r2_g159 >= -1 ;
1 p_r3_g7_h3_t4 -1 x_r3_g7 <= 0 ;
1 p_r3_g7_h3_t4 -1 x_r3_g3 <= 0 ;
1 p_r3_g7_h3_t4 -1 x_r3_g7 -1 x_r3_g3 >= -1 ;
1 p_r3_g11_h7_t4 -1 x_r3_g11 <= 0 ;
1 p_r3_g11_h7_t4 -1 x_r3_g7 <= 0 ;
1 p_r3_g11_h7_t4 -1 x_r3_g11 -1 x_r3_g7 >= -1 ;
1 p_r3_g15_h11_t4 -1 x_r3_g15 <= 0 ;
1 p_r3_g15_h11_t4 -1 x_r3_g11 <= 0 ;
1 p_r3_g15_h11_t4 -1 x_r3_g15 -1 x_r3_g11 >= -1 ;
1 p_r3_g19_h15_t4 -1 x_r3_g19 <= 0 ;
1 p_r3_g19_h15_t4 -1 x_r3_g15 <= 0 ;
1 p_r3_g19_h15_t4 -1 x_r3_g19 -1 x_r3_g15 >= -1 ;
1 p_r3_g57_h53_t4 -1 x_r3_g57 <= 0 ;
1 p_r3_g57_h53_t4 -1 x_r3_g53 <= 0 ;
1 p_r3_g57_h53_t4 -1 x_r3_g57 -1 x_r3_g53 >= -1 ;
1 p_r3_g125_h121_t4 -1 x_r3_g125 <= 0 ;
1 p_r3_g125_h121_t4 -1 x_r3_g121 <= 0 ;
1 p_r3_g125_h121_t4 -1 x_r3_g125 -1 x_r3_g121 >= -1 ;
1 p_r3_g128_h124_t4 -1 x_r3_g128 <= 0 ;
1 p_r3_g128_h124_t4 -1 x_r3_g124 <= 0 ;
1 p_r3_g128_h124_t4 -1 x_r3_g128 -1 x_r3_g124 >= -1 ;
1 d_4 -1 x_r0_g1 -2 x_r0_g7 -2 x_r0_g9 -1 x_r0_g17 -1 x_r0_g23 -1 x_r0_g26 -2 x_r0_g34 -1 x_r0_g36 -2 x_r0_g47 -1 x_r0_g48 -1 x_r0_g54 -1 x_r0_g67 -1 x_r0_g69 -1 x_r0_g70 -1 x_r0_g84 -2 x_r0_g102 -1 x_r0_g118 -1 x_r0_g121 -2 x_r0_g123 -1 x_r0_g130 -1 x_r0_g131 -1 x_r0_g143 -2 x_r0_g153 -1 x_r0_g162 -1 x_r1_g25 -1 x_r1_g30 -1 x_r1_g31 -1 x_r1_g35 -1 x_r1_g38 -2 x_r1_g53 -1 x_r1_g62 -1 x_r1_g64 -1 x_r1_g75 -1 x_r1_g80 -2 x_r1_g83 -2 x_r1_g91 -1 x_r1_g93 -1 x_r1_g96 -1 x_r1_g107 -1 x_r1_g108 -1 x_r1_g111 -1 x_r1_g113 -1 x_r1_g126 -1 x_r1_g128 -1 x_r1_g155 -1 x_r2_g18 -2 x_r2_g29 -1 x_r2_g30 -1 x_r2_g60 -1 x_r2_g62 -1 x_r2_g64 -1 x_r2_g67 -1 x_r2_g74 -1 x_r2_g82 -1 x_r2_g86 -1 x_r2_g91 -2 x_r2_g98 -1 x_r2_g100 -1 x_r2_g110 -1 x_r2_g111 -1 x_r2_g120 -1 x_r2_g128 -2 x_r2_g136 -1 x_r2_g142 -1 x_r2_g149 -1 x_r2_g152 -1 x_r2_g155 -1 x_r2_g163 -2 x_r2_g164 -1 x_r2_g165 -1 x_r3_g3 -2 x_r3_g8 -2 x_r3_g13 -2 x_r3_g16 -1 x_r3_g18 -1 x_r3_g33 -2 x_r3_g34 -2 x_r3_g36 -2 x_r3_g51 -1 x_r3_g53 -1 x_r3_g57 -1 x_r3_g65 -2 x_r3_g72 -1 x_r3_g77 -2 x_r3_g79 -1 x_r3_g94 -1 x_r3_g103 -1 x_r3_g106 -2 x_r3_g123 -1 x_r3_g125 -1 x_r3_g128 -2 x_r3_g138 -2 x_r3_g144 -1 x_r3_g145 -2 x_r3_g147 -1 x_r3_g159 -1 x_r3_g162 -1 x_r3_g165 -1 p_r0_g26_h22_t4 -1 p_r0_g32_h28_t4 -1 p_r0_g36_h32_t4 -1 p_r0_g101_h97_t4 -1 p_r1_g15_h11_t4 -1 p_r1_g17_h13_t4 -1 p_r1_g35_h31_t4 -1 p_r1_g80_h76_t4 -1 p_r1_g111_h107_t4 -1 p_r1_g114_h110_t4 -1 p_r1_g117_h113_t4 -1 p_r1_g121_h117_t4 -1 p_r1_g132_h128_t4 -1 p_r1_g161_h157_t4 -1 p_r2_g2_h165_t4 -1 p_r2_g34_h30_t4 -1 p_r2_g64_h60_t4 -1 p_r2_g66_h62_t4 -1 p_r2_g70_h66_t4 -1 p_r2_g74_h70_t4 -1 p_r2_g77_h73_t4 -1 p_r2_g86_h82_t4 -1 p_r2_g95_h91_t4 -1 p_r2_g111_h107_t4 -1 p_r2_g139_h135_t4 -1 p_r2_g159_h155_t4 -1 p_r2_g162_h158_t4 -1 p_r2_g163_h159_t4 -1 p_r3_g7_h3_t4 -1 p_r3_g11_h7_t4 -1 p_r3_g15_h11_t4 -1 p_r3_g19_h15_t4 -1 p_r3_g57_h53_t4 -1 p_r3_g125_h121_t4 -1 p_r3_g128_h124_t4 = -77 ;
1 d_4 -1 u_4 <= 0 ;
-1 d_4 -1 u_4 <= 0 ;
1 u_4 -1 M <= 0 ;
1 u_4 <= 1 ;
1 p_r0_g14_h7_t7 -1 x_r0_g14 <= 0 ;
1 p_r0_g14_h7_t7 -1 x_r0_g7 <= 0 ;
1 p_r0_g14_h7_t7 -1 x_r0_g14 -1 x_r0_g7 >= -1 ;
1 p_r0_g32_h25_t7 -1 x_r0_g32 <= 0 ;
1 p_r0_g32_h25_t7 -1 x_r0_g25 <= 0 ;
1 p_r0_g32_h25_t7 -1 x_r0_g32 -1 x_r0_g25 >= -1 ;
1 p_r0_g35_h28_t7 -1 x_r0_g35 <= 0 ;
1 p_r0_g35_h28_t7 -1 x_r0_g28 <= 0 ;
1 p_r0_g35_h28_t7 -1 x_r0_g35 -1 x_r0_g28 >= -1 ;
1 p_r0_g54_h47_t7 -1 x_r0_g54 <= 0 ;
1 p_r0_g54_h47_t7 -1 x_r0_g47 <= 0 ;
1 p_r0_g54_h47_t7 -1 x_r0_g54 -1 x_r0_g47 >= -1 ;
1 p_r0_g67_h60_t7 -1 x_r0_g67 <= 0 ;
1 p_r0_g67_h60_t7 -1 x_r0_g60 <= 0 ;
1 p_r0_g67_h60_t7 -1 x_r0_g67 -1 x_r0_g60 >= -1 ;
1 p_r0_g130_h123_t7 -1 x_r0_g130 <= 0 ;
1 p_r0_g130_h123_t7 -1 x_r0_g123 <= 0 ;
1 p_r0_g130_h123_t7 -1 x_r0_g130 -1 x_r0_g123 >= -1 ;
1 p_r1_g15_h8_t7 -1 x_r1_g15 <= 0 ;
1 p_r1_g15_h8_t7 -1 x_r1_g8 <= 0 ;
1 p_r1_g15_h8_t7 -1 x_r1_g15 -1 x_r1_g8 >= -1 ;
1 p_r1_g38_h31_t7 -1 x_r1_g38 <= 0 ;
1 p_r1_g38_h31_t7 -1 x_r1_g31 <= 0 ;
1 p_r1_g38_h31_t7 -1 x_r1_g38 -1 x_r1_g31 >= -1 ;
1 p_r1_g83_h76_t7 -1 x_r1_g83 <= 0 ;
1 p_r1_g83_h76_t7 -1 x_r1_g76 <= 0 ;
1 p_r1_g83_h76_t7 -1 x_r1_g83 -1 x_r1_g76 >= -1 ;
1 p_r1_g90_h83_t7 -1 x_r1_g90 <= 0 ;
1 p_r1_g90_h83_t7 -1 x_r1_g83 <= 0 ;
1 p_r1_g90_h83_t7 -1 x_r1_g90 -1 x_r1_g83 >= -1 ;
1 p_r1_g114_h107_t7 -1 x_r1_g114 <= 0 ;
1 p_r1_g114_h107_t7 -1 x_r1_g107 <= 0 ;
1 p_r1_g114_h107_t7 -1 x_r1_g114 -1 x_r1_g107 >= -1 ;
1 p_r1_g117_h110_t7 -1 x_r1_g117 <= 0 ;
1 p_r1_g117_h110_t7 -1 x_r1_g110 <= 0 ;
1 p_r1_g117_h110_t7 -1 x_r1_g117 -1 x_r1_g110 >= -1 ;
1 p_r1_g121_h114_t7 -1 x_r1_g121 <= 0 ;
1 p_r1_g121_h114_t7 -1 x_r1_g114 <= 0 ;
1 p_r1_g121_h114_t7 -1 x_r1_g121 -1 x_r1_g114 >= -1 ;
1 p_r1_g128_h121_t7 -1 x_r1_g128 <= 0 ;
1 p_r1_g128_h121_t7 -1 x_r1_g121 <= 0 ;
1 p_r1_g128_h121_t7 -1 x_r1_g128 -1 x_r1_g121 >= -1 ;
1 p_r1_g161_h154_t7 -1 x_r1_g161 <= 0 ;
1 p_r1_g161_h154_t7 -1 x_r1_g154 <= 0 ;
1 p_r1_g161_h154_t7 -1 x_r1_g161 -1 x_r1_g154 >= -1 ;
1 p_r2_g2_h162_t7 -1 x_r2_g2 <= 0 ;
1 p_r2_g2_h162_t7 -1 x_r2_g162 <= 0 ;
1 p_r2_g2_h162_t7 -1 x_r2_g2 -1 x_r2_g162 >= -1 ;
1 p_r2_g67_h60_t7 -1 x_r2_g67 <= 0 ;
1 p_r2_g67_h60_t7 -1 x_r2_g60 <= 0 ;
1 p_r2_g67_h60_t7 -1 x_r2_g67 -1 x_r2_g60 >= -1 ;
1 p_r2_g73_h66_t7 -1 x_r2_g73 <= 0 ;
1 p_r2_g73_h66_t7 -1 x_r2_g66 <= 0 ;
1 p_r2_g73_h66_t7 -1 x_r2_g73 -1 x_r2_g66 >= -1 ;
1 p_r2_g74_h67_t7 -1 x_r2_g74 <= 0 ;
1 p_r2_g74_h67_t7 -1 x_r2_g67 <= 0 ;
1 p_r2_g74_h67_t7 -1 x_r2_g74 -1 x_r2_g67 >= -1 ;
1 p_r2_g77_h70_t7 -1 x_r2_g77 <= 0 ;
1 p_r2_g77_h70_t7 -1 x_r2_g70 <= 0 ;
1 p_r2_g77_h70_t7 -1 x_r2_g77 -1 x_r2_g70 >= -1 ;
1 p_r2_g80_h73_t7 -1 x_r2_g80 <= 0 ;
1 p_r2_g80_h73_t7 -1 x_r2_g73 <= 0 ;
1 p_r2_g80_h73_t7 -1 x_r2_g80 -1 x_r2_g73 >= -1 ;
1 p_r2_g98_h91_t7 -1 x_r2_g98 <= 0 ;
1 p_r2_g98_h91_t7 -1 x_r2_g91 <= 0 ;
1 p_r2_g98_h91_t7 -1 x_r2_g98 -1 x_r2_g91 >= -1 ;
1 p_r2_g107_h100_t7 -1 x_r2_g107 <= 0 ;
1 p_r2_g107_h100_t7 -1 x_r2_g100 <= 0 ;
1 p_r2_g107_h100_t7 -1 x_r2_g107 -1 x_r2_g100 >= -1 ;
1 p_r2_g135_h128_t7 -1 x_r2_g135 <= 0 ;
1 p_r2_g135_h128_t7 -1 x_r2_g128 <= 0 ;
1 p_r2_g135_h128_t7 -1 x_r2_g135 -1 x_r2_g128 >= -1 ;
1 p_r2_g142_h135_t7 -1 x_r2_g142 <= 0 ;
1 p_r2_g142_h135_t7 -1 x_r2_g135 <= 0 ;
1 p_r2_g142_h135_t7 -1 x_r2_g142 -1 x_r2_g135 >= -1 ;
1 p_r2_g149_h142_t7 -1 x_r2_g149 <= 0 ;
1 p_r2_g149_h142_t7 -1 x_r2_g142 <= 0 ;
1 p_r2_g149_h142_t7 -1 x_r2_g149 -1 x_r2_g142 >= -1 ;
1 p_r2_g159_h152_t7 -1 x_r2_g159 <= 0 ;
1 p_r2_g159_h152_t7 -1 x_r2_g152 <= 0 ;
1 p_r2_g159_h152_t7 -1 x_r2_g159 -1 x_r2_g152 >= -1 ;
1 p_r2_g162_h155_t7 -1 x_r2_g162 <= 0 ;
1 p_r2_g162_h155_t7 -1 x_r2_g155 <= 0 ;
1 p_r2_g162_h155_t7 -1 x_r2_g162 -1 x_r2_g155 >= -1 ;
1 p_r2_g165_h158_t7 -1 x_r2_g165 <= 0 ;
1 p_r2_g165_h158_t7 -1 x_r2_g158 <= 0 ;
1 p_r2_g165_h158_t7 -1 x_r2_g165 -1 x_r2_g158 >= -1 ;
1 p_r3_g15_h8_t7 -1 x_r3_g15 <= 0 ;
1 p_r3_g15_h8_t7 -1 x_r3_g8 <= 0 ;
1 p_r3_g15_h8_t7 -1 x_r3_g15 -1 x_r3_g8 >= -1 ;
1 p_r3_g18_h11_t7 -1 x_r3_g18 <= 0 ;
1 p_r3_g18_h11_t7 -1 x_r3_g11 <= 0 ;
1 p_r3_g18_h11_t7 -1 x_r3_g18 -1 x_r3_g11 >= -1 ;
1 p_r3_g34_h27_t7 -1 x_r3_g34 <= 0 ;
1 p_r3_g34_h27_t7 -1 x_r3_g27 <= 0 ;
1 p_r3_g34_h27_t7 -1 x_r3_g34 -1 x_r3_g27 >= -1 ;
1 p_r3_g72_h65_t7 -1 x_r3_g72 <= 0 ;
1 p_r3_g72_h65_t7 -1 x_r3_g65 <= 0 ;
1 p_r3_g72_h65_t7 -1 x_r3_g72 -1 x_r3_g65 >= -1 ;
1 p_r3_g79_h72_t7 -1 x_r3_g79 <= 0 ;
1 p_r3_g79_h72_t7 -1 x_r3_g72 <= 0 ;
1 p_r3_g79_h72_t7 -1 x_r3_g79 -1 x_r3_g72 >= -1 ;
1 p_r3_g113_h106_t7 -1 x_r3_g113 <= 0 ;
1 p_r3_g113_h106_t7 -1 x_r3_g106 <= 0 ;
1 p_r3_g113_h106_t7 -1 x_r3_g113 -1 x_r3_g106 >= -1 ;
1 p_r3_g128_h121_t7 -1 x_r3_g128 <= 0 ;
1 p_r3_g128_h121_t7 -1 x_r3_g121 <= 0 ;
1 p_r3_g128_h121_t7 -1 x_r3_g128 -1 x_r3_g121 >= -1 ;
1 p_r3_g145_h138_t7 -1 x_r3_g145 <= 0 ;
1 p_r3_g145_h138_t7 -1 x_r3_g138 <= 0 ;
1 p_r3_g145_h138_t7 -1 x_r3_g145 -1 x_r3_g138 >= -1 ;
1 p_r3_g154_h147_t7 -1 x_r3_g154 <= 0 ;
1 p_r3_g154_h147_t7 -1 x_r3_g147 <= 0 ;
1 p_r3_g154_h147_t7 -1 x_r3_g154 -1 x_r3_g147 >= -1 ;
1 d_7 -1 x_r0_g4 -1 x_r0_g20 -1 x_r0_g22 -1 x_r0_g23 -1 x_r0_g26 -1 x_r0_g35 -1 x_r0_g36 -1 x_r0_g37 -1 x_r0_g47 -1 x_r0_g48 -1 x_r0_g67 -1 x_r0_g69 -2 x_r0_g70 -1 x_r0_g84 -1 x_r0_g97 -1 x_r0_g118 -1 x_r0_g123 -1 x_r0_g130 -1 x_r0_g143 -2 x_r0_g144 -2 x_r0_g153 -1 x_r0_g162 -1 x_r1_g8 -1 x_r1_g11 -1 x_r1_g13 -1 x_r1_g17 -2 x_r1_g25 -1 x_r1_g30 -1 x_r1_g35 -1 x_r1_g53 -1 x_r1_g59 -1 x_r1_g62 -1 x_r1_g64 -2 x_r1_g75 -1 x_r1_g76 -1 x_r1_g80 -2 x_r1_g91 -1 x_r1_g93 -2 x_r1_g96 -1 x_r1_g107 -1 x_r1_g108 -1 x_r1_g110 -1 x_r1_g117 -1 x_r1_g126 -1 x_r1_g157 -1 x_r1_g161 -1 x_r2_g18 -2 x_r2_g34 -1 x_r2_g48 -1 x_r2_g70 -1 x_r2_g80 -1 x_r2_g82 -1 x_r2_g86 -1 x_r2_g95 -1 x_r2_g98 -1 x_r2_g100 -1 x_r2_g107 -1 x_r2_g111 -1 x_r2_g120 -1 x_r2_g128 -1 x_r2_g136 -2 x_r2_g139 -1 x_r2_g155 -1 x_r2_g158 -2 x_r2_g164 -1 x_r3_g3 -1 x_r3_g8 -1 x_r3_g11 -2 x_r3_g13 -1 x_r3_g15 -1 x_r3_g16 -2 x_r3_g19 -1 x_r3_g27 -2 x_r3_g33 -1 x_r3_g34 -1 x_r3_g36 -1 x_r3_g53 -1 x_r3_g56 -1 x_r3_g79 -1 x_r3_g91 -1 x_r3_g103 -1 x_r3_g106 -1 x_r3_g111 -2 x_r3_g125 -2 x_r3_g144 -1 x_r3_g147 -1 x_r3_g159 -1 x_r3_g162 -1 x_r3_g165 -1 p_r0_g14_h7_t7 -1 p_r0_g32_h25_t7 -1 p_r0_g35_h28_t7 -1 p_r0_g54_h47_t7 -1 p_r0_g67_h60_t7 -1 p_r0_g130_h123_t7 -1 p_r1_g15_h8_t7 -1 p_r1_g38_h31_t7 -1 p_r1_g83_h76_t7 -1 p_r1_g90_h83_t7 -1 p_r1_g114_h107_t7 -1 p_r1_g117_h110_t7 -1 p_r1_g121_h114_t7 -1 p_r1_g128_h121_t7 -1 p_r1_g161_h154_t7 -1 p_r2_g2_h162_t7 -1 p_r2_g67_h60_t7 -1 p_r2_g73_h66_t7 -1 p_r2_g74_h67_t7 -1 p_r2_g77_h70_t7 -1 p_r2_g80_h73_t7 -1 p_r2_g98_h91_t7 -1 p_r2_g107_h100_t7 -1 p_r2_g135_h128_t7 -1 p_r2_g142_h135_t7 -1 p_r2_g149_h142_t7 -1 p_r2_g159_h152_t7 -1 p_r2_g162_h155_t7 -1 p_r2_g165_h158_t7 -1 p_r3_g15_h8_t7 -1 p_r3_g18_h11_t7 -1 p_r3_g34_h27_t7 -1 p_r3_g72_h65_t7 -1 p_r3_g79_h72_t7 -1 p_r3_g113_h106_t7 -1 p_r3_g128_h121_t7 -1 p_r3_g145_h138_t7 -1 p_r3_g154_h147_t7 = -56 ;
1 d_7 -1 u_7 <= 0 ;
-1 d_7 -1 u_7 <= 0 ;
1 u_7 -1 M <= 0 ;
1 u_7 <= 1 ;
1 p_r0_g4_h162_t9 -1 x_r0_g4 <= 0 ;
1 p_r0_g4_h162_t9 -1 x_r0_g162 <= 0 ;
1 p_r0_g4_h162_t9 -1 x_r0_g4 -1 x_r0_g162 >= -1 ;
1 p_r0_g23_h14_t9 -1 x_r0_g23 <= 0 ;
1 p_r0_g23_h14_t9 -1 x_r0_g14 <= 0 ;
1 p_r0_g23_h14_t9 -1 x_r0_g23 -1 x_r0_g14 >= -1 ;
1 p_r0_g26_h17_t9 -1 x_r0_g26 <= 0 ;
1 p_r0_g26_h17_t9 -1 x_r0_g17 <= 0 ;
1 p_r0_g26_h17_t9 -1 x_r0_g26 -1 x_r0_g17 >= -1 ;
1 p_r0_g32_h23_t9 -1 x_r0_g32 <= 0 ;
1 p_r0_g32_h23_t9 -1 x_r0_g23 <= 0 ;
1 p_r0_g32_h23_t9 -1 x_r0_g32 -1 x_r0_g23 >= -1 ;
1 p_r0_g34_h25_t9 -1 x_r0_g34 <= 0 ;
1 p_r0_g34_h25_t9 -1 x_r0_g25 <= 0 ;
1 p_r0_g34_h25_t9 -1 x_r0_g34 -1 x_r0_g25 >= -1 ;
1 p_r0_g35_h26_t9 -1 x_r0_g35 <= 0 ;
1 p_r0_g35_h26_t9 -1 x_r0_g26 <= 0 ;
1 p_r0_g35_h26_t9 -1 x_r0_g35 -1 x_r0_g26 >= -1 ;
1 p_r0_g37_h28_t9 -1 x_r0_g37 <= 0 ;
1 p_r0_g37_h28_t9 -1 x_r0_g28 <= 0 ;
1 p_r0_g37_h28_t9 -1 x_r0_g37 -1 x_r0_g28 >= -1 ;
1 p_r0_g69_h60_t9 -1 x_r0_g69 <= 0 ;
1 p_r0_g69_h60_t9 -1 x_r0_g60 <= 0 ;
1 p_r0_g69_h60_t9 -1 x_r0_g69 -1 x_r0_g60 >= -1 ;
1 p_r0_g79_h70_t9 -1 x_r0_g79 <= 0 ;
1 p_r0_g79_h70_t9 -1 x_r0_g70 <= 0 ;
1 p_r0_g79_h70_t9 -1 x_r0_g79 -1 x_r0_g70 >= -1 ;
1 p_r0_g130_h121_t9 -1 x_r0_g130 <= 0 ;
1 p_r0_g130_h121_t9 -1 x_r0_g121 <= 0 ;
1 p_r0_g130_h121_t9 -1 x_r0_g130 -1 x_r0_g121 >= -1 ;
1 p_r0_g153_h144_t9 -1 x_r0_g153 <= 0 ;
1 p_r0_g153_h144_t9 -1 x_r0_g144 <= 0 ;
1 p_r0_g153_h144_t9 -1 x_r0_g153 -1 x_r0_g144 >= -1 ;
1 p_r0_g162_h153_t9 -1 x_r0_g162 <= 0 ;
1 p_r0_g162_h153_t9 -1 x_r0_g153 <= 0 ;
1 p_r0_g162_h153_t9 -1 x_r0_g162 -1 x_r0_g153 >= -1 ;
1 p_r1_g17_h8_t9 -1 x_r1_g17 <= 0 ;
1 p_r1_g17_h8_t9 -1 x_r1_g8 <= 0 ;
1 p_r1_g17_h8_t9 -1 x_r1_g17 -1 x_r1_g8 >= -1 ;
1 p_r1_g62_h53_t9 -1 x_r1_g62 <= 0 ;
1 p_r1_g62_h53_t9 -1 x_r1_g53 <= 0 ;
1 p_r1_g62_h53_t9 -1 x_r1_g62 -1 x_r1_g53 >= -1 ;
1 p_r1_g76_h67_t9 -1 x_r1_g76 <= 0 ;
1 p_r1_g76_h67_t9 -1 x_r1_g67 <= 0 ;
1 p_r1_g76_h67_t9 -1 x_r1_g76 -1 x_r1_g67 >= -1 ;
1 p_r1_g117_h108_t9 -1 x_r1_g117 <= 0 ;
1 p_r1_g117_h108_t9 -1 x_r1_g108 <= 0 ;
1 p_r1_g117_h108_t9 -1 x_r1_g117 -1 x_r1_g108 >= -1 ;
1 p_r1_g126_h117_t9 -1 x_r1_g126 <= 0 ;
1 p_r1_g126_h117_t9 -1 x_r1_g117 <= 0 ;
1 p_r1_g126_h117_t9 -1 x_r1_g126 -1 x_r1_g117 >= -1 ;
1 p_r1_g155_h146_t9 -1 x_r1_g155 <= 0 ;
1 p_r1_g155_h146_t9 -1 x_r1_g146 <= 0 ;
1 p_r1_g155_h146_t9 -1 x_r1_g155 -1 x_r1_g146 >= -1 ;
1 p_r2_g73_h64_t9 -1 x_r2_g73 <= 0 ;
1 p_r2_g73_h64_t9 -1 x_r2_g64 <= 0 ;
1 p_r2_g73_h64_t9 -1 x_r2_g73 -1 x_r2_g64 >= -1 ;
1 p_r2_g82_h73_t9 -1 x_r2_g82 <= 0 ;
1 p_r2_g82_h73_t9 -1 x_r2_g73 <= 0 ;
1 p_r2_g82_h73_t9 -1 x_r2_g82 -1 x_r2_g73 >= -1 ;
1 p_r2_g86_h77_t9 -1 x_r2_g86 <= 0 ;
1 p_r2_g86_h77_t9 -1 x_r2_g77 <= 0 ;
1 p_r2_g86_h77_t9 -1 x_r2_g86 -1 x_r2_g77 >= -1 ;
1 p_r2_g91_h82_t9 -1 x_r2_g91 <= 0 ;
1 p_r2_g91_h82_t9 -1 x_r2_g82 <= 0 ;
1 p_r2_g91_h82_t9 -1 x_r2_g91 -1 x_r2_g82 >= -1 ;
1 p_r2_g95_h86_t9 -1 x_r2_g95 <= 0 ;
1 p_r2_g95_h86_t9 -1 x_r2_g86 <= 0 ;
1 p_r2_g95_h86_t9 -1 x_r2_g95 -1 x_r2_g86 >= -1 ;
1 p_r2_g100_h91_t9 -1 x_r2_g100 <= 0 ;
1 p_r2_g100_h91_t9 -1 x_r2_g91 <= 0 ;
1 p_r2_g100_h91_t9 -1 x_r2_g100 -1 x_r2_g91 >= -1 ;
1 p_r2_g107_h98_t9 -1 x_r2_g107 <= 0 ;
1 p_r2_g107_h98_t9 -1 x_r2_g98 <= 0 ;
1 p_r2_g107_h98_t9 -1 x_r2_g107 -1 x_r2_g98 >= -1 ;
1 p_r2_g120_h111_t9 -1 x_r2_g120 <= 0 ;
1 p_r2_g120_h111_t9 -1 x_r2_g111 <= 0 ;
1 p_r2_g120_h111_t9 -1 x_r2_g120 -1 x_r2_g111 >= -1 ;
1 p_r2_g158_h149_t9 -1 x_r2_g158 <= 0 ;
1 p_r2_g158_h149_t9 -1 x_r2_g149 <= 0 ;
1 p_r2_g158_h149_t9 -1 x_r2_g158 -1 x_r2_g149 >= -1 ;
1 p_r2_g164_h155_t9 -1 x_r2_g164 <= 0 ;
1 p_r2_g164_h155_t9 -1 x_r2_g155 <= 0 ;
1 p_r2_g164_h155_t9 -1 x_r2_g164 -1 x_r2_g155 >= -1 ;
1 p_r3_g7_h165_t9 -1 x_r3_g7 <= 0 ;
1 p_r3_g7_h165_t9 -1 x_r3_g165 <= 0 ;
1 p_r3_g7_h165_t9 -1 x_r3_g7 -1 x_r3_g165 >= -1 ;
1 p_r3_g16_h7_t9 -1 x_r3_g16 <= 0 ;
1 p_r3_g16_h7_t9 -1 x_r3_g7 <= 0 ;
1 p_r3_g16_h7_t9 -1 x_r3_g16 -1 x_r3_g7 >= -1 ;
1 p_r3_g27_h18_t9 -1 x_r3_g27 <= 0 ;
1 p_r3_g27_h18_t9 -1 x_r3_g18 <= 0 ;
1 p_r3_g27_h18_t9 -1 x_r3_g27 -1 x_r3_g18 >= -1 ;
1 p_r3_g36_h27_t9 -1 x_r3_g36 <= 0 ;
1 p_r3_g36_h27_t9 -1 x_r3_g27 <= 0 ;
1 p_r3_g36_h27_t9 -1 x_r3_g36 -1 x_r3_g27 >= -1 ;
1 p_r3_g65_h56_t9 -1 x_r3_g65 <= 0 ;
1 p_r3_g65_h56_t9 -1 x_r3_g56 <= 0 ;
1 p_r3_g65_h56_t9 -1 x_r3_g65 -1 x_r3_g56 >= -1 ;
1 p_r3_g103_h94_t9 -1 x_r3_g103 <= 0 ;
1 p_r3_g103_h94_t9 -1 x_r3_g94 <= 0 ;
1 p_r3_g103_h94_t9 -1 x_r3_g103 -1 x_r3_g94 >= -1 ;
1 p_r3_g147_h138_t9 -1 x_r3_g147 <= 0 ;
1 p_r3_g147_h138_t9 -1 x_r3_g138 <= 0 ;
1 p_r3_g147_h138_t9 -1 x_r3_g147 -1 x_r3_g138 >= -1 ;
1 p_r3_g154_h145_t9 -1 x_r3_g154 <= 0 ;
1 p_r3_g154_h145_t9 -1 x_r3_g145 <= 0 ;
1 p_r3_g154_h145_t9 -1 x_r3_g154 -1 x_r3_g145 >= -1 ;
1 d_9 -1 x_r0_g1 -1 x_r0_g4 -1 x_r0_g7 -1 x_r0_g14 -1 x_r0_g20 -1 x_r0_g22 -1 x_r0_g28 -1 x_r0_g34 -1 x_r0_g36 -1 x_r0_g47 -2 x_r0_g54 -1 x_r0_g60 -1 x_r0_g67 -2 x_r0_g68 -1 x_r0_g79 -2 x_r0_g97 -1 x_r0_g118 -1 x_r0_g123 -1 x_r0_g130 -1 x_r0_g131 -1 x_r0_g143 -1 x_r1_g8 -1 x_r1_g11 -1 x_r1_g17 -1 x_r1_g25 -1 x_r1_g30 -1 x_r1_g31 -2 x_r1_g35 -1 x_r1_g38 -1 x_r1_g53 -1 x_r1_g59 -2 x_r1_g75 -1 x_r1_g80 -1 x_r1_g90 -2 x_r1_g91 -1 x_r1_g93 -1 x_r1_g96 -2 x_r1_g107 -1 x_r1_g110 -1 x_r1_g114 -2 x_r1_g121 -1 x_r1_g128 -2 x_r1_g132 -1 x_r1_g154 -1 x_r1_g155 -1 x_r1_g157 -1 x_r1_g161 -1 x_r2_g2 -1 x_r2_g18 -1 x_r2_g29 -2 x_r2_g30 -2 x_r2_g34 -1 x_r2_g48 -1 x_r2_g66 -1 x_r2_g67 -1 x_r2_g70 -2 x_r2_g74 -1 x_r2_g77 -1 x_r2_g95 -1 x_r2_g107 -2 x_r2_g110 -1 x_r2_g111 -1 x_r2_g120 -2 x_r2_g128 -1 x_r2_g135 -2 x_r2_g139 -1 x_r2_g142 -1 x_r2_g149 -1 x_r2_g152 -1 x_r2_g155 -1 x_r2_g158 -2 x_r2_g159 -2 x_r2_g162 -1 x_r2_g165 -1 x_r3_g3 -2 x_r3_g8 -2 x_r3_g11 -2 x_r3_g13 -1 x_r3_g15 -1 x_r3_g18 -1 x_r3_g19 -1 x_r3_g34 -1 x_r3_g36 -1 x_r3_g53 -1 x_r3_g56 -1 x_r3_g57 -1 x_r3_g65 -1 x_r3_g72 -2 x_r3_g77 -1 x_r3_g103 -1 x_r3_g113 -1 x_r3_g121 -1 x_r3_g123 -1 x_r3_g125 -2 x_r3_g128 -1 x_r3_g138 -1 x_r3_g154 -1 x_r3_g159 -1 x_r3_g162 -1 p_r0_g4_h162_t9 -1 p_r0_g23_h14_t9 -1 p_r0_g26_h17_t9 -1 p_r0_g32_h23_t9 -1 p_r0_g34_h25_t9 -1 p_r0_g35_h26_t9 -1 p_r0_g37_h28_t9 -1 p_r0_g69_h60_t9 -1 p_r0_g79_h70_t9 -1 p_r0_g130_h121_t9 -1 p_r0_g153_h144_t9 -1 p_r0_g162_h153_t9 -1 p_r1_g17_h8_t9 -1 p_r1_g62_h53_t9 -1 p_r1_g76_h67_t9 -1 p_r1_g117_h108_t9 -1 p_r1_g126_h117_t9 -1 p_r1_g155_h146_t9 -1 p_r2_g73_h64_t9 -1 p_r2_g82_h73_t9 -1 p_r2_g86_h77_t9 -1 p_r2_g91_h82_t9 -1 p_r2_g95_h86_t9 -1 p_r2_g100_h91_t9 -1 p_r2_g107_h98_t9 -1 p_r2_g120_h111_t9 -1 p_r2_g158_h149_t9 -1 p_r2_g164_h155_t9 -1 p_r3_g7_h165_t9 -1 p_r3_g16_h7_t9 -1 p_r3_g27_h18_t9 -1 p_r3_g36_h27_t9 -1 p_r3_g65_h56_t9 -1 p_r3_g103_h94_t9 -1 p_r3_g147_h138_t9 -1 p_r3_g154_h145_t9 = -75 ;
1 d_9 -1 u_9 <= 0 ;
-1 d_9 -1 u_9 <= 0 ;
1 u_9 -1 M <= 0 ;
1 u_9 <= 1 ;
1 p_r0_g14_h4_t10 -1 x_r0_g14 <= 0 ;
1 p_r0_g14_h4_t10 -1 x_r0_g4 <= 0 ;
1 p_r0_g14_h4_t10 -1 x_r0_g14 -1 x_r0_g4 >= -1 ;
1 p_r0_g17_h7_t10 -1 x_r0_g17 <= 0 ;
1 p_r0_g17_h7_t10 -1 x_r0_g7 <= 0 ;
1 p_r0_g17_h7_t10 -1 x_r0_g17 -1 x_r0_g7 >= -1 ;
1 p_r0_g32_h22_t10 -1 x_r0_g32 <= 0 ;
1 p_r0_g32_h22_t10 -1 x_r0_g22 <= 0 ;
1 p_r0_g32_h22_t10 -1 x_r0_g32 -1 x_r0_g22 >= -1 ;
1 p_r0_g35_h25_t10 -1 x_r0_g35 <= 0 ;
1 p_r0_g35_h25_t10 -1 x_r0_g25 <= 0 ;
1 p_r0_g35_h25_t10 -1 x_r0_g35 -1 x_r0_g25 >= -1 ;
1 p_r0_g36_h26_t10 -1 x_r0_g36 <= 0 ;
1 p_r0_g36_h26_t10 -1 x_r0_g26 <= 0 ;
1 p_r0_g36_h26_t10 -1 x_r0_g36 -1 x_r0_g26 >= -1 ;
1 p_r0_g47_h37_t10 -1 x_r0_g47 <= 0 ;
1 p_r0_g47_h37_t10 -1 x_r0_g37 <= 0 ;
1 p_r0_g47_h37_t10 -1 x_r0_g47 -1 x_r0_g37 >= -1 ;
1 p_r0_g70_h60_t10 -1 x_r0_g70 <= 0 ;
1 p_r0_g70_h60_t10 -1 x_r0_g60 <= 0 ;
1 p_r0_g70_h60_t10 -1 x_r0_g70 -1 x_r0_g60 >= -1 ;
1 p_r0_g79_h69_t10 -1 x_r0_g79 <= 0 ;
1 p_r0_g79_h69_t10 -1 x_r0_g69 <= 0 ;
1 p_r0_g79_h69_t10 -1 x_r0_g79 -1 x_r0_g69 >= -1 ;
1 p_r0_g97_h87_t10 -1 x_r0_g97 <= 0 ;
1 p_r0_g97_h87_t10 -1 x_r0_g87 <= 0 ;
1 p_r0_g97_h87_t10 -1 x_r0_g97 -1 x_r0_g87 >= -1 ;
1 p_r0_g131_h121_t10 -1 x_r0_g131 <= 0 ;
1 p_r0_g131_h121_t10 -1 x_r0_g121 <= 0 ;
1 p_r0_g131_h121_t10 -1 x_r0_g131 -1 x_r0_g121 >= -1 ;
1 p_r0_g153_h143_t10 -1 x_r0_g153 <= 0 ;
1 p_r0_g153_h143_t10 -1 x_r0_g143 <= 0 ;
1 p_r0_g153_h143_t10 -1 x_r0_g153 -1 x_r0_g143 >= -1 ;
1 p_r1_g25_h15_t10 -1 x_r1_g25 <= 0 ;
1 p_r1_g25_h15_t10 -1 x_r1_g15 <= 0 ;
1 p_r1_g25_h15_t10 -1 x_r1_g25 -1 x_r1_g15 >= -1 ;
1 p_r1_g35_h25_t10 -1 x_r1_g35 <= 0 ;
1 p_r1_g35_h25_t10 -1 x_r1_g25 <= 0 ;
1 p_r1_g35_h25_t10 -1 x_r1_g35 -1 x_r1_g25 >= -1 ;
1 p_r1_g90_h80_t10 -1 x_r1_g90 <= 0 ;
1 p_r1_g90_h80_t10 -1 x_r1_g80 <= 0 ;
1 p_r1_g90_h80_t10 -1 x_r1_g90 -1 x_r1_g80 >= -1 ;
1 p_r1_g93_h83_t10 -1 x_r1_g93 <= 0 ;
1 p_r1_g93_h83_t10 -1 x_r1_g83 <= 0 ;
1 p_r1_g93_h83_t10 -1 x_r1_g93 -1 x_r1_g83 >= -1 ;
1 p_r1_g117_h107_t10 -1 x_r1_g117 <= 0 ;
1 p_r1_g117_h107_t10 -1 x_r1_g107 <= 0 ;
1 p_r1_g117_h107_t10 -1 x_r1_g117 -1 x_r1_g107 >= -1 ;
1 p_r1_g121_h111_t10 -1 x_r1_g121 <= 0 ;
1 p_r1_g121_h111_t10 -1 x_r1_g111 <= 0 ;
1 p_r1_g121_h111_t10 -1 x_r1_g121 -1 x_r1_g111 >= -1 ;
1 p_r2_g2_h159_t10 -1 x_r2_g2 <= 0 ;
1 p_r2_g2_h159_t10 -1 x_r2_g159 <= 0 ;
1 p_r2_g2_h159_t10 -1 x_r2_g2 -1 x_r2_g159 >= -1 ;
1 p_r2_g70_h60_t10 -1 x_r2_g70 <= 0 ;
1 p_r2_g70_h60_t10 -1 x_r2_g60 <= 0 ;
1 p_r2_g70_h60_t10 -1 x_r2_g70 -1 x_r2_g60 >= -1 ;
1 p_r2_g74_h64_t10 -1 x_r2_g74 <= 0 ;
1 p_r2_g74_h64_t10 -1 x_r2_g64 <= 0 ;
1 p_r2_g74_h64_t10 -1 x_r2_g74 -1 x_r2_g64 >= -1 ;
1 p_r2_g77_h67_t10 -1 x_r2_g77 <= 0 ;
1 p_r2_g77_h67_t10 -1 x_r2_g67 <= 0 ;
1 p_r2_g77_h67_t10 -1 x_r2_g77 -1 x_r2_g67 >= -1 ;
1 p_r2_g80_h70_t10 -1 x_r2_g80 <= 0 ;
1 p_r2_g80_h70_t10 -1 x_r2_g70 <= 0 ;
1 p_r2_g80_h70_t10 -1 x_r2_g80 -1 x_r2_g70 >= -1 ;
1 p_r2_g110_h100_t10 -1 x_r2_g110 <= 0 ;
1 p_r2_g110_h100_t10 -1 x_r2_g100 <= 0 ;
1 p_r2_g110_h100_t10 -1 x_r2_g110 -1 x_r2_g100 >= -1 ;
1 p_r2_g120_h110_t10 -1 x_r2_g120 <= 0 ;
1 p_r2_g120_h110_t10 -1 x_r2_g110 <= 0 ;
1 p_r2_g120_h110_t10 -1 x_r2_g120 -1 x_r2_g110 >= -1 ;
1 p_r2_g149_h139_t10 -1 x_r2_g149 <= 0 ;
1 p_r2_g149_h139_t10 -1 x_r2_g139 <= 0 ;
1 p_r2_g149_h139_t10 -1 x_r2_g149 -1 x_r2_g139 >= -1 ;
1 p_r2_g152_h142_t10 -1 x_r2_g152 <= 0 ;
1 p_r2_g152_h142_t10 -1 x_r2_g142 <= 0 ;
1 p_r2_g152_h142_t10 -1 x_r2_g152 -1 x_r2_g142 >= -1 ;
1 p_r2_g159_h149_t10 -1 x_r2_g159 <= 0 ;
1 p_r2_g159_h149_t10 -1 x_r2_g149 <= 0 ;
1 p_r2_g159_h149_t10 -1 x_r2_g159 -1 x_r2_g149 >= -1 ;
1 p_r2_g162_h152_t10 -1 x_r2_g162 <= 0 ;
1 p_r2_g162_h152_t10 -1 x_r2_g152 <= 0 ;
1 p_r2_g162_h152_t10 -1 x_r2_g162 -1 x_r2_g152 >= -1 ;
1 p_r2_g165_h155_t10 -1 x_r2_g165 <= 0 ;
1 p_r2_g165_h155_t10 -1 x_r2_g155 <= 0 ;
1 p_r2_g165_h155_t10 -1 x_r2_g165 -1 x_r2_g155 >= -1 ;
1 p_r3_g8_h165_t10 -1 x_r3_g8 <= 0 ;
1 p_r3_g8_h165_t10 -1 x_r3_g165 <= 0 ;
1 p_r3_g8_h165_t10 -1 x_r3_g8 -1 x_r3_g165 >= -1 ;
1 p_r3_g13_h3_t10 -1 x_r3_g13 <= 0 ;
1 p_r3_g13_h3_t10 -1 x_r3_g3 <= 0 ;
1 p_r3_g13_h3_t10 -1 x_r3_g13 -1 x_r3_g3 >= -1 ;
1 p_r3_g18_h8_t10 -1 x_r3_g18 <= 0 ;
1 p_r3_g18_h8_t10 -1 x_r3_g8 <= 0 ;
1 p_r3_g18_h8_t10 -1 x_r3_g18 -1 x_r3_g8 >= -1 ;
1 p_r3_g113_h103_t10 -1 x_r3_g113 <= 0 ;
1 p_r3_g113_h103_t10 -1 x_r3_g103 <= 0 ;
1 p_r3_g113_h103_t10 -1 x_r3_g113 -1 x_r3_g103 >= -1 ;
1 p_r3_g121_h111_t10 -1 x_r3_g121 <= 0 ;
1 p_r3_g121_h111_t10 -1 x_r3_g111 <= 0 ;
1 p_r3_g121_h111_t10 -1 x_r3_g121 -1 x_r3_g111 >= -1 ;
1 p_r3_g123_h113_t10 -1 x_r3_g123 <= 0 ;
1 p_r3_g123_h113_t10 -1 x_r3_g113 <= 0 ;
1 p_r3_g123_h113_t10 -1 x_r3_g123 -1 x_r3_g113 >= -1 ;
1 p_r3_g138_h128_t10 -1 x_r3_g138 <= 0 ;
1 p_r3_g138_h128_t10 -1 x_r3_g128 <= 0 ;
1 p_r3_g138_h128_t10 -1 x_r3_g138 -1 x_r3_g128 >= -1 ;
1 p_r3_g154_h144_t10 -1 x_r3_g154 <= 0 ;
1 p_r3_g154_h144_t10 -1 x_r3_g144 <= 0 ;
1 p_r3_g154_h144_t10 -1 x_r3_g154 -1 x_r3_g144 >= -1 ;
1 d_10 -2 x_r0_g1 -1 x_r0_g9 -1 x_r0_g20 -1 x_r0_g22 -1 x_r0_g23 -1 x_r0_g25 -1 x_r0_g28 -1 x_r0_g32 -1 x_r0_g35 -2 x_r0_g48 -1 x_r0_g67 -1 x_r0_g68 -1 x_r0_g69 -1 x_r0_g84 -1 x_r0_g87 -1 x_r0_g123 -1 x_r0_g130 -1 x_r0_g153 -2 x_r0_g162 -1 x_r1_g8 -1 x_r1_g11 -1 x_r1_g13 -1 x_r1_g17 -2 x_r1_g30 -2 x_r1_g59 -1 x_r1_g67 -1 x_r1_g75 -1 x_r1_g76 -1 x_r1_g80 -1 x_r1_g90 -1 x_r1_g91 -1 x_r1_g93 -1 x_r1_g108 -1 x_r1_g110 -2 x_r1_g113 -1 x_r1_g114 -1 x_r1_g117 -1 x_r1_g126 -1 x_r1_g128 -1 x_r1_g146 -1 x_r1_g154 -1 x_r2_g18 -1 x_r2_g29 -1 x_r2_g30 -1 x_r2_g48 -1 x_r2_g66 -2 x_r2_g73 -1 x_r2_g77 -1 x_r2_g80 -1 x_r2_g91 -2 x_r2_g95 -1 x_r2_g100 -2 x_r2_g111 -1 x_r2_g120 -2 x_r2_g136 -1 x_r2_g139 -1 x_r2_g142 -2 x_r2_g158 -1 x_r2_g163 -1 x_r2_g164 -1 x_r3_g3 -1 x_r3_g7 -1 x_r3_g11 -1 x_r3_g15 -2 x_r3_g16 -1 x_r3_g18 -1 x_r3_g19 -2 x_r3_g27 -1 x_r3_g33 -2 x_r3_g36 -2 x_r3_g51 -1 x_r3_g53 -2 x_r3_g56 -1 x_r3_g57 -2 x_r3_g65 -1 x_r3_g72 -1 x_r3_g79 -1 x_r3_g91 -1 x_r3_g124 -1 x_r3_g128 -1 x_r3_g138 -1 x_r3_g144 -1 x_r3_g147 -2 x_r3_g159 -1 x_r3_g162 -1 p_r0_g14_h4_t10 -1 p_r0_g17_h7_t10 -1 p_r0_g32_h22_t10 -1 p_r0_g35_h25_t10 -1 p_r0_g36_h26_t10 -1 p_r0_g47_h37_t10 -1 p_r0_g70_h60_t10 -1 p_r0_g79_h69_t10 -1 p_r0_g97_h87_t10 -1 p_r0_g131_h121_t10 -1 p_r0_g153_h143_t10 -1 p_r1_g25_h15_t10 -1 p_r1_g35_h25_t10 -1 p_r1_g90_h80_t10 -1 p_r1_g93_h83_t10 -1 p_r1_g117_h107_t10 -1 p_r1_g121_h111_t10 -1 p_r2_g2_h159_t10 -1 p_r2_g70_h60_t10 -1 p_r2_g74_h64_t10 -1 p_r2_g77_h67_t10 -1 p_r2_g80_h70_t10 -1 p_r2_g110_h100_t10 -1 p_r2_g120_h110_t10 -1 p_r2_g149_h139_t10 -1 p_r2_g152_h142_t10 -1 p_r2_g159_h149_t10 -1 p_r2_g162_h152_t10 -1 p_r2_g165_h155_t10 -1 p_r3_g8_h165_t10 -1 p_r3_g13_h3_t10 -1 p_r3_g18_h8_t10 -1 p_r3_g113_h103_t10 -1 p_r3_g121_h111_t10 -1 p_r3_g123_h113_t10 -1 p_r3_g138_h128_t10 -1 p_r3_g154_h144_t10 = -51 ;
1 d_10 -1 u_10 <= 0 ;
-1 d_10 -1 u_10 <= 0 ;
1 u_10 -1 M <= 0 ;
1 u_10 <= 1 ;
1 p_r0_g7_h162_t12 -1 x_r0_g7 <= 0 ;
1 p_r0_g7_h162_t12 -1 x_r0_g162 <= 0 ;
1 p_r0_g7_h162_t12 -1 x_r0_g7 -1 x_r0_g162 >= -1 ;
1 p_r0_g26_h14_t12 -1 x_r0_g26 <= 0 ;
1 p_r0_g26_h14_t12 -1 x_r0_g14 <= 0 ;
1 p_r0_g26_h14_t12 -1 x_r0_g26 -1 x_r0_g14 >= -1 ;
1 p_r0_g32_h20_t12 -1 x_r0_g32 <= 0 ;
1 p_r0_g32_h20_t12 -1 x_r0_g20 <= 0 ;
1 p_r0_g32_h20_t12 -1 x_r0_g32 -1 x_r0_g20 >= -1 ;
1 p_r0_g34_h22_t12 -1 x_r0_g34 <= 0 ;
1 p_r0_g34_h22_t12 -1 x_r0_g22 <= 0 ;
1 p_r0_g34_h22_t12 -1 x_r0_g34 -1 x_r0_g22 >= -1 ;
1 p_r0_g35_h23_t12 -1 x_r0_g35 <= 0 ;
1 p_r0_g35_h23_t12 -1 x_r0_g23 <= 0 ;
1 p_r0_g35_h23_t12 -1 x_r0_g35 -1 x_r0_g23 >= -1 ;
1 p_r0_g37_h25_t12 -1 x_r0_g37 <= 0 ;
1 p_r0_g37_h25_t12 -1 x_r0_g25 <= 0 ;
1 p_r0_g37_h25_t12 -1 x_r0_g37 -1 x_r0_g25 >= -1 ;
1 p_r0_g47_h35_t12 -1 x_r0_g47 <= 0 ;
1 p_r0_g47_h35_t12 -1 x_r0_g35 <= 0 ;
1 p_r0_g47_h35_t12 -1 x_r0_g47 -1 x_r0_g35 >= -1 ;
1 p_r0_g48_h36_t12 -1 x_r0_g48 <= 0 ;
1 p_r0_g48_h36_t12 -1 x_r0_g36 <= 0 ;
1 p_r0_g48_h36_t12 -1 x_r0_g48 -1 x_r0_g36 >= -1 ;
1 p_r0_g60_h48_t12 -1 x_r0_g60 <= 0 ;
1 p_r0_g60_h48_t12 -1 x_r0_g48 <= 0 ;
1 p_r0_g60_h48_t12 -1 x_r0_g60 -1 x_r0_g48 >= -1 ;
1 p_r0_g79_h67_t12 -1 x_r0_g79 <= 0 ;
1 p_r0_g79_h67_t12 -1 x_r0_g67 <= 0 ;
1 p_r0_g79_h67_t12 -1 x_r0_g79 -1 x_r0_g67 >= -1 ;
1 p_r0_g130_h118_t12 -1 x_r0_g130 <= 0 ;
1 p_r0_g130_h118_t12 -1 x_r0_g118 <= 0 ;
1 p_r0_g130_h118_t12 -1 x_r0_g130 -1 x_r0_g118 >= -1 ;
1 p_r0_g143_h131_t12 -1 x_r0_g143 <= 0 ;
1 p_r0_g143_h131_t12 -1 x_r0_g131 <= 0 ;
1 p_r0_g143_h131_t12 -1 x_r0_g143 -1 x_r0_g131 >= -1 ;
1 p_r1_g25_h13_t12 -1 x_r1_g25 <= 0 ;
1 p_r1_g25_h13_t12 -1 x_r1_g13 <= 0 ;
1 p_r1_g25_h13_t12 -1 x_r1_g25 -1 x_r1_g13 >= -1 ;
1 p_r1_g76_h64_t12 -1 x_r1_g76 <= 0 ;
1 p_r1_g76_h64_t12 -1 x_r1_g64 <= 0 ;
1 p_r1_g76_h64_t12 -1 x_r1_g76 -1 x_r1_g64 >= -1 ;
1 p_r1_g108_h96_t12 -1 x_r1_g108 <= 0 ;
1 p_r1_g108_h96_t12 -1 x_r1_g96 <= 0 ;
1 p_r1_g108_h96_t12 -1 x_r1_g108 -1 x_r1_g96 >= -1 ;
1 p_r1_g126_h114_t12 -1 x_r1_g126 <= 0 ;
1 p_r1_g126_h114_t12 -1 x_r1_g114 <= 0 ;
1 p_r1_g126_h114_t12 -1 x_r1_g126 -1 x_r1_g114 >= -1 ;
1 p_r1_g155_h143_t12 -1 x_r1_g155 <= 0 ;
1 p_r1_g155_h143_t12 -1 x_r1_g143 <= 0 ;
1 p_r1_g155_h143_t12 -1 x_r1_g155 -1 x_r1_g143 >= -1 ;
1 p_r2_g30_h18_t12 -1 x_r2_g30 <= 0 ;
1 p_r2_g30_h18_t12 -1 x_r2_g18 <= 0 ;
1 p_r2_g30_h18_t12 -1 x_r2_g30 -1 x_r2_g18 >= -1 ;
1 p_r2_g60_h48_t12 -1 x_r2_g60 <= 0 ;
1 p_r2_g60_h48_t12 -1 x_r2_g48 <= 0 ;
1 p_r2_g60_h48_t12 -1 x_r2_g60 -1 x_r2_g48 >= -1 ;
1 p_r2_g74_h62_t12 -1 x_r2_g74 <= 0 ;
1 p_r2_g74_h62_t12 -1 x_r2_g62 <= 0 ;
1 p_r2_g74_h62_t12 -1 x_r2_g74 -1 x_r2_g62 >= -1 ;
1 p_r2_g82_h70_t12 -1 x_r2_g82 <= 0 ;
1 p_r2_g82_h70_t12 -1 x_r2_g70 <= 0 ;
1 p_r2_g82_h70_t12 -1 x_r2_g82 -1 x_r2_g70 >= -1 ;
1 p_r2_g86_h74_t12 -1 x_r2_g86 <= 0 ;
1 p_r2_g86_h74_t12 -1 x_r2_g74 <= 0 ;
1 p_r2_g86_h74_t12 -1 x_r2_g86 -1 x_r2_g74 >= -1 ;
1 p_r2_g98_h86_t12 -1 x_r2_g98 <= 0 ;
1 p_r2_g98_h86_t12 -1 x_r2_g86 <= 0 ;
1 p_r2_g98_h86_t12 -1 x_r2_g98 -1 x_r2_g86 >= -1 ;
1 p_r2_g107_h95_t12 -1 x_r2_g107 <= 0 ;
1 p_r2_g107_h95_t12 -1 x_r2_g95 <= 0 ;
1 p_r2_g107_h95_t12 -1 x_r2_g107 -1 x_r2_g95 >= -1 ;
1 p_r2_g110_h98_t12 -1 x_r2_g110 <= 0 ;
1 p_r2_g110_h98_t12 -1 x_r2_g98 <= 0 ;
1 p_r2_g110_h98_t12 -1 x_r2_g110 -1 x_r2_g98 >= -1 ;
1 p_r2_g164_h152_t12 -1 x_r2_g164 <= 0 ;
1 p_r2_g164_h152_t12 -1 x_r2_g152 <= 0 ;
1 p_r2_g164_h152_t12 -1 x_r2_g164 -1 x_r2_g152 >= -1 ;
1 p_r3_g7_h162_t12 -1 x_r3_g7 <= 0 ;
1 p_r3_g7_h162_t12 -1 x_r3_g162 <= 0 ;
1 p_r3_g7_h162_t12 -1 x_r3_g7 -1 x_r3_g162 >= -1 ;
1 p_r3_g15_h3_t12 -1 x_r3_g15 <= 0 ;
1 p_r3_g15_h3_t12 -1 x_r3_g3 <= 0 ;
1 p_r3_g15_h3_t12 -1 x_r3_g15 -1 x_r3_g3 >= -1 ;
1 p_r3_g19_h7_t12 -1 x_r3_g19 <= 0 ;
1 p_r3_g19_h7_t12 -1 x_r3_g7 <= 0 ;
1 p_r3_g19_h7_t12 -1 x_r3_g19 -1 x_r3_g7 >= -1 ;
1 p_r3_g27_h15_t12 -1 x_r3_g27 <= 0 ;
1 p_r3_g27_h15_t12 -1 x_r3_g15 <= 0 ;
1 p_r3_g27_h15_t12 -1 x_r3_g27 -1 x_r3_g15 >= -1 ;
1 p_r3_g65_h53_t12 -1 x_r3_g65 <= 0 ;
1 p_r3_g65_h53_t12 -1 x_r3_g53 <= 0 ;
1 p_r3_g65_h53_t12 -1 x_r3_g65 -1 x_r3_g53 >= -1 ;
1 p_r3_g77_h65_t12 -1 x_r3_g77 <= 0 ;
1 p_r3_g77_h65_t12 -1 x_r3_g65 <= 0 ;
1 p_r3_g77_h65_t12 -1 x_r3_g77 -1 x_r3_g65 >= -1 ;
1 p_r3_g91_h79_t12 -1 x_r3_g91 <= 0 ;
1 p_r3_g91_h79_t12 -1 x_r3_g79 <= 0 ;
1 p_r3_g91_h79_t12 -1 x_r3_g91 -1 x_r3_g79 >= -1 ;
1 p_r3_g103_h91_t12 -1 x_r3_g103 <= 0 ;
1 p_r3_g103_h91_t12 -1 x_r3_g91 <= 0 ;
1 p_r3_g103_h91_t12 -1 x_r3_g103 -1 x_r3_g91 >= -1 ;
1 p_r3_g106_h94_t12 -1 x_r3_g106 <= 0 ;
1 p_r3_g106_h94_t12 -1 x_r3_g94 <= 0 ;
1 p_r3_g106_h94_t12 -1 x_r3_g106 -1 x_r3_g94 >= -1 ;
1 p_r3_g123_h111_t12 -1 x_r3_g123 <= 0 ;
1 p_r3_g123_h111_t12 -1 x_r3_g111 <= 0 ;
1 p_r3_g123_h111_t12 -1 x_r3_g123 -1 x_r3_g111 >= -1 ;
1 p_r3_g125_h113_t12 -1 x_r3_g125 <= 0 ;
1 p_r3_g125_h113_t12 -1 x_r3_g113 <= 0 ;
1 p_r3_g125_h113_t12 -1 x_r3_g125 -1 x_r3_g113 >= -1 ;
1 p_r3_g159_h147_t12 -1 x_r3_g159 <= 0 ;
1 p_r3_g159_h147_t12 -1 x_r3_g147 <= 0 ;
1 p_r3_g159_h147_t12 -1 x_r3_g159 -1 x_r3_g147 >= -1 ;
1 d_12 -1 x_r0_g1 -1 x_r0_g4 -1 x_r0_g7 -1 x_r0_g17 -1 x_r0_g23 -1 x_r0_g25 -1 x_r0_g26 -1 x_r0_g28 -1 x_r0_g37 -1 x_r0_g47 -1 x_r0_g54 -1 x_r0_g67 -1 x_r0_g70 -1 x_r0_g101 -1 x_r0_g102 -1 x_r0_g118 -1 x_r0_g130 -1 x_r0_g131 -1 x_r0_g143 -1 x_r0_g144 -1 x_r0_g153 -2 x_r1_g8 -1 x_r1_g11 -1 x_r1_g13 -2 x_r1_g15 -1 x_r1_g17 -1 x_r1_g25 -2 x_r1_g30 -1 x_r1_g38 -1 x_r1_g53 -1 x_r1_g67 -1 x_r1_g75 -1 x_r1_g76 -1 x_r1_g80 -1 x_r1_g83 -1 x_r1_g90 -2 x_r1_g91 -1 x_r1_g93 -1 x_r1_g96 -2 x_r1_g107 -1 x_r1_g110 -1 x_r1_g111 -1 x_r1_g121 -1 x_r1_g126 -2 x_r1_g128 -1 x_r1_g154 -2 x_r2_g2 -1 x_r2_g29 -1 x_r2_g34 -1 x_r2_g66 -1 x_r2_g70 -2 x_r2_g73 -1 x_r2_g77 -1 x_r2_g80 -1 x_r2_g82 -1 x_r2_g95 -1 x_r2_g100 -1 x_r2_g107 -1 x_r2_g110 -1 x_r2_g120 -2 x_r2_g128 -1 x_r2_g136 -1 x_r2_g139 -1 x_r2_g142 -2 x_r2_g149 -1 x_r2_g152 -1 x_r2_g155 -1 x_r2_g158 -1 x_r2_g159 -2 x_r2_g162 -1 x_r2_g163 -1 x_r2_g165 -2 x_r3_g8 -1 x_r3_g11 -1 x_r3_g13 -2 x_r3_g16 -2 x_r3_g18 -1 x_r3_g27 -1 x_r3_g33 -2 x_r3_g34 -1 x_r3_g51 -1 x_r3_g53 -1 x_r3_g56 -1 x_r3_g57 -1 x_r3_g77 -1 x_r3_g106 -1 x_r3_g111 -1 x_r3_g124 -1 x_r3_g125 -1 x_r3_g128 -1 x_r3_g144 -2 x_r3_g154 -1 x_r3_g159 -1 p_r0_g7_h162_t12 -1 p_r0_g26_h14_t12 -1 p_r0_g32_h20_t12 -1 p_r0_g34_h22_t12 -1 p_r0_g35_h23_t12 -1 p_r0_g37_h25_t12 -1 p_r0_g47_h35_t12 -1 p_r0_g48_h36_t12 -1 p_r0_g60_h48_t12 -1 p_r0_g79_h67_t12 -1 p_r0_g130_h118_t12 -1 p_r0_g143_h131_t12 -1 p_r1_g25_h13_t12 -1 p_r1_g76_h64_t12 -1 p_r1_g108_h96_t12 -1 p_r1_g126_h114_t12 -1 p_r1_g155_h143_t12 -1 p_r2_g30_h18_t12 -1 p_r2_g60_h48_t12 -1 p_r2_g74_h62_t12 -1 p_r2_g82_h70_t12 -1 p_r2_g86_h74_t12 -1 p_r2_g98_h86_t12 -1 p_r2_g107_h95_t12 -1 p_r2_g110_h98_t12 -1 p_r2_g164_h152_t12 -1 p_r3_g7_h162_t12 -1 p_r3_g15_h3_t12 -1 p_r3_g19_h7_t12 -1 p_r3_g27_h15_t12 -1 p_r3_g65_h53_t12 -1 p_r3_g77_h65_t12 -1 p_r3_g91_h79_t12 -1 p_r3_g103_h91_t12 -1 p_r3_g106_h94_t12 -1 p_r3_g123_h111_t12 -1 p_r3_g125_h113_t12 -1 p_r3_g159_h147_t12 = -69 ;
1 d_12 -1 u_12 <= 0 ;
-1 d_12 -1 u_12 <= 0 ;
1 u_12 -1 M <= 0 ;
1 u_12 <= 1 ;
1 p_r0_g14_h1_t13 -1 x_r0_g14 <= 0 ;
1 p_r0_g14_h1_t13 -1 x_r0_g1 <= 0 ;
1 p_r0_g14_h1_t13 -1 x_r0_g14 -1 x_r0_g1 >= -1 ;
1 p_r0_g17_h4_t13 -1 x_r0_g17 <= 0 ;
1 p_r0_g17_h4_t13 -1 x_r0_g4 <= 0 ;
1 p_r0_g17_h4_t13 -1 x_r0_g17 -1 x_r0_g4 >= -1 ;
1 p_r0_g20_h7_t13 -1 x_r0_g20 <= 0 ;
1 p_r0_g20_h7_t13 -1 x_r0_g7 <= 0 ;
1 p_r0_g20_h7_t13 -1 x_r0_g20 -1 x_r0_g7 >= -1 ;
1 p_r0_g22_h9_t13 -1 x_r0_g22 <= 0 ;
1 p_r0_g22_h9_t13 -1 x_r0_g9 <= 0 ;
1 p_r0_g22_h9_t13 -1 x_r0_g22 -1 x_r0_g9 >= -1 ;
1 p_r0_g35_h22_t13 -1 x_r0_g35 <= 0 ;
1 p_r0_g35_h22_t13 -1 x_r0_g22 <= 0 ;
1 p_r0_g35_h22_t13 -1 x_r0_g35 -1 x_r0_g22 >= -1 ;
1 p_r0_g36_h23_t13 -1 x_r0_g36 <= 0 ;
1 p_r0_g36_h23_t13 -1 x_r0_g23 <= 0 ;
1 p_r0_g36_h23_t13 -1 x_r0_g36 -1 x_r0_g23 >= -1 ;
1 p_r0_g47_h34_t13 -1 x_r0_g47 <= 0 ;
1 p_r0_g47_h34_t13 -1 x_r0_g34 <= 0 ;
1 p_r0_g47_h34_t13 -1 x_r0_g47 -1 x_r0_g34 >= -1 ;
1 p_r0_g48_h35_t13 -1 x_r0_g48 <= 0 ;
1 p_r0_g48_h35_t13 -1 x_r0_g35 <= 0 ;
1 p_r0_g48_h35_t13 -1 x_r0_g48 -1 x_r0_g35 >= -1 ;
1 p_r0_g60_h47_t13 -1 x_r0_g60 <= 0 ;
1 p_r0_g60_h47_t13 -1 x_r0_g47 <= 0 ;
1 p_r0_g60_h47_t13 -1 x_r0_g60 -1 x_r0_g47 >= -1 ;
1 p_r0_g67_h54_t13 -1 x_r0_g67 <= 0 ;
1 p_r0_g67_h54_t13 -1 x_r0_g54 <= 0 ;
1 p_r0_g67_h54_t13 -1 x_r0_g67 -1 x_r0_g54 >= -1 ;
1 p_r0_g97_h84_t13 -1 x_r0_g97 <= 0 ;
1 p_r0_g97_h84_t13 -1 x_r0_g84 <= 0 ;
1 p_r0_g97_h84_t13 -1 x_r0_g97 -1 x_r0_g84 >= -1 ;
1 p_r0_g131_h118_t13 -1 x_r0_g131 <= 0 ;
1 p_r0_g131_h118_t13 -1 x_r0_g118 <= 0 ;
1 p_r0_g131_h118_t13 -1 x_r0_g131 -1 x_r0_g118 >= -1 ;
1 p_r0_g143_h130_t13 -1 x_r0_g143 <= 0 ;
1 p_r0_g143_h130_t13 -1 x_r0_g130 <= 0 ;
1 p_r0_g143_h130_t13 -1 x_r0_g143 -1 x_r0_g130 >= -1 ;
1 p_r0_g144_h131_t13 -1 x_r0_g144 <= 0 ;
1 p_r0_g144_h131_t13 -1 x_r0_g131 <= 0 ;
1 p_r0_g144_h131_t13 -1 x_r0_g144 -1 x_r0_g131 >= -1 ;
1 p_r1_g30_h17_t13 -1 x_r1_g30 <= 0 ;
1 p_r1_g30_h17_t13 -1 x_r1_g17 <= 0 ;
1 p_r1_g30_h17_t13 -1 x_r1_g30 -1 x_r1_g17 >= -1 ;
1 p_r1_g38_h25_t13 -1 x_r1_g38 <= 0 ;
1 p_r1_g38_h25_t13 -1 x_r1_g25 <= 0 ;
1 p_r1_g38_h25_t13 -1 x_r1_g38 -1 x_r1_g25 >= -1 ;
1 p_r1_g75_h62_t13 -1 x_r1_g75 <= 0 ;
1 p_r1_g75_h62_t13 -1 x_r1_g62 <= 0 ;
1 p_r1_g75_h62_t13 -1 x_r1_g75 -1 x_r1_g62 >= -1 ;
1 p_r1_g80_h67_t13 -1 x_r1_g80 <= 0 ;
1 p_r1_g80_h67_t13 -1 x_r1_g67 <= 0 ;
1 p_r1_g80_h67_t13 -1 x_r1_g80 -1 x_r1_g67 >= -1 ;
1 p_r1_g93_h80_t13 -1 x_r1_g93 <= 0 ;
1 p_r1_g93_h80_t13 -1 x_r1_g80 <= 0 ;
1 p_r1_g93_h80_t13 -1 x_r1_g93 -1 x_r1_g80 >= -1 ;
1 p_r1_g96_h83_t13 -1 x_r1_g96 <= 0 ;
1 p_r1_g96_h83_t13 -1 x_r1_g83 <= 0 ;
1 p_r1_g96_h83_t13 -1 x_r1_g96 -1 x_r1_g83 >= -1 ;
1 p_r1_g121_h108_t13 -1 x_r1_g121 <= 0 ;
1 p_r1_g121_h108_t13 -1 x_r1_g108 <= 0 ;
1 p_r1_g121_h108_t13 -1 x_r1_g121 -1 x_r1_g108 >= -1 ;
1 p_r1_g126_h113_t13 -1 x_r1_g126 <= 0 ;
1 p_r1_g126_h113_t13 -1 x_r1_g113 <= 0 ;
1 p_r1_g126_h113_t13 -1 x_r1_g126 -1 x_r1_g113 >= -1 ;
1 p_r2_g73_h60_t13 -1 x_r2_g73 <= 0 ;
1 p_r2_g73_h60_t13 -1 x_r2_g60 <= 0 ;
1 p_r2_g73_h60_t13 -1 x_r2_g73 -1 x_r2_g60 >= -1 ;
1 p_r2_g77_h64_t13 -1 x_r2_g77 <= 0 ;
1 p_r2_g77_h64_t13 -1 x_r2_g64 <= 0 ;
1 p_r2_g77_h64_t13 -1 x_r2_g77 -1 x_r2_g64 >= -1 ;
1 p_r2_g80_h67_t13 -1 x_r2_g80 <= 0 ;
1 p_r2_g80_h67_t13 -1 x_r2_g67 <= 0 ;
1 p_r2_g80_h67_t13 -1 x_r2_g80 -1 x_r2_g67 >= -1 ;
1 p_r2_g86_h73_t13 -1 x_r2_g86 <= 0 ;
1 p_r2_g86_h73_t13 -1 x_r2_g73 <= 0 ;
1 p_r2_g86_h73_t13 -1 x_r2_g86 -1 x_r2_g73 >= -1 ;
1 p_r2_g95_h82_t13 -1 x_r2_g95 <= 0 ;
1 p_r2_g95_h82_t13 -1 x_r2_g82 <= 0 ;
1 p_r2_g95_h82_t13 -1 x_r2_g95 -1 x_r2_g82 >= -1 ;
1 p_r2_g111_h98_t13 -1 x_r2_g111 <= 0 ;
1 p_r2_g111_h98_t13 -1 x_r2_g98 <= 0 ;
1 p_r2_g111_h98_t13 -1 x_r2_g111 -1 x_r2_g98 >= -1 ;
1 p_r2_g120_h107_t13 -1 x_r2_g120 <= 0 ;
1 p_r2_g120_h107_t13 -1 x_r2_g107 <= 0 ;
1 p_r2_g120_h107_t13 -1 x_r2_g120 -1 x_r2_g107 >= -1 ;
1 p_r2_g149_h136_t13 -1 x_r2_g149 <= 0 ;
1 p_r2_g149_h136_t13 -1 x_r2_g136 <= 0 ;
1 p_r2_g149_h136_t13 -1 x_r2_g149 -1 x_r2_g136 >= -1 ;
1 p_r2_g152_h139_t13 -1 x_r2_g152 <= 0 ;
1 p_r2_g152_h139_t13 -1 x_r2_g139 <= 0 ;
1 p_r2_g152_h139_t13 -1 x_r2_g152 -1 x_r2_g139 >= -1 ;
1 p_r2_g155_h142_t13 -1 x_r2_g155 <= 0 ;
1 p_r2_g155_h142_t13 -1 x_r2_g142 <= 0 ;
1 p_r2_g155_h142_t13 -1 x_r2_g155 -1 x_r2_g142 >= -1 ;
1 p_r2_g162_h149_t13 -1 x_r2_g162 <= 0 ;
1 p_r2_g162_h149_t13 -1 x_r2_g149 <= 0 ;
1 p_r2_g162_h149_t13 -1 x_r2_g162 -1 x_r2_g149 >= -1 ;
1 p_r2_g165_h152_t13 -1 x_r2_g165 <= 0 ;
1 p_r2_g165_h152_t13 -1 x_r2_g152 <= 0 ;
1 p_r2_g165_h152_t13 -1 x_r2_g165 -1 x_r2_g152 >= -1 ;
1 p_r3_g8_h162_t13 -1 x_r3_g8 <= 0 ;
1 p_r3_g8_h162_t13 -1 x_r3_g162 <= 0 ;
1 p_r3_g8_h162_t13 -1 x_r3_g8 -1 x_r3_g162 >= -1 ;
1 p_r3_g11_h165_t13 -1 x_r3_g11 <= 0 ;
1 p_r3_g11_h165_t13 -1 x_r3_g165 <= 0 ;
1 p_r3_g11_h165_t13 -1 x_r3_g11 -1 x_r3_g165 >= -1 ;
1 p_r3_g16_h3_t13 -1 x_r3_g16 <= 0 ;
1 p_r3_g16_h3_t13 -1 x_r3_g3 <= 0 ;
1 p_r3_g16_h3_t13 -1 x_r3_g16 -1 x_r3_g3 >= -1 ;
1 p_r3_g124_h111_t13 -1 x_r3_g124 <= 0 ;
1 p_r3_g124_h111_t13 -1 x_r3_g111 <= 0 ;
1 p_r3_g124_h111_t13 -1 x_r3_g124 -1 x_r3_g111 >= -1 ;
1 p_r3_g138_h125_t13 -1 x_r3_g138 <= 0 ;
1 p_r3_g138_h125_t13 -1 x_r3_g125 <= 0 ;
1 p_r3_g138_h125_t13 -1 x_r3_g138 -1 x_r3_g125 >= -1 ;
1 d_13 -1 x_r0_g1 -1 x_r0_g4 -1 x_r0_g9 -1 x_r0_g17 -2 x_r0_g25 -1 x_r0_g26 -1 x_r0_g28 -2 x_r0_g32 -1 x_r0_g36 -1 x_r0_g68 -2 x_r0_g87 -1 x_r0_g101 -1 x_r0_g123 -1 x_r0_g144 -1 x_r0_g162 -1 x_r1_g13 -2 x_r1_g31 -2 x_r1_g53 -1 x_r1_g59 -1 x_r1_g62 -1 x_r1_g75 -1 x_r1_g76 -1 x_r1_g83 -1 x_r1_g90 -1 x_r1_g91 -1 x_r1_g96 -1 x_r1_g108 -1 x_r1_g110 -2 x_r1_g111 -1 x_r1_g113 -1 x_r1_g114 -1 x_r1_g117 -2 x_r1_g128 -1 x_r1_g132 -2 x_r1_g143 -1 x_r1_g146 -1 x_r1_g154 -1 x_r1_g155 -1 x_r1_g157 -1 x_r2_g18 -1 x_r2_g30 -1 x_r2_g34 -1 x_r2_g48 -2 x_r2_g62 -1 x_r2_g70 -2 x_r2_g74 -1 x_r2_g77 -1 x_r2_g80 -2 x_r2_g91 -1 x_r2_g98 -2 x_r2_g100 -1 x_r2_g107 -1 x_r2_g128 -2 x_r2_g135 -1 x_r2_g139 -1 x_r2_g142 -1 x_r2_g155 -1 x_r2_g158 -1 x_r2_g159 -1 x_r2_g163 -1 x_r2_g164 -1 x_r3_g7 -1 x_r3_g13 -2 x_r3_g15 -1 x_r3_g18 -2 x_r3_g19 -1 x_r3_g27 -2 x_r3_g33 -1 x_r3_g34 -1 x_r3_g36 -1 x_r3_g51 -2 x_r3_g53 -1 x_r3_g56 -1 x_r3_g65 -1 x_r3_g72 -1 x_r3_g79 -1 x_r3_g91 -1 x_r3_g94 -1 x_r3_g106 -1 x_r3_g111 -2 x_r3_g121 -1 x_r3_g123 -1 x_r3_g124 -1 x_r3_g125 -1 x_r3_g138 -1 x_r3_g145 -2 x_r3_g147 -1 x_r3_g159 -1 x_r3_g162 -1 p_r0_g14_h1_t13 -1 p_r0_g17_h4_t13 -1 p_r0_g20_h7_t13 -1 p_r0_g22_h9_t13 -1 p_r0_g35_h22_t13 -1 p_r0_g36_h23_t13 -1 p_r0_g47_h34_t13 -1 p_r0_g48_h35_t13 -1 p_r0_g60_h47_t13 -1 p_r0_g67_h54_t13 -1 p_r0_g97_h84_t13 -1 p_r0_g131_h118_t13 -1 p_r0_g143_h130_t13 -1 p_r0_g144_h131_t13 -1 p_r1_g30_h17_t13 -1 p_r1_g38_h25_t13 -1 p_r1_g75_h62_t13 -1 p_r1_g80_h67_t13 -1 p_r1_g93_h80_t13 -1 p_r1_g96_h83_t13 -1 p_r1_g121_h108_t13 -1 p_r1_g126_h113_t13 -1 p_r2_g73_h60_t13 -1 p_r2_g77_h64_t13 -1 p_r2_g80_h67_t13 -1 p_r2_g86_h73_t13 -1 p_r2_g95_h82_t13 -1 p_r2_g111_h98_t13 -1 p_r2_g120_h107_t13 -1 p_r2_g149_h136_t13 -1 p_r2_g152_h139_t13 -1 p_r2_g155_h142_t13 -1 p_r2_g162_h149_t13 -1 p_r2_g165_h152_t13 -1 p_r3_g8_h162_t13 -1 p_r3_g11_h165_t13 -1 p_r3_g16_h3_t13 -1 p_r3_g124_h111_t13 -1 p_r3_g138_h125_t13 = -61 ;
1 d_13 -1 u_13 <= 0 ;
-1 d_13 -1 u_13 <= 0 ;
1 u_13 -1 M <= 0 ;
1 u_13 <= 0 ;
1 p_r0_g17_h1_t16 -1 x_r0_g17 <= 0 ;
1 p_r0_g17_h1_t16 -1 x_r0_g1 <= 0 ;
1 p_r0_g17_h1_t16 -1 x_r0_g17 -1 x_r0_g1 >= -1 ;
1 p_r0_g20_h4_t16 -1 x_r0_g20 <= 0 ;
1 p_r0_g20_h4_t16 -1 x_r0_g4 <= 0 ;
1 p_r0_g20_h4_t16 -1 x_r0_g20 -1 x_r0_g4 >= -1 ;
1 p_r0_g23_h7_t16 -1 x_r0_g23 <= 0 ;
1 p_r0_g23_h7_t16 -1 x_r0_g7 <= 0 ;
1 p_r0_g23_h7_t16 -1 x_r0_g23 -1 x_r0_g7 >= -1 ;
1 p_r0_g25_h9_t16 -1 x_r0_g25 <= 0 ;
1 p_r0_g25_h9_t16 -1 x_r0_g9 <= 0 ;
1 p_r0_g25_h9_t16 -1 x_r0_g25 -1 x_r0_g9 >= -1 ;
1 p_r0_g36_h20_t16 -1 x_r0_g36 <= 0 ;
1 p_r0_g36_h20_t16 -1 x_r0_g20 <= 0 ;
1 p_r0_g36_h20_t16 -1 x_r0_g36 -1 x_r0_g20 >= -1 ;
1 p_r0_g48_h32_t16 -1 x_r0_g48 <= 0 ;
1 p_r0_g48_h32_t16 -1 x_r0_g32 <= 0 ;
1 p_r0_g48_h32_t16 -1 x_r0_g48 -1 x_r0_g32 >= -1 ;
1 p_r0_g70_h54_t16 -1 x_r0_g70 <= 0 ;
1 p_r0_g70_h54_t16 -1 x_r0_g54 <= 0 ;
1 p_r0_g70_h54_t16 -1 x_r0_g70 -1 x_r0_g54 >= -1 ;
1 p_r0_g84_h68_t16 -1 x_r0_g84 <= 0 ;
1 p_r0_g84_h68_t16 -1 x_r0_g68 <= 0 ;
1 p_r0_g84_h68_t16 -1 x_r0_g84 -1 x_r0_g68 >= -1 ;
1 p_r0_g118_h102_t16 -1 x_r0_g118 <= 0 ;
1 p_r0_g118_h102_t16 -1 x_r0_g102 <= 0 ;
1 p_r0_g118_h102_t16 -1 x_r0_g118 -1 x_r0_g102 >= -1 ;
1 p_r1_g31_h15_t16 -1 x_r1_g31 <= 0 ;
1 p_r1_g31_h15_t16 -1 x_r1_g15 <= 0 ;
1 p_r1_g31_h15_t16 -1 x_r1_g31 -1 x_r1_g15 >= -1 ;
1 p_r1_g75_h59_t16 -1 x_r1_g75 <= 0 ;
1 p_r1_g75_h59_t16 -1 x_r1_g59 <= 0 ;
1 p_r1_g75_h59_t16 -1 x_r1_g75 -1 x_r1_g59 >= -1 ;
1 p_r1_g80_h64_t16 -1 x_r1_g80 <= 0 ;
1 p_r1_g80_h64_t16 -1 x_r1_g64 <= 0 ;
1 p_r1_g80_h64_t16 -1 x_r1_g80 -1 x_r1_g64 >= -1 ;
1 p_r1_g83_h67_t16 -1 x_r1_g83 <= 0 ;
1 p_r1_g83_h67_t16 -1 x_r1_g67 <= 0 ;
1 p_r1_g83_h67_t16 -1 x_r1_g83 -1 x_r1_g67 >= -1 ;
1 p_r1_g91_h75_t16 -1 x_r1_g91 <= 0 ;
1 p_r1_g91_h75_t16 -1 x_r1_g75 <= 0 ;
1 p_r1_g91_h75_t16 -1 x_r1_g91 -1 x_r1_g75 >= -1 ;
1 p_r1_g96_h80_t16 -1 x_r1_g96 <= 0 ;
1 p_r1_g96_h80_t16 -1 x_r1_g80 <= 0 ;
1 p_r1_g96_h80_t16 -1 x_r1_g96 -1 x_r1_g80 >= -1 ;
1 p_r1_g107_h91_t16 -1 x_r1_g107 <= 0 ;
1 p_r1_g107_h91_t16 -1 x_r1_g91 <= 0 ;
1 p_r1_g107_h91_t16 -1 x_r1_g107 -1 x_r1_g91 >= -1 ;
1 p_r1_g126_h110_t16 -1 x_r1_g126 <= 0 ;
1 p_r1_g126_h110_t16 -1 x_r1_g110 <= 0 ;
1 p_r1_g126_h110_t16 -1 x_r1_g126 -1 x_r1_g110 >= -1 ;
1 p_r2_g18_h2_t16 -1 x_r2_g18 <= 0 ;
1 p_r2_g18_h2_t16 -1 x_r2_g2 <= 0 ;
1 p_r2_g18_h2_t16 -1 x_r2_g18 -1 x_r2_g2 >= -1 ;
1 p_r2_g34_h18_t16 -1 x_r2_g34 <= 0 ;
1 p_r2_g34_h18_t16 -1 x_r2_g18 <= 0 ;
1 p_r2_g34_h18_t16 -1 x_r2_g34 -1 x_r2_g18 >= -1 ;
1 p_r2_g64_h48_t16 -1 x_r2_g64 <= 0 ;
1 p_r2_g64_h48_t16 -1 x_r2_g48 <= 0 ;
1 p_r2_g64_h48_t16 -1 x_r2_g64 -1 x_r2_g48 >= -1 ;
1 p_r2_g80_h64_t16 -1 x_r2_g80 <= 0 ;
1 p_r2_g80_h64_t16 -1 x_r2_g64 <= 0 ;
1 p_r2_g80_h64_t16 -1 x_r2_g80 -1 x_r2_g64 >= -1 ;
1 p_r2_g82_h66_t16 -1 x_r2_g82 <= 0 ;
1 p_r2_g82_h66_t16 -1 x_r2_g66 <= 0 ;
1 p_r2_g82_h66_t16 -1 x_r2_g82 -1 x_r2_g66 >= -1 ;
1 p_r2_g86_h70_t16 -1 x_r2_g86 <= 0 ;
1 p_r2_g86_h70_t16 -1 x_r2_g70 <= 0 ;
1 p_r2_g86_h70_t16 -1 x_r2_g86 -1 x_r2_g70 >= -1 ;
1 p_r2_g98_h82_t16 -1 x_r2_g98 <= 0 ;
1 p_r2_g98_h82_t16 -1 x_r2_g82 <= 0 ;
1 p_r2_g98_h82_t16 -1 x_r2_g98 -1 x_r2_g82 >= -1 ;
1 p_r2_g107_h91_t16 -1 x_r2_g107 <= 0 ;
1 p_r2_g107_h91_t16 -1 x_r2_g91 <= 0 ;
1 p_r2_g107_h91_t16 -1 x_r2_g107 -1 x_r2_g91 >= -1 ;
1 p_r2_g111_h95_t16 -1 x_r2_g111 <= 0 ;
1 p_r2_g111_h95_t16 -1 x_r2_g95 <= 0 ;
1 p_r2_g111_h95_t16 -1 x_r2_g111 -1 x_r2_g95 >= -1 ;
1 p_r2_g136_h120_t16 -1 x_r2_g136 <= 0 ;
1 p_r2_g136_h120_t16 -1 x_r2_g120 <= 0 ;
1 p_r2_g136_h120_t16 -1 x_r2_g136 -1 x_r2_g120 >= -1 ;
1 p_r2_g152_h136_t16 -1 x_r2_g152 <= 0 ;
1 p_r2_g152_h136_t16 -1 x_r2_g136 <= 0 ;
1 p_r2_g152_h136_t16 -1 x_r2_g152 -1 x_r2_g136 >= -1 ;
1 p_r2_g155_h139_t16 -1 x_r2_g155 <= 0 ;
1 p_r2_g155_h139_t16 -1 x_r2_g139 <= 0 ;
1 p_r2_g155_h139_t16 -1 x_r2_g155 -1 x_r2_g139 >= -1 ;
1 p_r2_g158_h142_t16 -1 x_r2_g158 <= 0 ;
1 p_r2_g158_h142_t16 -1 x_r2_g142 <= 0 ;
1 p_r2_g158_h142_t16 -1 x_r2_g158 -1 x_r2_g142 >= -1 ;
1 p_r2_g165_h149_t16 -1 x_r2_g165 <= 0 ;
1 p_r2_g165_h149_t16 -1 x_r2_g149 <= 0 ;
1 p_r2_g165_h149_t16 -1 x_r2_g165 -1 x_r2_g149 >= -1 ;
1 p_r3_g3_h154_t16 -1 x_r3_g3 <= 0 ;
1 p_r3_g3_h154_t16 -1 x_r3_g154 <= 0 ;
1 p_r3_g3_h154_t16 -1 x_r3_g3 -1 x_r3_g154 >= -1 ;
1 p_r3_g8_h159_t16 -1 x_r3_g8 <= 0 ;
1 p_r3_g8_h159_t16 -1 x_r3_g159 <= 0 ;
1 p_r3_g8_h159_t16 -1 x_r3_g8 -1 x_r3_g159 >= -1 ;
1 p_r3_g11_h162_t16 -1 x_r3_g11 <= 0 ;
1 p_r3_g11_h162_t16 -1 x_r3_g162 <= 0 ;
1 p_r3_g11_h162_t16 -1 x_r3_g11 -1 x_r3_g162 >= -1 ;
1 p_r3_g19_h3_t16 -1 x_r3_g19 <= 0 ;
1 p_r3_g19_h3_t16 -1 x_r3_g3 <= 0 ;
1 p_r3_g19_h3_t16 -1 x_r3_g19 -1 x_r3_g3 >= -1 ;
1 p_r3_g27_h11_t16 -1 x_r3_g27 <= 0 ;
1 p_r3_g27_h11_t16 -1 x_r3_g11 <= 0 ;
1 p_r3_g27_h11_t16 -1 x_r3_g27 -1 x_r3_g11 >= -1 ;
1 p_r3_g34_h18_t16 -1 x_r3_g34 <= 0 ;
1 p_r3_g34_h18_t16 -1 x_r3_g18 <= 0 ;
1 p_r3_g34_h18_t16 -1 x_r3_g34 -1 x_r3_g18 >= -1 ;
1 p_r3_g72_h56_t16 -1 x_r3_g72 <= 0 ;
1 p_r3_g72_h56_t16 -1 x_r3_g56 <= 0 ;
1 p_r3_g72_h56_t16 -1 x_r3_g72 -1 x_r3_g56 >= -1 ;
1 p_r3_g144_h128_t16 -1 x_r3_g144 <= 0 ;
1 p_r3_g144_h128_t16 -1 x_r3_g128 <= 0 ;
1 p_r3_g144_h128_t16 -1 x_r3_g144 -1 x_r3_g128 >= -1 ;
1 p_r3_g154_h138_t16 -1 x_r3_g154 <= 0 ;
1 p_r3_g154_h138_t16 -1 x_r3_g138 <= 0 ;
1 p_r3_g154_h138_t16 -1 x_r3_g154 -1 x_r3_g138 >= -1 ;
1 d_16 -1 x_r0_g1 -1 x_r0_g4 -1 x_r0_g7 -1 x_r0_g9 -2 x_r0_g14 -2 x_r0_g22 -1 x_r0_g26 -1 x_r0_g28 -2 x_r0_g35 -1 x_r0_g36 -1 x_r0_g47 -1 x_r0_g54 -1 x_r0_g67 -1 x_r0_g68 -1 x_r0_g79 -1 x_r0_g84 -1 x_r0_g87 -1 x_r0_g97 -1 x_r0_g121 -1 x_r0_g123 -1 x_r0_g130 -2 x_r0_g143 -1 x_r0_g144 -1 x_r0_g153 -2 x_r0_g162 -1 x_r1_g8 -1 x_r1_g11 -2 x_r1_g13 -1 x_r1_g15 -1 x_r1_g17 -1 x_r1_g30 -2 x_r1_g53 -2 x_r1_g62 -1 x_r1_g93 -1 x_r1_g96 -1 x_r1_g107 -1 x_r1_g108 -2 x_r1_g111 -2 x_r1_g114 -1 x_r1_g128 -1 x_r1_g132 -2 x_r1_g143 -1 x_r1_g146 -2 x_r1_g154 -1 x_r1_g157 -1 x_r1_g161 -1 x_r2_g2 -2 x_r2_g30 -2 x_r2_g62 -1 x_r2_g67 -2 x_r2_g74 -2 x_r2_g77 -1 x_r2_g86 -1 x_r2_g91 -1 x_r2_g98 -1 x_r2_g100 -2 x_r2_g110 -1 x_r2_g120 -1 x_r2_g128 -2 x_r2_g135 -1 x_r2_g142 -1 x_r2_g152 -1 x_r2_g155 -1 x_r2_g158 -1 x_r2_g162 -1 x_r2_g164 -1 x_r2_g165 -1 x_r3_g15 -1 x_r3_g16 -1 x_r3_g18 -1 x_r3_g27 -2 x_r3_g33 -1 x_r3_g36 -1 x_r3_g53 -1 x_r3_g56 -1 x_r3_g57 -2 x_r3_g65 -1 x_r3_g77 -1 x_r3_g91 -2 x_r3_g94 -1 x_r3_g103 -1 x_r3_g106 -1 x_r3_g111 -1 x_r3_g113 -1 x_r3_g121 -1 x_r3_g123 -2 x_r3_g124 -1 x_r3_g128 -1 x_r3_g138 -1 x_r3_g144 -1 x_r3_g145 -1 x_r3_g147 -1 x_r3_g159 -1 x_r3_g165 -1 p_r0_g17_h1_t16 -1 p_r0_g20_h4_t16 -1 p_r0_g23_h7_t16 -1 p_r0_g25_h9_t16 -1 p_r0_g36_h20_t16 -1 p_r0_g48_h32_t16 -1 p_r0_g70_h54_t16 -1 p_r0_g84_h68_t16 -1 p_r0_g118_h102_t16 -1 p_r1_g31_h15_t16 -1 p_r1_g75_h59_t16 -1 p_r1_g80_h64_t16 -1 p_r1_g83_h67_t16 -1 p_r1_g91_h75_t16 -1 p_r1_g96_h80_t16 -1 p_r1_g107_h91_t16 -1 p_r1_g126_h110_t16 -1 p_r2_g18_h2_t16 -1 p_r2_g34_h18_t16 -1 p_r2_g64_h48_t16 -1 p_r2_g80_h64_t16 -1 p_r2_g82_h66_t16 -1 p_r2_g86_h70_t16 -1 p_r2_g98_h82_t16 -1 p_r2_g107_h91_t16 -1 p_r2_g111_h95_t16 -1 p_r2_g136_h120_t16 -1 p_r2_g152_h136_t16 -1 p_r2_g155_h139_t16 -1 p_r2_g158_h142_t16 -1 p_r2_g165_h149_t16 -1 p_r3_g3_h154_t16 -1 p_r3_g8_h159_t16 -1 p_r3_g11_h162_t16 -1 p_r3_g19_h3_t16 -1 p_r3_g27_h11_t16 -1 p_r3_g34_h18_t16 -1 p_r3_g72_h56_t16 -1 p_r3_g144_h128_t16 -1 p_r3_g154_h138_t16 = -73 ;
1 d_16 -1 u_16 <= 0 ;
-1 d_16 -1 u_16 <= 0 ;
1 u_16 -1 M <= 0 ;
1 u_16 <= 1 ;
1 p_r0_g4_h153_t18 -1 x_r0_g4 <= 0 ;
1 p_r0_g4_h153_t18 -1 x_r0_g153 <= 0 ;
1 p_r0_g4_h153_t18 -1 x_r0_g4 -1 x_r0_g153 >= -1 ;
1 p_r0_g22_h4_t18 -1 x_r0_g22 <= 0 ;
1 p_r0_g22_h4_t18 -1 x_r0_g4 <= 0 ;
1 p_r0_g22_h4_t18 -1 x_r0_g22 -1 x_r0_g4 >= -1 ;
1 p_r0_g25_h7_t18 -1 x_r0_g25 <= 0 ;
1 p_r0_g25_h7_t18 -1 x_r0_g7 <= 0 ;
1 p_r0_g25_h7_t18 -1 x_r0_g25 -1 x_r0_g7 >= -1 ;
1 p_r0_g32_h14_t18 -1 x_r0_g32 <= 0 ;
1 p_r0_g32_h14_t18 -1 x_r0_g14 <= 0 ;
1 p_r0_g32_h14_t18 -1 x_r0_g32 -1 x_r0_g14 >= -1 ;
1 p_r0_g35_h17_t18 -1 x_r0_g35 <= 0 ;
1 p_r0_g35_h17_t18 -1 x_r0_g17 <= 0 ;
1 p_r0_g35_h17_t18 -1 x_r0_g35 -1 x_r0_g17 >= -1 ;
1 p_r0_g54_h36_t18 -1 x_r0_g54 <= 0 ;
1 p_r0_g54_h36_t18 -1 x_r0_g36 <= 0 ;
1 p_r0_g54_h36_t18 -1 x_r0_g54 -1 x_r0_g36 >= -1 ;
1 p_r0_g87_h69_t18 -1 x_r0_g87 <= 0 ;
1 p_r0_g87_h69_t18 -1 x_r0_g69 <= 0 ;
1 p_r0_g87_h69_t18 -1 x_r0_g87 -1 x_r0_g69 >= -1 ;
1 p_r0_g97_h79_t18 -1 x_r0_g97 <= 0 ;
1 p_r0_g97_h79_t18 -1 x_r0_g79 <= 0 ;
1 p_r0_g97_h79_t18 -1 x_r0_g97 -1 x_r0_g79 >= -1 ;
1 p_r0_g102_h84_t18 -1 x_r0_g102 <= 0 ;
1 p_r0_g102_h84_t18 -1 x_r0_g84 <= 0 ;
1 p_r0_g102_h84_t18 -1 x_r0_g102 -1 x_r0_g84 >= -1 ;
1 p_r0_g162_h144_t18 -1 x_r0_g162 <= 0 ;
1 p_r0_g162_h144_t18 -1 x_r0_g144 <= 0 ;
1 p_r0_g162_h144_t18 -1 x_r0_g162 -1 x_r0_g144 >= -1 ;
1 p_r1_g8_h157_t18 -1 x_r1_g8 <= 0 ;
1 p_r1_g8_h157_t18 -1 x_r1_g157 <= 0 ;
1 p_r1_g8_h157_t18 -1 x_r1_g8 -1 x_r1_g157 >= -1 ;
1 p_r1_g31_h13_t18 -1 x_r1_g31 <= 0 ;
1 p_r1_g31_h13_t18 -1 x_r1_g13 <= 0 ;
1 p_r1_g31_h13_t18 -1 x_r1_g31 -1 x_r1_g13 >= -1 ;
1 p_r1_g35_h17_t18 -1 x_r1_g35 <= 0 ;
1 p_r1_g35_h17_t18 -1 x_r1_g17 <= 0 ;
1 p_r1_g35_h17_t18 -1 x_r1_g35 -1 x_r1_g17 >= -1 ;
1 p_r1_g53_h35_t18 -1 x_r1_g53 <= 0 ;
1 p_r1_g53_h35_t18 -1 x_r1_g35 <= 0 ;
1 p_r1_g53_h35_t18 -1 x_r1_g53 -1 x_r1_g35 >= -1 ;
1 p_r1_g80_h62_t18 -1 x_r1_g80 <= 0 ;
1 p_r1_g80_h62_t18 -1 x_r1_g62 <= 0 ;
1 p_r1_g80_h62_t18 -1 x_r1_g80 -1 x_r1_g62 >= -1 ;
1 p_r1_g93_h75_t18 -1 x_r1_g93 <= 0 ;
1 p_r1_g93_h75_t18 -1 x_r1_g75 <= 0 ;
1 p_r1_g93_h75_t18 -1 x_r1_g93 -1 x_r1_g75 >= -1 ;
1 p_r1_g108_h90_t18 -1 x_r1_g108 <= 0 ;
1 p_r1_g108_h90_t18 -1 x_r1_g90 <= 0 ;
1 p_r1_g108_h90_t18 -1 x_r1_g108 -1 x_r1_g90 >= -1 ;
1 p_r1_g111_h93_t18 -1 x_r1_g111 <= 0 ;
1 p_r1_g111_h93_t18 -1 x_r1_g93 <= 0 ;
1 p_r1_g111_h93_t18 -1 x_r1_g111 -1 x_r1_g93 >= -1 ;
1 p_r1_g114_h96_t18 -1 x_r1_g114 <= 0 ;
1 p_r1_g114_h96_t18 -1 x_r1_g96 <= 0 ;
1 p_r1_g114_h96_t18 -1 x_r1_g114 -1 x_r1_g96 >= -1 ;
1 p_r1_g126_h108_t18 -1 x_r1_g126 <= 0 ;
1 p_r1_g126_h108_t18 -1 x_r1_g108 <= 0 ;
1 p_r1_g126_h108_t18 -1 x_r1_g126 -1 x_r1_g108 >= -1 ;
1 p_r1_g128_h110_t18 -1 x_r1_g128 <= 0 ;
1 p_r1_g128_h110_t18 -1 x_r1_g110 <= 0 ;
1 p_r1_g128_h110_t18 -1 x_r1_g128 -1 x_r1_g110 >= -1 ;
1 p_r1_g132_h114_t18 -1 x_r1_g132 <= 0 ;
1 p_r1_g132_h114_t18 -1 x_r1_g114 <= 0 ;
1 p_r1_g132_h114_t18 -1 x_r1_g132 -1 x_r1_g114 >= -1 ;
1 p_r1_g146_h128_t18 -1 x_r1_g146 <= 0 ;
1 p_r1_g146_h128_t18 -1 x_r1_g128 <= 0 ;
1 p_r1_g146_h128_t18 -1 x_r1_g146 -1 x_r1_g128 >= -1 ;
1 p_r1_g161_h143_t18 -1 x_r1_g161 <= 0 ;
1 p_r1_g161_h143_t18 -1 x_r1_g143 <= 0 ;
1 p_r1_g161_h143_t18 -1 x_r1_g161 -1 x_r1_g143 >= -1 ;
1 p_r2_g48_h30_t18 -1 x_r2_g48 <= 0 ;
1 p_r2_g48_h30_t18 -1 x_r2_g30 <= 0 ;
1 p_r2_g48_h30_t18 -1 x_r2_g48 -1 x_r2_g30 >= -1 ;
1 p_r2_g66_h48_t18 -1 x_r2_g66 <= 0 ;
1 p_r2_g66_h48_t18 -1 x_r2_g48 <= 0 ;
1 p_r2_g66_h48_t18 -1 x_r2_g66 -1 x_r2_g48 >= -1 ;
1 p_r2_g80_h62_t18 -1 x_r2_g80 <= 0 ;
1 p_r2_g80_h62_t18 -1 x_r2_g62 <= 0 ;
1 p_r2_g80_h62_t18 -1 x_r2_g80 -1 x_r2_g62 >= -1 ;
1 p_r2_g82_h64_t18 -1 x_r2_g82 <= 0 ;
1 p_r2_g82_h64_t18 -1 x_r2_g64 <= 0 ;
1 p_r2_g82_h64_t18 -1 x_r2_g82 -1 x_r2_g64 >= -1 ;
1 p_r2_g91_h73_t18 -1 x_r2_g91 <= 0 ;
1 p_r2_g91_h73_t18 -1 x_r2_g73 <= 0 ;
1 p_r2_g91_h73_t18 -1 x_r2_g91 -1 x_r2_g73 >= -1 ;
1 p_r2_g95_h77_t18 -1 x_r2_g95 <= 0 ;
1 p_r2_g95_h77_t18 -1 x_r2_g77 <= 0 ;
1 p_r2_g95_h77_t18 -1 x_r2_g95 -1 x_r2_g77 >= -1 ;
1 p_r2_g98_h80_t18 -1 x_r2_g98 <= 0 ;
1 p_r2_g98_h80_t18 -1 x_r2_g80 <= 0 ;
1 p_r2_g98_h80_t18 -1 x_r2_g98 -1 x_r2_g80 >= -1 ;
1 p_r2_g100_h82_t18 -1 x_r2_g100 <= 0 ;
1 p_r2_g100_h82_t18 -1 x_r2_g82 <= 0 ;
1 p_r2_g100_h82_t18 -1 x_r2_g100 -1 x_r2_g82 >= -1 ;
1 p_r2_g128_h110_t18 -1 x_r2_g128 <= 0 ;
1 p_r2_g128_h110_t18 -1 x_r2_g110 <= 0 ;
1 p_r2_g128_h110_t18 -1 x_r2_g128 -1 x_r2_g110 >= -1 ;
1 p_r3_g13_h162_t18 -1 x_r3_g13 <= 0 ;
1 p_r3_g13_h162_t18 -1 x_r3_g162 <= 0 ;
1 p_r3_g13_h162_t18 -1 x_r3_g13 -1 x_r3_g162 >= -1 ;
1 p_r3_g16_h165_t18 -1 x_r3_g16 <= 0 ;
1 p_r3_g16_h165_t18 -1 x_r3_g165 <= 0 ;
1 p_r3_g16_h165_t18 -1 x_r3_g16 -1 x_r3_g165 >= -1 ;
1 p_r3_g33_h15_t18 -1 x_r3_g33 <= 0 ;
1 p_r3_g33_h15_t18 -1 x_r3_g15 <= 0 ;
1 p_r3_g33_h15_t18 -1 x_r3_g33 -1 x_r3_g15 >= -1 ;
1 p_r3_g34_h16_t18 -1 x_r3_g34 <= 0 ;
1 p_r3_g34_h16_t18 -1 x_r3_g16 <= 0 ;
1 p_r3_g34_h16_t18 -1 x_r3_g34 -1 x_r3_g16 >= -1 ;
1 p_r3_g36_h18_t18 -1 x_r3_g36 <= 0 ;
1 p_r3_g36_h18_t18 -1 x_r3_g18 <= 0 ;
1 p_r3_g36_h18_t18 -1 x_r3_g36 -1 x_r3_g18 >= -1 ;
1 p_r3_g51_h33_t18 -1 x_r3_g51 <= 0 ;
1 p_r3_g51_h33_t18 -1 x_r3_g33 <= 0 ;
1 p_r3_g51_h33_t18 -1 x_r3_g51 -1 x_r3_g33 >= -1 ;
1 p_r3_g121_h103_t18 -1 x_r3_g121 <= 0 ;
1 p_r3_g121_h103_t18 -1 x_r3_g103 <= 0 ;
1 p_r3_g121_h103_t18 -1 x_r3_g121 -1 x_r3_g103 >= -1 ;
1 p_r3_g124_h106_t18 -1 x_r3_g124 <= 0 ;
1 p_r3_g124_h106_t18 -1 x_r3_g106 <= 0 ;
1 p_r3_g124_h106_t18 -1 x_r3_g124 -1 x_r3_g106 >= -1 ;
1 p_r3_g162_h144_t18 -1 x_r3_g162 <= 0 ;
1 p_r3_g162_h144_t18 -1 x_r3_g144 <= 0 ;
1 p_r3_g162_h144_t18 -1 x_r3_g162 -1 x_r3_g144 >= -1 ;
1 p_r3_g165_h147_t18 -1 x_r3_g165 <= 0 ;
1 p_r3_g165_h147_t18 -1 x_r3_g147 <= 0 ;
1 p_r3_g165_h147_t18 -1 x_r3_g165 -1 x_r3_g147 >= -1 ;
1 d_18 -1 x_r0_g1 -1 x_r0_g9 -1 x_r0_g14 -1 x_r0_g20 -1 x_r0_g22 -1 x_r0_g23 -1 x_r0_g25 -1 x_r0_g34 -2 x_r0_g37 -1 x_r0_g47 -1 x_r0_g48 -1 x_r0_g60 -1 x_r0_g67 -1 x_r0_g69 -2 x_r0_g70 -1 x_r0_g101 -1 x_r0_g102 -2 x_r0_g118 -2 x_r0_g121 -2 x_r0_g131 -1 x_r0_g143 -1 x_r0_g144 -1 x_r0_g162 -1 x_r1_g8 -2 x_r1_g11 -1 x_r1_g15 -1 x_r1_g17 -1 x_r1_g31 -2 x_r1_g38 -1 x_r1_g62 -2 x_r1_g64 -1 x_r1_g67 -1 x_r1_g75 -1 x_r1_g80 -1 x_r1_g83 -1 x_r1_g91 -1 x_r1_g96 -1 x_r1_g107 -1 x_r1_g113 -1 x_r1_g121 -1 x_r1_g146 -2 x_r2_g2 -1 x_r2_g18 -1 x_r2_g60 -1 x_r2_g64 -2 x_r2_g67 -1 x_r2_g74 -2 x_r2_g86 -1 x_r2_g95 -1 x_r2_g98 -2 x_r2_g111 -1 x_r2_g120 -1 x_r2_g128 -1 x_r2_g135 -2 x_r2_g139 -1 x_r2_g142 -1 x_r2_g149 -1 x_r2_g152 -1 x_r2_g155 -1 x_r2_g158 -1 x_r2_g163 -1 x_r2_g164 -1 x_r3_g8 -1 x_r3_g11 -2 x_r3_g19 -2 x_r3_g27 -2 x_r3_g56 -2 x_r3_g57 -2 x_r3_g65 -1 x_r3_g77 -1 x_r3_g79 -2 x_r3_g94 -1 x_r3_g111 -1 x_r3_g121 -1 x_r3_g124 -1 x_r3_g125 -1 x_r3_g128 -2 x_r3_g145 -1 x_r3_g147 -1 x_r3_g154 -1 p_r0_g4_h153_t18 -1 p_r0_g22_h4_t18 -1 p_r0_g25_h7_t18 -1 p_r0_g32_h14_t18 -1 p_r0_g35_h17_t18 -1 p_r0_g54_h36_t18 -1 p_r0_g87_h69_t18 -1 p_r0_g97_h79_t18 -1 p_r0_g102_h84_t18 -1 p_r0_g162_h144_t18 -1 p_r1_g8_h157_t18 -1 p_r1_g31_h13_t18 -1 p_r1_g35_h17_t18 -1 p_r1_g53_h35_t18 -1 p_r1_g80_h62_t18 -1 p_r1_g93_h75_t18 -1 p_r1_g108_h90_t18 -1 p_r1_g111_h93_t18 -1 p_r1_g114_h96_t18 -1 p_r1_g126_h108_t18 -1 p_r1_g128_h110_t18 -1 p_r1_g132_h114_t18 -1 p_r1_g146_h128_t18 -1 p_r1_g161_h143_t18 -1 p_r2_g48_h30_t18 -1 p_r2_g66_h48_t18 -1 p_r2_g80_h62_t18 -1 p_r2_g82_h64_t18 -1 p_r2_g91_h73_t18 -1 p_r2_g95_h77_t18 -1 p_r2_g98_h80_t18 -1 p_r2_g100_h82_t18 -1 p_r2_g128_h110_t18 -1 p_r3_g13_h162_t18 -1 p_r3_g16_h165_t18 -1 p_r3_g33_h15_t18 -1 p_r3_g34_h16_t18 -1 p_r3_g36_h18_t18 -1 p_r3_g51_h33_t18 -1 p_r3_g121_h103_t18 -1 p_r3_g124_h106_t18 -1 p_r3_g162_h144_t18 -1 p_r3_g165_h147_t18 = -76 ;
1 d_18 -1 u_18 <= 0 ;
-1 d_18 -1 u_18 <= 0 ;
1 u_18 -1 M <= 0 ;
1 u_18 <= 2 ;
1 p_r0_g14_h162_t19 -1 x_r0_g14 <= 0 ;
1 p_r0_g14_h162_t19 -1 x_r0_g162 <= 0 ;
1 p_r0_g14_h162_t19 -1 x_r0_g14 -1 x_r0_g162 >= -1 ;
1 p_r0_g20_h1_t19 -1 x_r0_g20 <= 0 ;
1 p_r0_g20_h1_t19 -1 x_r0_g1 <= 0 ;
1 p_r0_g20_h1_t19 -1 x_r0_g20 -1 x_r0_g1 >= -1 ;
1 p_r0_g23_h4_t19 -1 x_r0_g23 <= 0 ;
1 p_r0_g23_h4_t19 -1 x_r0_g4 <= 0 ;
1 p_r0_g23_h4_t19 -1 x_r0_g23 -1 x_r0_g4 >= -1 ;
1 p_r0_g26_h7_t19 -1 x_r0_g26 <= 0 ;
1 p_r0_g26_h7_t19 -1 x_r0_g7 <= 0 ;
1 p_r0_g26_h7_t19 -1 x_r0_g26 -1 x_r0_g7 >= -1 ;
1 p_r0_g28_h9_t19 -1 x_r0_g28 <= 0 ;
1 p_r0_g28_h9_t19 -1 x_r0_g9 <= 0 ;
1 p_r0_g28_h9_t19 -1 x_r0_g28 -1 x_r0_g9 >= -1 ;
1 p_r0_g36_h17_t19 -1 x_r0_g36 <= 0 ;
1 p_r0_g36_h17_t19 -1 x_r0_g17 <= 0 ;
1 p_r0_g36_h17_t19 -1 x_r0_g36 -1 x_r0_g17 >= -1 ;
1 p_r0_g47_h28_t19 -1 x_r0_g47 <= 0 ;
1 p_r0_g47_h28_t19 -1 x_r0_g28 <= 0 ;
1 p_r0_g47_h28_t19 -1 x_r0_g47 -1 x_r0_g28 >= -1 ;
1 p_r0_g54_h35_t19 -1 x_r0_g54 <= 0 ;
1 p_r0_g54_h35_t19 -1 x_r0_g35 <= 0 ;
1 p_r0_g54_h35_t19 -1 x_r0_g54 -1 x_r0_g35 >= -1 ;
1 p_r0_g67_h48_t19 -1 x_r0_g67 <= 0 ;
1 p_r0_g67_h48_t19 -1 x_r0_g48 <= 0 ;
1 p_r0_g67_h48_t19 -1 x_r0_g67 -1 x_r0_g48 >= -1 ;
1 p_r0_g79_h60_t19 -1 x_r0_g79 <= 0 ;
1 p_r0_g79_h60_t19 -1 x_r0_g60 <= 0 ;
1 p_r0_g79_h60_t19 -1 x_r0_g79 -1 x_r0_g60 >= -1 ;
1 p_r0_g87_h68_t19 -1 x_r0_g87 <= 0 ;
1 p_r0_g87_h68_t19 -1 x_r0_g68 <= 0 ;
1 p_r0_g87_h68_t19 -1 x_r0_g87 -1 x_r0_g68 >= -1 ;
1 p_r0_g121_h102_t19 -1 x_r0_g121 <= 0 ;
1 p_r0_g121_h102_t19 -1 x_r0_g102 <= 0 ;
1 p_r0_g121_h102_t19 -1 x_r0_g121 -1 x_r0_g102 >= -1 ;
1 p_r0_g162_h143_t19 -1 x_r0_g162 <= 0 ;
1 p_r0_g162_h143_t19 -1 x_r0_g143 <= 0 ;
1 p_r0_g162_h143_t19 -1 x_r0_g162 -1 x_r0_g143 >= -1 ;
1 p_r1_g13_h161_t19 -1 x_r1_g13 <= 0 ;
1 p_r1_g13_h161_t19 -1 x_r1_g161 <= 0 ;
1 p_r1_g13_h161_t19 -1 x_r1_g13 -1 x_r1_g161 >= -1 ;
1 p_r1_g30_h11_t19 -1 x_r1_g30 <= 0 ;
1 p_r1_g30_h11_t19 -1 x_r1_g11 <= 0 ;
1 p_r1_g30_h11_t19 -1 x_r1_g30 -1 x_r1_g11 >= -1 ;
1 p_r1_g83_h64_t19 -1 x_r1_g83 <= 0 ;
1 p_r1_g83_h64_t19 -1 x_r1_g64 <= 0 ;
1 p_r1_g83_h64_t19 -1 x_r1_g83 -1 x_r1_g64 >= -1 ;
1 p_r1_g110_h91_t19 -1 x_r1_g110 <= 0 ;
1 p_r1_g110_h91_t19 -1 x_r1_g91 <= 0 ;
1 p_r1_g110_h91_t19 -1 x_r1_g110 -1 x_r1_g91 >= -1 ;
1 p_r1_g126_h107_t19 -1 x_r1_g126 <= 0 ;
1 p_r1_g126_h107_t19 -1 x_r1_g107 <= 0 ;
1 p_r1_g126_h107_t19 -1 x_r1_g126 -1 x_r1_g107 >= -1 ;
1 p_r1_g132_h113_t19 -1 x_r1_g132 <= 0 ;
1 p_r1_g132_h113_t19 -1 x_r1_g113 <= 0 ;
1 p_r1_g132_h113_t19 -1 x_r1_g132 -1 x_r1_g113 >= -1 ;
1 p_r2_g48_h29_t19 -1 x_r2_g48 <= 0 ;
1 p_r2_g48_h29_t19 -1 x_r2_g29 <= 0 ;
1 p_r2_g48_h29_t19 -1 x_r2_g48 -1 x_r2_g29 >= -1 ;
1 p_r2_g67_h48_t19 -1 x_r2_g67 <= 0 ;
1 p_r2_g67_h48_t19 -1 x_r2_g48 <= 0 ;
1 p_r2_g67_h48_t19 -1 x_r2_g67 -1 x_r2_g48 >= -1 ;
1 p_r2_g86_h67_t19 -1 x_r2_g86 <= 0 ;
1 p_r2_g86_h67_t19 -1 x_r2_g67 <= 0 ;
1 p_r2_g86_h67_t19 -1 x_r2_g86 -1 x_r2_g67 >= -1 ;
1 p_r2_g110_h91_t19 -1 x_r2_g110 <= 0 ;
1 p_r2_g110_h91_t19 -1 x_r2_g91 <= 0 ;
1 p_r2_g110_h91_t19 -1 x_r2_g110 -1 x_r2_g91 >= -1 ;
1 p_r2_g139_h120_t19 -1 x_r2_g139 <= 0 ;
1 p_r2_g139_h120_t19 -1 x_r2_g120 <= 0 ;
1 p_r2_g139_h120_t19 -1 x_r2_g139 -1 x_r2_g120 >= -1 ;
1 p_r2_g155_h136_t19 -1 x_r2_g155 <= 0 ;
1 p_r2_g155_h136_t19 -1 x_r2_g136 <= 0 ;
1 p_r2_g155_h136_t19 -1 x_r2_g155 -1 x_r2_g136 >= -1 ;
1 p_r2_g158_h139_t19 -1 x_r2_g158 <= 0 ;
1 p_r2_g158_h139_t19 -1 x_r2_g139 <= 0 ;
1 p_r2_g158_h139_t19 -1 x_r2_g158 -1 x_r2_g139 >= -1 ;
1 p_r3_g11_h159_t19 -1 x_r3_g11 <= 0 ;
1 p_r3_g11_h159_t19 -1 x_r3_g159 <= 0 ;
1 p_r3_g11_h159_t19 -1 x_r3_g11 -1 x_r3_g159 >= -1 ;
1 p_r3_g27_h8_t19 -1 x_r3_g27 <= 0 ;
1 p_r3_g27_h8_t19 -1 x_r3_g8 <= 0 ;
1 p_r3_g27_h8_t19 -1 x_r3_g27 -1 x_r3_g8 >= -1 ;
1 p_r3_g34_h15_t19 -1 x_r3_g34 <= 0 ;
1 p_r3_g34_h15_t19 -1 x_r3_g15 <= 0 ;
1 p_r3_g34_h15_t19 -1 x_r3_g34 -1 x_r3_g15 >= -1 ;
1 p_r3_g53_h34_t19 -1 x_r3_g53 <= 0 ;
1 p_r3_g53_h34_t19 -1 x_r3_g34 <= 0 ;
1 p_r3_g53_h34_t19 -1 x_r3_g53 -1 x_r3_g34 >= -1 ;
1 p_r3_g72_h53_t19 -1 x_r3_g72 <= 0 ;
1 p_r3_g72_h53_t19 -1 x_r3_g53 <= 0 ;
1 p_r3_g72_h53_t19 -1 x_r3_g72 -1 x_r3_g53 >= -1 ;
1 p_r3_g91_h72_t19 -1 x_r3_g91 <= 0 ;
1 p_r3_g91_h72_t19 -1 x_r3_g72 <= 0 ;
1 p_r3_g91_h72_t19 -1 x_r3_g91 -1 x_r3_g72 >= -1 ;
1 p_r3_g113_h94_t19 -1 x_r3_g113 <= 0 ;
1 p_r3_g113_h94_t19 -1 x_r3_g94 <= 0 ;
1 p_r3_g113_h94_t19 -1 x_r3_g113 -1 x_r3_g94 >= -1 ;
1 p_r3_g125_h106_t19 -1 x_r3_g125 <= 0 ;
1 p_r3_g125_h106_t19 -1 x_r3_g106 <= 0 ;
1 p_r3_g125_h106_t19 -1 x_r3_g125 -1 x_r3_g106 >= -1 ;
1 p_r3_g144_h125_t19 -1 x_r3_g144 <= 0 ;
1 p_r3_g144_h125_t19 -1 x_r3_g125 <= 0 ;
1 p_r3_g144_h125_t19 -1 x_r3_g144 -1 x_r3_g125 >= -1 ;
1 p_r3_g147_h128_t19 -1 x_r3_g147 <= 0 ;
1 p_r3_g147_h128_t19 -1 x_r3_g128 <= 0 ;
1 p_r3_g147_h128_t19 -1 x_r3_g147 -1 x_r3_g128 >= -1 ;
1 d_19 -1 x_r0_g1 -1 x_r0_g4 -1 x_r0_g7 -1 x_r0_g9 -1 x_r0_g17 -1 x_r0_g22 -1 x_r0_g23 -1 x_r0_g25 -1 x_r0_g26 -2 x_r0_g32 -1 x_r0_g34 -1 x_r0_g36 -1 x_r0_g68 -1 x_r0_g69 -1 x_r0_g70 -1 x_r0_g79 -2 x_r0_g84 -1 x_r0_g87 -1 x_r0_g97 -1 x_r0_g101 -1 x_r0_g118 -1 x_r0_g123 -1 x_r0_g130 -2 x_r0_g144 -1 x_r0_g153 -2 x_r1_g8 -1 x_r1_g11 -1 x_r1_g13 -1 x_r1_g15 -1 x_r1_g17 -1 x_r1_g25 -1 x_r1_g30 -1 x_r1_g35 -1 x_r1_g38 -2 x_r1_g59 -1 x_r1_g62 -1 x_r1_g75 -2 x_r1_g76 -1 x_r1_g90 -1 x_r1_g93 -1 x_r1_g96 -1 x_r1_g107 -2 x_r1_g108 -1 x_r1_g111 -1 x_r1_g114 -1 x_r1_g117 -1 x_r1_g121 -1 x_r1_g128 -1 x_r1_g143 -1 x_r1_g146 -1 x_r1_g157 -2 x_r2_g2 -1 x_r2_g30 -1 x_r2_g60 -1 x_r2_g62 -1 x_r2_g64 -1 x_r2_g66 -1 x_r2_g74 -1 x_r2_g77 -1 x_r2_g80 -2 x_r2_g82 -1 x_r2_g86 -1 x_r2_g95 -1 x_r2_g100 -1 x_r2_g107 -1 x_r2_g110 -1 x_r2_g111 -1 x_r2_g120 -1 x_r2_g135 -1 x_r2_g142 -2 x_r2_g149 -1 x_r2_g152 -1 x_r2_g155 -1 x_r2_g159 -1 x_r2_g162 -1 x_r2_g165 -2 x_r3_g3 -1 x_r3_g7 -1 x_r3_g11 -1 x_r3_g13 -1 x_r3_g15 -2 x_r3_g18 -1 x_r3_g19 -1 x_r3_g27 -2 x_r3_g36 -1 x_r3_g51 -2 x_r3_g56 -2 x_r3_g57 -1 x_r3_g65 -1 x_r3_g79 -1 x_r3_g91 -1 x_r3_g94 -1 x_r3_g103 -1 x_r3_g113 -1 x_r3_g121 -1 x_r3_g123 -1 x_r3_g124 -1 x_r3_g138 -1 x_r3_g144 -1 x_r3_g147 -1 x_r3_g154 -1 x_r3_g159 -1 x_r3_g162 -1 x_r3_g165 -1 p_r0_g14_h162_t19 -1 p_r0_g20_h1_t19 -1 p_r0_g23_h4_t19 -1 p_r0_g26_h7_t19 -1 p_r0_g28_h9_t19 -1 p_r0_g36_h17_t19 -1 p_r0_g47_h28_t19 -1 p_r0_g54_h35_t19 -1 p_r0_g67_h48_t19 -1 p_r0_g79_h60_t19 -1 p_r0_g87_h68_t19 -1 p_r0_g121_h102_t19 -1 p_r0_g162_h143_t19 -1 p_r1_g13_h161_t19 -1 p_r1_g30_h11_t19 -1 p_r1_g83_h64_t19 -1 p_r1_g110_h91_t19 -1 p_r1_g126_h107_t19 -1 p_r1_g132_h113_t19 -1 p_r2_g48_h29_t19 -1 p_r2_g67_h48_t19 -1 p_r2_g86_h67_t19 -1 p_r2_g110_h91_t19 -1 p_r2_g139_h120_t19 -1 p_r2_g155_h136_t19 -1 p_r2_g158_h139_t19 -1 p_r3_g11_h159_t19 -1 p_r3_g27_h8_t19 -1 p_r3_g34_h15_t19 -1 p_r3_g53_h34_t19 -1 p_r3_g72_h53_t19 -1 p_r3_g91_h72_t19 -1 p_r3_g113_h94_t19 -1 p_r3_g125_h106_t19 -1 p_r3_g144_h125_t19 -1 p_r3_g147_h128_t19 = -54 ;
1 d_19 -1 u_19 <= 0 ;
-1 d_19 -1 u_19 <= 0 ;
1 u_19 -1 M <= 0 ;
1 u_19 <= 2 ;
1 p_r0_g34_h14_t20 -1 x_r0_g34 <= 0 ;
1 p_r0_g34_h14_t20 -1 x_r0_g14 <= 0 ;
1 p_r0_g34_h14_t20 -1 x_r0_g34 -1 x_r0_g14 >= -1 ;
1 p_r0_g37_h17_t20 -1 x_r0_g37 <= 0 ;
1 p_r0_g37_h17_t20 -1 x_r0_g17 <= 0 ;
1 p_r0_g37_h17_t20 -1 x_r0_g37 -1 x_r0_g17 >= -1 ;
1 p_r0_g48_h28_t20 -1 x_r0_g48 <= 0 ;
1 p_r0_g48_h28_t20 -1 x_r0_g28 <= 0 ;
1 p_r0_g48_h28_t20 -1 x_r0_g48 -1 x_r0_g28 >= -1 ;
1 p_r0_g54_h34_t20 -1 x_r0_g54 <= 0 ;
1 p_r0_g54_h34_t20 -1 x_r0_g34 <= 0 ;
1 p_r0_g54_h34_t20 -1 x_r0_g54 -1 x_r0_g34 >= -1 ;
1 p_r0_g67_h47_t20 -1 x_r0_g67 <= 0 ;
1 p_r0_g67_h47_t20 -1 x_r0_g47 <= 0 ;
1 p_r0_g67_h47_t20 -1 x_r0_g67 -1 x_r0_g47 >= -1 ;
1 p_r0_g68_h48_t20 -1 x_r0_g68 <= 0 ;
1 p_r0_g68_h48_t20 -1 x_r0_g48 <= 0 ;
1 p_r0_g68_h48_t20 -1 x_r0_g68 -1 x_r0_g48 >= -1 ;
1 p_r0_g87_h67_t20 -1 x_r0_g87 <= 0 ;
1 p_r0_g87_h67_t20 -1 x_r0_g67 <= 0 ;
1 p_r0_g87_h67_t20 -1 x_r0_g87 -1 x_r0_g67 >= -1 ;
1 p_r0_g121_h101_t20 -1 x_r0_g121 <= 0 ;
1 p_r0_g121_h101_t20 -1 x_r0_g101 <= 0 ;
1 p_r0_g121_h101_t20 -1 x_r0_g121 -1 x_r0_g101 >= -1 ;
1 p_r0_g143_h123_t20 -1 x_r0_g143 <= 0 ;
1 p_r0_g143_h123_t20 -1 x_r0_g123 <= 0 ;
1 p_r0_g143_h123_t20 -1 x_r0_g143 -1 x_r0_g123 >= -1 ;
1 p_r1_g8_h155_t20 -1 x_r1_g8 <= 0 ;
1 p_r1_g8_h155_t20 -1 x_r1_g155 <= 0 ;
1 p_r1_g8_h155_t20 -1 x_r1_g8 -1 x_r1_g155 >= -1 ;
1 p_r1_g31_h11_t20 -1 x_r1_g31 <= 0 ;
1 p_r1_g31_h11_t20 -1 x_r1_g11 <= 0 ;
1 p_r1_g31_h11_t20 -1 x_r1_g31 -1 x_r1_g11 >= -1 ;
1 p_r1_g35_h15_t20 -1 x_r1_g35 <= 0 ;
1 p_r1_g35_h15_t20 -1 x_r1_g15 <= 0 ;
1 p_r1_g35_h15_t20 -1 x_r1_g35 -1 x_r1_g15 >= -1 ;
1 p_r1_g96_h76_t20 -1 x_r1_g96 <= 0 ;
1 p_r1_g96_h76_t20 -1 x_r1_g76 <= 0 ;
1 p_r1_g96_h76_t20 -1 x_r1_g96 -1 x_r1_g76 >= -1 ;
1 p_r1_g110_h90_t20 -1 x_r1_g110 <= 0 ;
1 p_r1_g110_h90_t20 -1 x_r1_g90 <= 0 ;
1 p_r1_g110_h90_t20 -1 x_r1_g110 -1 x_r1_g90 >= -1 ;
1 p_r1_g111_h91_t20 -1 x_r1_g111 <= 0 ;
1 p_r1_g111_h91_t20 -1 x_r1_g91 <= 0 ;
1 p_r1_g111_h91_t20 -1 x_r1_g111 -1 x_r1_g91 >= -1 ;
1 p_r1_g113_h93_t20 -1 x_r1_g113 <= 0 ;
1 p_r1_g113_h93_t20 -1 x_r1_g93 <= 0 ;
1 p_r1_g113_h93_t20 -1 x_r1_g113 -1 x_r1_g93 >= -1 ;
1 p_r1_g128_h108_t20 -1 x_r1_g128 <= 0 ;
1 p_r1_g128_h108_t20 -1 x_r1_g108 <= 0 ;
1 p_r1_g128_h108_t20 -1 x_r1_g128 -1 x_r1_g108 >= -1 ;
1 p_r1_g146_h126_t20 -1 x_r1_g146 <= 0 ;
1 p_r1_g146_h126_t20 -1 x_r1_g126 <= 0 ;
1 p_r1_g146_h126_t20 -1 x_r1_g146 -1 x_r1_g126 >= -1 ;
1 p_r2_g2_h149_t20 -1 x_r2_g2 <= 0 ;
1 p_r2_g2_h149_t20 -1 x_r2_g149 <= 0 ;
1 p_r2_g2_h149_t20 -1 x_r2_g2 -1 x_r2_g149 >= -1 ;
1 p_r2_g18_h165_t20 -1 x_r2_g18 <= 0 ;
1 p_r2_g18_h165_t20 -1 x_r2_g165 <= 0 ;
1 p_r2_g18_h165_t20 -1 x_r2_g18 -1 x_r2_g165 >= -1 ;
1 p_r2_g80_h60_t20 -1 x_r2_g80 <= 0 ;
1 p_r2_g80_h60_t20 -1 x_r2_g60 <= 0 ;
1 p_r2_g80_h60_t20 -1 x_r2_g80 -1 x_r2_g60 >= -1 ;
1 p_r2_g82_h62_t20 -1 x_r2_g82 <= 0 ;
1 p_r2_g82_h62_t20 -1 x_r2_g62 <= 0 ;
1 p_r2_g82_h62_t20 -1 x_r2_g82 -1 x_r2_g62 >= -1 ;
1 p_r2_g86_h66_t20 -1 x_r2_g86 <= 0 ;
1 p_r2_g86_h66_t20 -1 x_r2_g66 <= 0 ;
1 p_r2_g86_h66_t20 -1 x_r2_g86 -1 x_r2_g66 >= -1 ;
1 p_r2_g100_h80_t20 -1 x_r2_g100 <= 0 ;
1 p_r2_g100_h80_t20 -1 x_r2_g80 <= 0 ;
1 p_r2_g100_h80_t20 -1 x_r2_g100 -1 x_r2_g80 >= -1 ;
1 p_r2_g111_h91_t20 -1 x_r2_g111 <= 0 ;
1 p_r2_g111_h91_t20 -1 x_r2_g91 <= 0 ;
1 p_r2_g111_h91_t20 -1 x_r2_g111 -1 x_r2_g91 >= -1 ;
1 p_r2_g120_h100_t20 -1 x_r2_g120 <= 0 ;
1 p_r2_g120_h100_t20 -1 x_r2_g100 <= 0 ;
1 p_r2_g120_h100_t20 -1 x_r2_g120 -1 x_r2_g100 >= -1 ;
1 p_r2_g155_h135_t20 -1 x_r2_g155 <= 0 ;
1 p_r2_g155_h135_t20 -1 x_r2_g135 <= 0 ;
1 p_r2_g155_h135_t20 -1 x_r2_g155 -1 x_r2_g135 >= -1 ;
1 p_r2_g159_h139_t20 -1 x_r2_g159 <= 0 ;
1 p_r2_g159_h139_t20 -1 x_r2_g139 <= 0 ;
1 p_r2_g159_h139_t20 -1 x_r2_g159 -1 x_r2_g139 >= -1 ;
1 p_r2_g162_h142_t20 -1 x_r2_g162 <= 0 ;
1 p_r2_g162_h142_t20 -1 x_r2_g142 <= 0 ;
1 p_r2_g162_h142_t20 -1 x_r2_g162 -1 x_r2_g142 >= -1 ;
1 p_r3_g7_h154_t20 -1 x_r3_g7 <= 0 ;
1 p_r3_g7_h154_t20 -1 x_r3_g154 <= 0 ;
1 p_r3_g7_h154_t20 -1 x_r3_g7 -1 x_r3_g154 >= -1 ;
1 p_r3_g15_h162_t20 -1 x_r3_g15 <= 0 ;
1 p_r3_g15_h162_t20 -1 x_r3_g162 <= 0 ;
1 p_r3_g15_h162_t20 -1 x_r3_g15 -1 x_r3_g162 >= -1 ;
1 p_r3_g18_h165_t20 -1 x_r3_g18 <= 0 ;
1 p_r3_g18_h165_t20 -1 x_r3_g165 <= 0 ;
1 p_r3_g18_h165_t20 -1 x_r3_g18 -1 x_r3_g165 >= -1 ;
1 p_r3_g27_h7_t20 -1 x_r3_g27 <= 0 ;
1 p_r3_g27_h7_t20 -1 x_r3_g7 <= 0 ;
1 p_r3_g27_h7_t20 -1 x_r3_g27 -1 x_r3_g7 >= -1 ;
1 p_r3_g33_h13_t20 -1 x_r3_g33 <= 0 ;
1 p_r3_g33_h13_t20 -1 x_r3_g13 <= 0 ;
1 p_r3_g33_h13_t20 -1 x_r3_g33 -1 x_r3_g13 >= -1 ;
1 p_r3_g36_h16_t20 -1 x_r3_g36 <= 0 ;
1 p_r3_g36_h16_t20 -1 x_r3_g16 <= 0 ;
1 p_r3_g36_h16_t20 -1 x_r3_g36 -1 x_r3_g16 >= -1 ;
1 p_r3_g53_h33_t20 -1 x_r3_g53 <= 0 ;
1 p_r3_g53_h33_t20 -1 x_r3_g33 <= 0 ;
1 p_r3_g53_h33_t20 -1 x_r3_g53 -1 x_r3_g33 >= -1 ;
1 p_r3_g56_h36_t20 -1 x_r3_g56 <= 0 ;
1 p_r3_g56_h36_t20 -1 x_r3_g36 <= 0 ;
1 p_r3_g56_h36_t20 -1 x_r3_g56 -1 x_r3_g36 >= -1 ;
1 p_r3_g77_h57_t20 -1 x_r3_g77 <= 0 ;
1 p_r3_g77_h57_t20 -1 x_r3_g57 <= 0 ;
1 p_r3_g77_h57_t20 -1 x_r3_g77 -1 x_r3_g57 >= -1 ;
1 p_r3_g111_h91_t20 -1 x_r3_g111 <= 0 ;
1 p_r3_g111_h91_t20 -1 x_r3_g91 <= 0 ;
1 p_r3_g111_h91_t20 -1 x_r3_g111 -1 x_r3_g91 >= -1 ;
1 p_r3_g123_h103_t20 -1 x_r3_g123 <= 0 ;
1 p_r3_g123_h103_t20 -1 x_r3_g103 <= 0 ;
1 p_r3_g123_h103_t20 -1 x_r3_g123 -1 x_r3_g103 >= -1 ;
1 p_r3_g144_h124_t20 -1 x_r3_g144 <= 0 ;
1 p_r3_g144_h124_t20 -1 x_r3_g124 <= 0 ;
1 p_r3_g144_h124_t20 -1 x_r3_g144 -1 x_r3_g124 >= -1 ;
1 p_r3_g145_h125_t20 -1 x_r3_g145 <= 0 ;
1 p_r3_g145_h125_t20 -1 x_r3_g125 <= 0 ;
1 p_r3_g145_h125_t20 -1 x_r3_g145 -1 x_r3_g125 >= -1 ;
1 p_r3_g165_h145_t20 -1 x_r3_g165 <= 0 ;
1 p_r3_g165_h145_t20 -1 x_r3_g145 <= 0 ;
1 p_r3_g165_h145_t20 -1 x_r3_g165 -1 x_r3_g145 >= -1 ;
1 d_20 -1 x_r0_g4 -1 x_r0_g20 -1 x_r0_g22 -2 x_r0_g23 -2 x_r0_g25 -1 x_r0_g26 -2 x_r0_g32 -2 x_r0_g35 -1 x_r0_g54 -1 x_r0_g60 -1 x_r0_g68 -1 x_r0_g69 -1 x_r0_g70 -1 x_r0_g79 -1 x_r0_g97 -1 x_r0_g102 -1 x_r0_g118 -1 x_r0_g123 -1 x_r0_g131 -1 x_r0_g143 -1 x_r0_g153 -2 x_r0_g162 -1 x_r1_g13 -2 x_r1_g17 -1 x_r1_g30 -1 x_r1_g38 -2 x_r1_g59 -2 x_r1_g62 -2 x_r1_g64 -1 x_r1_g67 -1 x_r1_g75 -1 x_r1_g76 -1 x_r1_g80 -1 x_r1_g83 -1 x_r1_g90 -1 x_r1_g96 -2 x_r1_g107 -1 x_r1_g108 -1 x_r1_g110 -1 x_r1_g121 -1 x_r1_g132 -2 x_r1_g143 -1 x_r1_g146 -1 x_r1_g157 -1 x_r1_g161 -1 x_r2_g29 -1 x_r2_g34 -2 x_r2_g48 -1 x_r2_g66 -1 x_r2_g67 -1 x_r2_g70 -1 x_r2_g73 -1 x_r2_g74 -1 x_r2_g82 -2 x_r2_g95 -1 x_r2_g98 -1 x_r2_g107 -2 x_r2_g110 -1 x_r2_g120 -1 x_r2_g128 -1 x_r2_g135 -1 x_r2_g136 -1 x_r2_g139 -1 x_r2_g142 -1 x_r2_g149 -1 x_r2_g152 -1 x_r3_g8 -1 x_r3_g13 -1 x_r3_g16 -1 x_r3_g18 -2 x_r3_g19 -1 x_r3_g27 -1 x_r3_g56 -1 x_r3_g57 -1 x_r3_g65 -2 x_r3_g79 -1 x_r3_g94 -1 x_r3_g103 -1 x_r3_g106 -1 x_r3_g123 -2 x_r3_g128 -1 x_r3_g138 -1 x_r3_g147 -1 x_r3_g154 -2 x_r3_g159 -1 x_r3_g162 -1 p_r0_g34_h14_t20 -1 p_r0_g37_h17_t20 -1 p_r0_g48_h28_t20 -1 p_r0_g54_h34_t20 -1 p_r0_g67_h47_t20 -1 p_r0_g68_h48_t20 -1 p_r0_g87_h67_t20 -1 p_r0_g121_h101_t20 -1 p_r0_g143_h123_t20 -1 p_r1_g8_h155_t20 -1 p_r1_g31_h11_t20 -1 p_r1_g35_h15_t20 -1 p_r1_g96_h76_t20 -1 p_r1_g110_h90_t20 -1 p_r1_g111_h91_t20 -1 p_r1_g113_h93_t20 -1 p_r1_g128_h108_t20 -1 p_r1_g146_h126_t20 -1 p_r2_g2_h149_t20 -1 p_r2_g18_h165_t20 -1 p_r2_g80_h60_t20 -1 p_r2_g82_h62_t20 -1 p_r2_g86_h66_t20 -1 p_r2_g100_h80_t20 -1 p_r2_g111_h91_t20 -1 p_r2_g120_h100_t20 -1 p_r2_g155_h135_t20 -1 p_r2_g159_h139_t20 -1 p_r2_g162_h142_t20 -1 p_r3_g7_h154_t20 -1 p_r3_g15_h162_t20 -1 p_r3_g18_h165_t20 -1 p_r3_g27_h7_t20 -1 p_r3_g33_h13_t20 -1 p_r3_g36_h16_t20 -1 p_r3_g53_h33_t20 -1 p_r3_g56_h36_t20 -1 p_r3_g77_h57_t20 -1 p_r3_g111_h91_t20 -1 p_r3_g123_h103_t20 -1 p_r3_g144_h124_t20 -1 p_r3_g145_h125_t20 -1 p_r3_g165_h145_t20 = -63 ;
1 d_20 -1 u_20 <= 0 ;
-1 d_20 -1 u_20 <= 0 ;
1 u_20 -1 M <= 0 ;
1 u_20 <= 0 ;
1 p_r0_g7_h153_t21 -1 x_r0_g7 <= 0 ;
1 p_r0_g7_h153_t21 -1 x_r0_g153 <= 0 ;
1 p_r0_g7_h153_t21 -1 x_r0_g7 -1 x_r0_g153 >= -1 ;
1 p_r0_g22_h1_t21 -1 x_r0_g22 <= 0 ;
1 p_r0_g22_h1_t21 -1 x_r0_g1 <= 0 ;
1 p_r0_g22_h1_t21 -1 x_r0_g22 -1 x_r0_g1 >= -1 ;
1 p_r0_g25_h4_t21 -1 x_r0_g25 <= 0 ;
1 p_r0_g25_h4_t21 -1 x_r0_g4 <= 0 ;
1 p_r0_g25_h4_t21 -1 x_r0_g25 -1 x_r0_g4 >= -1 ;
1 p_r0_g28_h7_t21 -1 x_r0_g28 <= 0 ;
1 p_r0_g28_h7_t21 -1 x_r0_g7 <= 0 ;
1 p_r0_g28_h7_t21 -1 x_r0_g28 -1 x_r0_g7 >= -1 ;
1 p_r0_g35_h14_t21 -1 x_r0_g35 <= 0 ;
1 p_r0_g35_h14_t21 -1 x_r0_g14 <= 0 ;
1 p_r0_g35_h14_t21 -1 x_r0_g35 -1 x_r0_g14 >= -1 ;
1 p_r0_g47_h26_t21 -1 x_r0_g47 <= 0 ;
1 p_r0_g47_h26_t21 -1 x_r0_g26 <= 0 ;
1 p_r0_g47_h26_t21 -1 x_r0_g47 -1 x_r0_g26 >= -1 ;
1 p_r0_g68_h47_t21 -1 x_r0_g68 <= 0 ;
1 p_r0_g68_h47_t21 -1 x_r0_g47 <= 0 ;
1 p_r0_g68_h47_t21 -1 x_r0_g68 -1 x_r0_g47 >= -1 ;
1 p_r0_g69_h48_t21 -1 x_r0_g69 <= 0 ;
1 p_r0_g69_h48_t21 -1 x_r0_g48 <= 0 ;
1 p_r0_g69_h48_t21 -1 x_r0_g69 -1 x_r0_g48 >= -1 ;
1 p_r0_g118_h97_t21 -1 x_r0_g118 <= 0 ;
1 p_r0_g118_h97_t21 -1 x_r0_g97 <= 0 ;
1 p_r0_g118_h97_t21 -1 x_r0_g118 -1 x_r0_g97 >= -1 ;
1 p_r0_g123_h102_t21 -1 x_r0_g123 <= 0 ;
1 p_r0_g123_h102_t21 -1 x_r0_g102 <= 0 ;
1 p_r0_g123_h102_t21 -1 x_r0_g123 -1 x_r0_g102 >= -1 ;
1 p_r0_g144_h123_t21 -1 x_r0_g144 <= 0 ;
1 p_r0_g144_h123_t21 -1 x_r0_g123 <= 0 ;
1 p_r0_g144_h123_t21 -1 x_r0_g144 -1 x_r0_g123 >= -1 ;
1 p_r1_g8_h154_t21 -1 x_r1_g8 <= 0 ;
1 p_r1_g8_h154_t21 -1 x_r1_g154 <= 0 ;
1 p_r1_g8_h154_t21 -1 x_r1_g8 -1 x_r1_g154 >= -1 ;
1 p_r1_g11_h157_t21 -1 x_r1_g11 <= 0 ;
1 p_r1_g11_h157_t21 -1 x_r1_g157 <= 0 ;
1 p_r1_g11_h157_t21 -1 x_r1_g11 -1 x_r1_g157 >= -1 ;
1 p_r1_g15_h161_t21 -1 x_r1_g15 <= 0 ;
1 p_r1_g15_h161_t21 -1 x_r1_g161 <= 0 ;
1 p_r1_g15_h161_t21 -1 x_r1_g15 -1 x_r1_g161 >= -1 ;
1 p_r1_g38_h17_t21 -1 x_r1_g38 <= 0 ;
1 p_r1_g38_h17_t21 -1 x_r1_g17 <= 0 ;
1 p_r1_g38_h17_t21 -1 x_r1_g38 -1 x_r1_g17 >= -1 ;
1 p_r1_g59_h38_t21 -1 x_r1_g59 <= 0 ;
1 p_r1_g59_h38_t21 -1 x_r1_g38 <= 0 ;
1 p_r1_g59_h38_t21 -1 x_r1_g59 -1 x_r1_g38 >= -1 ;
1 p_r1_g80_h59_t21 -1 x_r1_g80 <= 0 ;
1 p_r1_g80_h59_t21 -1 x_r1_g59 <= 0 ;
1 p_r1_g80_h59_t21 -1 x_r1_g80 -1 x_r1_g59 >= -1 ;
1 p_r1_g83_h62_t21 -1 x_r1_g83 <= 0 ;
1 p_r1_g83_h62_t21 -1 x_r1_g62 <= 0 ;
1 p_r1_g83_h62_t21 -1 x_r1_g83 -1 x_r1_g62 >= -1 ;
1 p_r1_g96_h75_t21 -1 x_r1_g96 <= 0 ;
1 p_r1_g96_h75_t21 -1 x_r1_g75 <= 0 ;
1 p_r1_g96_h75_t21 -1 x_r1_g96 -1 x_r1_g75 >= -1 ;
1 p_r1_g111_h90_t21 -1 x_r1_g111 <= 0 ;
1 p_r1_g111_h90_t21 -1 x_r1_g90 <= 0 ;
1 p_r1_g111_h90_t21 -1 x_r1_g111 -1 x_r1_g90 >= -1 ;
1 p_r1_g114_h93_t21 -1 x_r1_g114 <= 0 ;
1 p_r1_g114_h93_t21 -1 x_r1_g93 <= 0 ;
1 p_r1_g114_h93_t21 -1 x_r1_g114 -1 x_r1_g93 >= -1 ;
1 p_r1_g117_h96_t21 -1 x_r1_g117 <= 0 ;
1 p_r1_g117_h96_t21 -1 x_r1_g96 <= 0 ;
1 p_r1_g117_h96_t21 -1 x_r1_g117 -1 x_r1_g96 >= -1 ;
1 p_r1_g128_h107_t21 -1 x_r1_g128 <= 0 ;
1 p_r1_g128_h107_t21 -1 x_r1_g107 <= 0 ;
1 p_r1_g128_h107_t21 -1 x_r1_g128 -1 x_r1_g107 >= -1 ;
1 p_r1_g132_h111_t21 -1 x_r1_g132 <= 0 ;
1 p_r1_g132_h111_t21 -1 x_r1_g111 <= 0 ;
1 p_r1_g132_h111_t21 -1 x_r1_g132 -1 x_r1_g111 >= -1 ;
1 p_r2_g18_h164_t21 -1 x_r2_g18 <= 0 ;
1 p_r2_g18_h164_t21 -1 x_r2_g164 <= 0 ;
1 p_r2_g18_h164_t21 -1 x_r2_g18 -1 x_r2_g164 >= -1 ;
1 p_r2_g91_h70_t21 -1 x_r2_g91 <= 0 ;
1 p_r2_g91_h70_t21 -1 x_r2_g70 <= 0 ;
1 p_r2_g91_h70_t21 -1 x_r2_g91 -1 x_r2_g70 >= -1 ;
1 p_r2_g95_h74_t21 -1 x_r2_g95 <= 0 ;
1 p_r2_g95_h74_t21 -1 x_r2_g74 <= 0 ;
1 p_r2_g95_h74_t21 -1 x_r2_g95 -1 x_r2_g74 >= -1 ;
1 p_r2_g98_h77_t21 -1 x_r2_g98 <= 0 ;
1 p_r2_g98_h77_t21 -1 x_r2_g77 <= 0 ;
1 p_r2_g98_h77_t21 -1 x_r2_g98 -1 x_r2_g77 >= -1 ;
1 p_r2_g107_h86_t21 -1 x_r2_g107 <= 0 ;
1 p_r2_g107_h86_t21 -1 x_r2_g86 <= 0 ;
1 p_r2_g107_h86_t21 -1 x_r2_g107 -1 x_r2_g86 >= -1 ;
1 p_r2_g128_h107_t21 -1 x_r2_g128 <= 0 ;
1 p_r2_g128_h107_t21 -1 x_r2_g107 <= 0 ;
1 p_r2_g128_h107_t21 -1 x_r2_g128 -1 x_r2_g107 >= -1 ;
1 p_r2_g149_h128_t21 -1 x_r2_g149 <= 0 ;
1 p_r2_g149_h128_t21 -1 x_r2_g128 <= 0 ;
1 p_r2_g149_h128_t21 -1 x_r2_g149 -1 x_r2_g128 >= -1 ;
1 p_r2_g163_h142_t21 -1 x_r2_g163 <= 0 ;
1 p_r2_g163_h142_t21 -1 x_r2_g142 <= 0 ;
1 p_r2_g163_h142_t21 -1 x_r2_g163 -1 x_r2_g142 >= -1 ;
1 p_r3_g8_h154_t21 -1 x_r3_g8 <= 0 ;
1 p_r3_g8_h154_t21 -1 x_r3_g154 <= 0 ;
1 p_r3_g8_h154_t21 -1 x_r3_g8 -1 x_r3_g154 >= -1 ;
1 p_r3_g13_h159_t21 -1 x_r3_g13 <= 0 ;
1 p_r3_g13_h159_t21 -1 x_r3_g159 <= 0 ;
1 p_r3_g13_h159_t21 -1 x_r3_g13 -1 x_r3_g159 >= -1 ;
1 p_r3_g16_h162_t21 -1 x_r3_g16 <= 0 ;
1 p_r3_g16_h162_t21 -1 x_r3_g162 <= 0 ;
1 p_r3_g16_h162_t21 -1 x_r3_g16 -1 x_r3_g162 >= -1 ;
1 p_r3_g19_h165_t21 -1 x_r3_g19 <= 0 ;
1 p_r3_g19_h165_t21 -1 x_r3_g165 <= 0 ;
1 p_r3_g19_h165_t21 -1 x_r3_g19 -1 x_r3_g165 >= -1 ;
1 p_r3_g34_h13_t21 -1 x_r3_g34 <= 0 ;
1 p_r3_g34_h13_t21 -1 x_r3_g13 <= 0 ;
1 p_r3_g34_h13_t21 -1 x_r3_g34 -1 x_r3_g13 >= -1 ;
1 p_r3_g36_h15_t21 -1 x_r3_g36 <= 0 ;
1 p_r3_g36_h15_t21 -1 x_r3_g15 <= 0 ;
1 p_r3_g36_h15_t21 -1 x_r3_g36 -1 x_r3_g15 >= -1 ;
1 p_r3_g57_h36_t21 -1 x_r3_g57 <= 0 ;
1 p_r3_g57_h36_t21 -1 x_r3_g36 <= 0 ;
1 p_r3_g57_h36_t21 -1 x_r3_g57 -1 x_r3_g36 >= -1 ;
1 p_r3_g72_h51_t21 -1 x_r3_g72 <= 0 ;
1 p_r3_g72_h51_t21 -1 x_r3_g51 <= 0 ;
1 p_r3_g72_h51_t21 -1 x_r3_g72 -1 x_r3_g51 >= -1 ;
1 p_r3_g77_h56_t21 -1 x_r3_g77 <= 0 ;
1 p_r3_g77_h56_t21 -1 x_r3_g56 <= 0 ;
1 p_r3_g77_h56_t21 -1 x_r3_g77 -1 x_r3_g56 >= -1 ;
1 p_r3_g124_h103_t21 -1 x_r3_g124 <= 0 ;
1 p_r3_g124_h103_t21 -1 x_r3_g103 <= 0 ;
1 p_r3_g124_h103_t21 -1 x_r3_g124 -1 x_r3_g103 >= -1 ;
1 p_r3_g144_h123_t21 -1 x_r3_g144 <= 0 ;
1 p_r3_g144_h123_t21 -1 x_r3_g123 <= 0 ;
1 p_r3_g144_h123_t21 -1 x_r3_g144 -1 x_r3_g123 >= -1 ;
1 p_r3_g145_h124_t21 -1 x_r3_g145 <= 0 ;
1 p_r3_g145_h124_t21 -1 x_r3_g124 <= 0 ;
1 p_r3_g145_h124_t21 -1 x_r3_g145 -1 x_r3_g124 >= -1 ;
1 p_r3_g159_h138_t21 -1 x_r3_g159 <= 0 ;
1 p_r3_g159_h138_t21 -1 x_r3_g138 <= 0 ;
1 p_r3_g159_h138_t21 -1 x_r3_g159 -1 x_r3_g138 >= -1 ;
1 p_r3_g165_h144_t21 -1 x_r3_g165 <= 0 ;
1 p_r3_g165_h144_t21 -1 x_r3_g144 <= 0 ;
1 p_r3_g165_h144_t21 -1 x_r3_g165 -1 x_r3_g144 >= -1 ;
1 d_21 -2 x_r0_g9 -1 x_r0_g14 -2 x_r0_g17 -1 x_r0_g22 -1 x_r0_g26 -1 x_r0_g28 -1 x_r0_g32 -2 x_r0_g34 -1 x_r0_g36 -1 x_r0_g37 -1 x_r0_g67 -1 x_r0_g69 -1 x_r0_g70 -2 x_r0_g79 -1 x_r0_g84 -1 x_r0_g101 -1 x_r0_g118 -2 x_r0_g121 -1 x_r0_g130 -1 x_r0_g131 -1 x_r0_g143 -1 x_r0_g144 -1 x_r0_g153 -1 x_r1_g8 -1 x_r1_g11 -1 x_r1_g13 -1 x_r1_g15 -1 x_r1_g17 -1 x_r1_g25 -1 x_r1_g31 -1 x_r1_g35 -1 x_r1_g53 -2 x_r1_g67 -1 x_r1_g90 -2 x_r1_g91 -1 x_r1_g108 -1 x_r1_g110 -1 x_r1_g117 -1 x_r1_g121 -1 x_r1_g143 -1 x_r1_g161 -1 x_r2_g2 -1 x_r2_g18 -1 x_r2_g48 -1 x_r2_g60 -2 x_r2_g62 -2 x_r2_g64 -1 x_r2_g66 -1 x_r2_g67 -1 x_r2_g70 -1 x_r2_g73 -1 x_r2_g77 -1 x_r2_g80 -1 x_r2_g82 -1 x_r2_g86 -1 x_r2_g91 -1 x_r2_g95 -1 x_r2_g98 -1 x_r2_g100 -2 x_r2_g111 -1 x_r2_g135 -2 x_r2_g136 -1 x_r2_g139 -1 x_r2_g142 -1 x_r2_g155 -1 x_r2_g158 -1 x_r3_g3 -1 x_r3_g7 -1 x_r3_g11 -1 x_r3_g16 -1 x_r3_g18 -1 x_r3_g19 -1 x_r3_g27 -1 x_r3_g33 -1 x_r3_g34 -1 x_r3_g51 -2 x_r3_g53 -1 x_r3_g57 -1 x_r3_g65 -1 x_r3_g77 -1 x_r3_g91 -1 x_r3_g106 -1 x_r3_g111 -1 x_r3_g113 -1 x_r3_g121 -1 x_r3_g128 -1 x_r3_g145 -1 x_r3_g147 -1 p_r0_g7_h153_t21 -1 p_r0_g22_h1_t21 -1 p_r0_g25_h4_t21 -1 p_r0_g28_h7_t21 -1 p_r0_g35_h14_t21 -1 p_r0_g47_h26_t21 -1 p_r0_g68_h47_t21 -1 p_r0_g69_h48_t21 -1 p_r0_g118_h97_t21 -1 p_r0_g123_h102_t21 -1 p_r0_g144_h123_t21 -1 p_r1_g8_h154_t21 -1 p_r1_g11_h157_t21 -1 p_r1_g15_h161_t21 -1 p_r1_g38_h17_t21 -1 p_r1_g59_h38_t21 -1 p_r1_g80_h59_t21 -1 p_r1_g83_h62_t21 -1 p_r1_g96_h75_t21 -1 p_r1_g111_h90_t21 -1 p_r1_g114_h93_t21 -1 p_r1_g117_h96_t21 -1 p_r1_g128_h107_t21 -1 p_r1_g132_h111_t21 -1 p_r2_g18_h164_t21 -1 p_r2_g91_h70_t21 -1 p_r2_g95_h74_t21 -1 p_r2_g98_h77_t21 -1 p_r2_g107_h86_t21 -1 p_r2_g128_h107_t21 -1 p_r2_g149_h128_t21 -1 p_r2_g163_h142_t21 -1 p_r3_g8_h154_t21 -1 p_r3_g13_h159_t21 -1 p_r3_g16_h162_t21 -1 p_r3_g19_h165_t21 -1 p_r3_g34_h13_t21 -1 p_r3_g36_h15_t21 -1 p_r3_g57_h36_t21 -1 p_r3_g72_h51_t21 -1 p_r3_g77_h56_t21 -1 p_r3_g124_h103_t21 -1 p_r3_g144_h123_t21 -1 p_r3_g145_h124_t21 -1 p_r3_g159_h138_t21 -1 p_r3_g165_h144_t21 = -51 ;
1 d_21 -1 u_21 <= 0 ;
-1 d_21 -1 u_21 <= 0 ;
1 u_21 -1 M <= 0 ;
1 u_21 <= 2 ;
1 p_r0_g17_h162_t22 -1 x_r0_g17 <= 0 ;
1 p_r0_g17_h162_t22 -1 x_r0_g162 <= 0 ;
1 p_r0_g17_h162_t22 -1 x_r0_g17 -1 x_r0_g162 >= -1 ;
1 p_r0_g23_h1_t22 -1 x_r0_g23 <= 0 ;
1 p_r0_g23_h1_t22 -1 x_r0_g1 <= 0 ;
1 p_r0_g23_h1_t22 -1 x_r0_g23 -1 x_r0_g1 >= -1 ;
1 p_r0_g26_h4_t22 -1 x_r0_g26 <= 0 ;
1 p_r0_g26_h4_t22 -1 x_r0_g4 <= 0 ;
1 p_r0_g26_h4_t22 -1 x_r0_g26 -1 x_r0_g4 >= -1 ;
1 p_r0_g36_h14_t22 -1 x_r0_g36 <= 0 ;
1 p_r0_g36_h14_t22 -1 x_r0_g14 <= 0 ;
1 p_r0_g36_h14_t22 -1 x_r0_g36 -1 x_r0_g14 >= -1 ;
1 p_r0_g47_h25_t22 -1 x_r0_g47 <= 0 ;
1 p_r0_g47_h25_t22 -1 x_r0_g25 <= 0 ;
1 p_r0_g47_h25_t22 -1 x_r0_g47 -1 x_r0_g25 >= -1 ;
1 p_r0_g48_h26_t22 -1 x_r0_g48 <= 0 ;
1 p_r0_g48_h26_t22 -1 x_r0_g26 <= 0 ;
1 p_r0_g48_h26_t22 -1 x_r0_g48 -1 x_r0_g26 >= -1 ;
1 p_r0_g54_h32_t22 -1 x_r0_g54 <= 0 ;
1 p_r0_g54_h32_t22 -1 x_r0_g32 <= 0 ;
1 p_r0_g54_h32_t22 -1 x_r0_g54 -1 x_r0_g32 >= -1 ;
1 p_r0_g69_h47_t22 -1 x_r0_g69 <= 0 ;
1 p_r0_g69_h47_t22 -1 x_r0_g47 <= 0 ;
1 p_r0_g69_h47_t22 -1 x_r0_g69 -1 x_r0_g47 >= -1 ;
1 p_r0_g70_h48_t22 -1 x_r0_g70 <= 0 ;
1 p_r0_g70_h48_t22 -1 x_r0_g48 <= 0 ;
1 p_r0_g70_h48_t22 -1 x_r0_g70 -1 x_r0_g48 >= -1 ;
1 p_r0_g101_h79_t22 -1 x_r0_g101 <= 0 ;
1 p_r0_g101_h79_t22 -1 x_r0_g79 <= 0 ;
1 p_r0_g101_h79_t22 -1 x_r0_g101 -1 x_r0_g79 >= -1 ;
1 p_r0_g123_h101_t22 -1 x_r0_g123 <= 0 ;
1 p_r0_g123_h101_t22 -1 x_r0_g101 <= 0 ;
1 p_r0_g123_h101_t22 -1 x_r0_g123 -1 x_r0_g101 >= -1 ;
1 p_r0_g143_h121_t22 -1 x_r0_g143 <= 0 ;
1 p_r0_g143_h121_t22 -1 x_r0_g121 <= 0 ;
1 p_r0_g143_h121_t22 -1 x_r0_g143 -1 x_r0_g121 >= -1 ;
1 p_r0_g153_h131_t22 -1 x_r0_g153 <= 0 ;
1 p_r0_g153_h131_t22 -1 x_r0_g131 <= 0 ;
1 p_r0_g153_h131_t22 -1 x_r0_g153 -1 x_r0_g131 >= -1 ;
1 p_r1_g30_h8_t22 -1 x_r1_g30 <= 0 ;
1 p_r1_g30_h8_t22 -1 x_r1_g8 <= 0 ;
1 p_r1_g30_h8_t22 -1 x_r1_g30 -1 x_r1_g8 >= -1 ;
1 p_r1_g35_h13_t22 -1 x_r1_g35 <= 0 ;
1 p_r1_g35_h13_t22 -1 x_r1_g13 <= 0 ;
1 p_r1_g35_h13_t22 -1 x_r1_g35 -1 x_r1_g13 >= -1 ;
1 p_r1_g53_h31_t22 -1 x_r1_g53 <= 0 ;
1 p_r1_g53_h31_t22 -1 x_r1_g31 <= 0 ;
1 p_r1_g53_h31_t22 -1 x_r1_g53 -1 x_r1_g31 >= -1 ;
1 p_r1_g75_h53_t22 -1 x_r1_g75 <= 0 ;
1 p_r1_g75_h53_t22 -1 x_r1_g53 <= 0 ;
1 p_r1_g75_h53_t22 -1 x_r1_g75 -1 x_r1_g53 >= -1 ;
1 p_r1_g113_h91_t22 -1 x_r1_g113 <= 0 ;
1 p_r1_g113_h91_t22 -1 x_r1_g91 <= 0 ;
1 p_r1_g113_h91_t22 -1 x_r1_g113 -1 x_r1_g91 >= -1 ;
1 p_r1_g132_h110_t22 -1 x_r1_g132 <= 0 ;
1 p_r1_g132_h110_t22 -1 x_r1_g110 <= 0 ;
1 p_r1_g132_h110_t22 -1 x_r1_g132 -1 x_r1_g110 >= -1 ;
1 p_r1_g143_h121_t22 -1 x_r1_g143 <= 0 ;
1 p_r1_g143_h121_t22 -1 x_r1_g121 <= 0 ;
1 p_r1_g143_h121_t22 -1 x_r1_g143 -1 x_r1_g121 >= -1 ;
1 p_r1_g154_h132_t22 -1 x_r1_g154 <= 0 ;
1 p_r1_g154_h132_t22 -1 x_r1_g132 <= 0 ;
1 p_r1_g154_h132_t22 -1 x_r1_g154 -1 x_r1_g132 >= -1 ;
1 p_r2_g18_h163_t22 -1 x_r2_g18 <= 0 ;
1 p_r2_g18_h163_t22 -1 x_r2_g163 <= 0 ;
1 p_r2_g18_h163_t22 -1 x_r2_g18 -1 x_r2_g163 >= -1 ;
1 p_r2_g70_h48_t22 -1 x_r2_g70 <= 0 ;
1 p_r2_g70_h48_t22 -1 x_r2_g48 <= 0 ;
1 p_r2_g70_h48_t22 -1 x_r2_g70 -1 x_r2_g48 >= -1 ;
1 p_r2_g82_h60_t22 -1 x_r2_g82 <= 0 ;
1 p_r2_g82_h60_t22 -1 x_r2_g60 <= 0 ;
1 p_r2_g82_h60_t22 -1 x_r2_g82 -1 x_r2_g60 >= -1 ;
1 p_r2_g86_h64_t22 -1 x_r2_g86 <= 0 ;
1 p_r2_g86_h64_t22 -1 x_r2_g64 <= 0 ;
1 p_r2_g86_h64_t22 -1 x_r2_g86 -1 x_r2_g64 >= -1 ;
1 p_r2_g95_h73_t22 -1 x_r2_g95 <= 0 ;
1 p_r2_g95_h73_t22 -1 x_r2_g73 <= 0 ;
1 p_r2_g95_h73_t22 -1 x_r2_g95 -1 x_r2_g73 >= -1 ;
1 p_r2_g120_h98_t22 -1 x_r2_g120 <= 0 ;
1 p_r2_g120_h98_t22 -1 x_r2_g98 <= 0 ;
1 p_r2_g120_h98_t22 -1 x_r2_g120 -1 x_r2_g98 >= -1 ;
1 p_r2_g142_h120_t22 -1 x_r2_g142 <= 0 ;
1 p_r2_g142_h120_t22 -1 x_r2_g120 <= 0 ;
1 p_r2_g142_h120_t22 -1 x_r2_g142 -1 x_r2_g120 >= -1 ;
1 p_r2_g158_h136_t22 -1 x_r2_g158 <= 0 ;
1 p_r2_g158_h136_t22 -1 x_r2_g136 <= 0 ;
1 p_r2_g158_h136_t22 -1 x_r2_g158 -1 x_r2_g136 >= -1 ;
1 p_r2_g164_h142_t22 -1 x_r2_g164 <= 0 ;
1 p_r2_g164_h142_t22 -1 x_r2_g142 <= 0 ;
1 p_r2_g164_h142_t22 -1 x_r2_g164 -1 x_r2_g142 >= -1 ;
1 p_r3_g33_h11_t22 -1 x_r3_g33 <= 0 ;
1 p_r3_g33_h11_t22 -1 x_r3_g11 <= 0 ;
1 p_r3_g33_h11_t22 -1 x_r3_g33 -1 x_r3_g11 >= -1 ;
1 p_r3_g56_h34_t22 -1 x_r3_g56 <= 0 ;
1 p_r3_g56_h34_t22 -1 x_r3_g34 <= 0 ;
1 p_r3_g56_h34_t22 -1 x_r3_g56 -1 x_r3_g34 >= -1 ;
1 p_r3_g79_h57_t22 -1 x_r3_g79 <= 0 ;
1 p_r3_g79_h57_t22 -1 x_r3_g57 <= 0 ;
1 p_r3_g79_h57_t22 -1 x_r3_g79 -1 x_r3_g57 >= -1 ;
1 p_r3_g94_h72_t22 -1 x_r3_g94 <= 0 ;
1 p_r3_g94_h72_t22 -1 x_r3_g72 <= 0 ;
1 p_r3_g94_h72_t22 -1 x_r3_g94 -1 x_r3_g72 >= -1 ;
1 p_r3_g113_h91_t22 -1 x_r3_g113 <= 0 ;
1 p_r3_g113_h91_t22 -1 x_r3_g91 <= 0 ;
1 p_r3_g113_h91_t22 -1 x_r3_g113 -1 x_r3_g91 >= -1 ;
1 p_r3_g125_h103_t22 -1 x_r3_g125 <= 0 ;
1 p_r3_g125_h103_t22 -1 x_r3_g103 <= 0 ;
1 p_r3_g125_h103_t22 -1 x_r3_g125 -1 x_r3_g103 >= -1 ;
1 p_r3_g128_h106_t22 -1 x_r3_g128 <= 0 ;
1 p_r3_g128_h106_t22 -1 x_r3_g106 <= 0 ;
1 p_r3_g128_h106_t22 -1 x_r3_g128 -1 x_r3_g106 >= -1 ;
1 p_r3_g145_h123_t22 -1 x_r3_g145 <= 0 ;
1 p_r3_g145_h123_t22 -1 x_r3_g123 <= 0 ;
1 p_r3_g145_h123_t22 -1 x_r3_g145 -1 x_r3_g123 >= -1 ;
1 p_r3_g147_h125_t22 -1 x_r3_g147 <= 0 ;
1 p_r3_g147_h125_t22 -1 x_r3_g125 <= 0 ;
1 p_r3_g147_h125_t22 -1 x_r3_g147 -1 x_r3_g125 >= -1 ;
1 d_22 -1 x_r0_g1 -1 x_r0_g4 -1 x_r0_g7 -1 x_r0_g14 -2 x_r0_g20 -1 x_r0_g23 -1 x_r0_g25 -1 x_r0_g28 -1 x_r0_g34 -1 x_r0_g35 -1 x_r0_g36 -2 x_r0_g37 -1 x_r0_g60 -1 x_r0_g67 -1 x_r0_g68 -2 x_r0_g84 -1 x_r0_g87 -1 x_r0_g97 -1 x_r0_g130 -1 x_r0_g143 -1 x_r0_g144 -1 x_r1_g11 -2 x_r1_g15 -1 x_r1_g17 -1 x_r1_g25 -1 x_r1_g35 -1 x_r1_g38 -2 x_r1_g59 -2 x_r1_g62 -1 x_r1_g64 -1 x_r1_g67 -1 x_r1_g76 -2 x_r1_g90 -1 x_r1_g91 -1 x_r1_g93 -1 x_r1_g108 -1 x_r1_g110 -1 x_r1_g111 -1 x_r1_g117 -2 x_r1_g146 -1 x_r1_g155 -1 x_r1_g161 -1 x_r2_g29 -1 x_r2_g34 -1 x_r2_g48 -2 x_r2_g80 -1 x_r2_g82 -1 x_r2_g91 -2 x_r2_g100 -2 x_r2_g107 -1 x_r2_g110 -1 x_r2_g128 -2 x_r2_g135 -1 x_r2_g136 -1 x_r2_g139 -1 x_r2_g149 -2 x_r2_g152 -2 x_r2_g159 -1 x_r2_g162 -1 x_r2_g165 -1 x_r3_g3 -1 x_r3_g8 -2 x_r3_g15 -1 x_r3_g16 -2 x_r3_g18 -1 x_r3_g19 -2 x_r3_g27 -1 x_r3_g33 -1 x_r3_g34 -1 x_r3_g53 -1 x_r3_g56 -1 x_r3_g65 -2 x_r3_g77 -1 x_r3_g103 -1 x_r3_g111 -2 x_r3_g121 -1 x_r3_g138 -2 x_r3_g144 -1 x_r3_g147 -2 x_r3_g154 -1 x_r3_g159 -2 x_r3_g162 -2 x_r3_g165 -1 p_r0_g17_h162_t22 -1 p_r0_g23_h1_t22 -1 p_r0_g26_h4_t22 -1 p_r0_g36_h14_t22 -1 p_r0_g47_h25_t22 -1 p_r0_g48_h26_t22 -1 p_r0_g54_h32_t22 -1 p_r0_g69_h47_t22 -1 p_r0_g70_h48_t22 -1 p_r0_g101_h79_t22 -1 p_r0_g123_h101_t22 -1 p_r0_g143_h121_t22 -1 p_r0_g153_h131_t22 -1 p_r1_g30_h8_t22 -1 p_r1_g35_h13_t22 -1 p_r1_g53_h31_t22 -1 p_r1_g75_h53_t22 -1 p_r1_g113_h91_t22 -1 p_r1_g132_h110_t22 -1 p_r1_g143_h121_t22 -1 p_r1_g154_h132_t22 -1 p_r2_g18_h163_t22 -1 p_r2_g70_h48_t22 -1 p_r2_g82_h60_t22 -1 p_r2_g86_h64_t22 -1 p_r2_g95_h73_t22 -1 p_r2_g120_h98_t22 -1 p_r2_g142_h120_t22 -1 p_r2_g158_h136_t22 -1 p_r2_g164_h142_t22 -1 p_r3_g33_h11_t22 -1 p_r3_g56_h34_t22 -1 p_r3_g79_h57_t22 -1 p_r3_g94_h72_t22 -1 p_r3_g113_h91_t22 -1 p_r3_g125_h103_t22 -1 p_r3_g128_h106_t22 -1 p_r3_g145_h123_t22 -1 p_r3_g147_h125_t22 = -70 ;
1 d_22 -1 u_22 <= 0 ;
-1 d_22 -1 u_22 <= 0 ;
1 u_22 -1 M <= 0 ;
1 u_22 <= 1 ;
1 p_r0_g9_h153_t23 -1 x_r0_g9 <= 0 ;
1 p_r0_g9_h153_t23 -1 x_r0_g153 <= 0 ;
1 p_r0_g9_h153_t23 -1 x_r0_g9 -1 x_r0_g153 >= -1 ;
1 p_r0_g32_h9_t23 -1 x_r0_g32 <= 0 ;
1 p_r0_g32_h9_t23 -1 x_r0_g9 <= 0 ;
1 p_r0_g32_h9_t23 -1 x_r0_g32 -1 x_r0_g9 >= -1 ;
1 p_r0_g37_h14_t23 -1 x_r0_g37 <= 0 ;
1 p_r0_g37_h14_t23 -1 x_r0_g14 <= 0 ;
1 p_r0_g37_h14_t23 -1 x_r0_g37 -1 x_r0_g14 >= -1 ;
1 p_r0_g48_h25_t23 -1 x_r0_g48 <= 0 ;
1 p_r0_g48_h25_t23 -1 x_r0_g25 <= 0 ;
1 p_r0_g48_h25_t23 -1 x_r0_g48 -1 x_r0_g25 >= -1 ;
1 p_r0_g60_h37_t23 -1 x_r0_g60 <= 0 ;
1 p_r0_g60_h37_t23 -1 x_r0_g37 <= 0 ;
1 p_r0_g60_h37_t23 -1 x_r0_g60 -1 x_r0_g37 >= -1 ;
1 p_r0_g70_h47_t23 -1 x_r0_g70 <= 0 ;
1 p_r0_g70_h47_t23 -1 x_r0_g47 <= 0 ;
1 p_r0_g70_h47_t23 -1 x_r0_g70 -1 x_r0_g47 >= -1 ;
1 p_r0_g102_h79_t23 -1 x_r0_g102 <= 0 ;
1 p_r0_g102_h79_t23 -1 x_r0_g79 <= 0 ;
1 p_r0_g102_h79_t23 -1 x_r0_g102 -1 x_r0_g79 >= -1 ;
1 p_r0_g144_h121_t23 -1 x_r0_g144 <= 0 ;
1 p_r0_g144_h121_t23 -1 x_r0_g121 <= 0 ;
1 p_r0_g144_h121_t23 -1 x_r0_g144 -1 x_r0_g121 >= -1 ;
1 p_r0_g153_h130_t23 -1 x_r0_g153 <= 0 ;
1 p_r0_g153_h130_t23 -1 x_r0_g130 <= 0 ;
1 p_r0_g153_h130_t23 -1 x_r0_g153 -1 x_r0_g130 >= -1 ;
1 p_r1_g11_h155_t23 -1 x_r1_g11 <= 0 ;
1 p_r1_g11_h155_t23 -1 x_r1_g155 <= 0 ;
1 p_r1_g11_h155_t23 -1 x_r1_g11 -1 x_r1_g155 >= -1 ;
1 p_r1_g13_h157_t23 -1 x_r1_g13 <= 0 ;
1 p_r1_g13_h157_t23 -1 x_r1_g157 <= 0 ;
1 p_r1_g13_h157_t23 -1 x_r1_g13 -1 x_r1_g157 >= -1 ;
1 p_r1_g17_h161_t23 -1 x_r1_g17 <= 0 ;
1 p_r1_g17_h161_t23 -1 x_r1_g161 <= 0 ;
1 p_r1_g17_h161_t23 -1 x_r1_g17 -1 x_r1_g161 >= -1 ;
1 p_r1_g31_h8_t23 -1 x_r1_g31 <= 0 ;
1 p_r1_g31_h8_t23 -1 x_r1_g8 <= 0 ;
1 p_r1_g31_h8_t23 -1 x_r1_g31 -1 x_r1_g8 >= -1 ;
1 p_r1_g38_h15_t23 -1 x_r1_g38 <= 0 ;
1 p_r1_g38_h15_t23 -1 x_r1_g15 <= 0 ;
1 p_r1_g38_h15_t23 -1 x_r1_g38 -1 x_r1_g15 >= -1 ;
1 p_r1_g53_h30_t23 -1 x_r1_g53 <= 0 ;
1 p_r1_g53_h30_t23 -1 x_r1_g30 <= 0 ;
1 p_r1_g53_h30_t23 -1 x_r1_g53 -1 x_r1_g30 >= -1 ;
1 p_r1_g76_h53_t23 -1 x_r1_g76 <= 0 ;
1 p_r1_g76_h53_t23 -1 x_r1_g53 <= 0 ;
1 p_r1_g76_h53_t23 -1 x_r1_g76 -1 x_r1_g53 >= -1 ;
1 p_r1_g90_h67_t23 -1 x_r1_g90 <= 0 ;
1 p_r1_g90_h67_t23 -1 x_r1_g67 <= 0 ;
1 p_r1_g90_h67_t23 -1 x_r1_g90 -1 x_r1_g67 >= -1 ;
1 p_r1_g113_h90_t23 -1 x_r1_g113 <= 0 ;
1 p_r1_g113_h90_t23 -1 x_r1_g90 <= 0 ;
1 p_r1_g113_h90_t23 -1 x_r1_g113 -1 x_r1_g90 >= -1 ;
1 p_r1_g114_h91_t23 -1 x_r1_g114 <= 0 ;
1 p_r1_g114_h91_t23 -1 x_r1_g91 <= 0 ;
1 p_r1_g114_h91_t23 -1 x_r1_g114 -1 x_r1_g91 >= -1 ;
1 p_r1_g155_h132_t23 -1 x_r1_g155 <= 0 ;
1 p_r1_g155_h132_t23 -1 x_r1_g132 <= 0 ;
1 p_r1_g155_h132_t23 -1 x_r1_g155 -1 x_r1_g132 >= -1 ;
1 p_r2_g18_h162_t23 -1 x_r2_g18 <= 0 ;
1 p_r2_g18_h162_t23 -1 x_r2_g162 <= 0 ;
1 p_r2_g18_h162_t23 -1 x_r2_g18 -1 x_r2_g162 >= -1 ;
1 p_r2_g100_h77_t23 -1 x_r2_g100 <= 0 ;
1 p_r2_g100_h77_t23 -1 x_r2_g77 <= 0 ;
1 p_r2_g100_h77_t23 -1 x_r2_g100 -1 x_r2_g77 >= -1 ;
1 p_r2_g158_h135_t23 -1 x_r2_g158 <= 0 ;
1 p_r2_g158_h135_t23 -1 x_r2_g135 <= 0 ;
1 p_r2_g158_h135_t23 -1 x_r2_g158 -1 x_r2_g135 >= -1 ;
1 p_r2_g159_h136_t23 -1 x_r2_g159 <= 0 ;
1 p_r2_g159_h136_t23 -1 x_r2_g136 <= 0 ;
1 p_r2_g159_h136_t23 -1 x_r2_g159 -1 x_r2_g136 >= -1 ;
1 p_r2_g162_h139_t23 -1 x_r2_g162 <= 0 ;
1 p_r2_g162_h139_t23 -1 x_r2_g139 <= 0 ;
1 p_r2_g162_h139_t23 -1 x_r2_g162 -1 x_r2_g139 >= -1 ;
1 p_r2_g165_h142_t23 -1 x_r2_g165 <= 0 ;
1 p_r2_g165_h142_t23 -1 x_r2_g142 <= 0 ;
1 p_r2_g165_h142_t23 -1 x_r2_g165 -1 x_r2_g142 >= -1 ;
1 p_r3_g3_h147_t23 -1 x_r3_g3 <= 0 ;
1 p_r3_g3_h147_t23 -1 x_r3_g147 <= 0 ;
1 p_r3_g3_h147_t23 -1 x_r3_g3 -1 x_r3_g147 >= -1 ;
1 p_r3_g15_h159_t23 -1 x_r3_g15 <= 0 ;
1 p_r3_g15_h159_t23 -1 x_r3_g159 <= 0 ;
1 p_r3_g15_h159_t23 -1 x_r3_g15 -1 x_r3_g159 >= -1 ;
1 p_r3_g18_h162_t23 -1 x_r3_g18 <= 0 ;
1 p_r3_g18_h162_t23 -1 x_r3_g162 <= 0 ;
1 p_r3_g18_h162_t23 -1 x_r3_g18 -1 x_r3_g162 >= -1 ;
1 p_r3_g34_h11_t23 -1 x_r3_g34 <= 0 ;
1 p_r3_g34_h11_t23 -1 x_r3_g11 <= 0 ;
1 p_r3_g34_h11_t23 -1 x_r3_g34 -1 x_r3_g11 >= -1 ;
1 p_r3_g36_h13_t23 -1 x_r3_g36 <= 0 ;
1 p_r3_g36_h13_t23 -1 x_r3_g13 <= 0 ;
1 p_r3_g36_h13_t23 -1 x_r3_g36 -1 x_r3_g13 >= -1 ;
1 p_r3_g56_h33_t23 -1 x_r3_g56 <= 0 ;
1 p_r3_g56_h33_t23 -1 x_r3_g33 <= 0 ;
1 p_r3_g56_h33_t23 -1 x_r3_g56 -1 x_r3_g33 >= -1 ;
1 p_r3_g57_h34_t23 -1 x_r3_g57 <= 0 ;
1 p_r3_g57_h34_t23 -1 x_r3_g34 <= 0 ;
1 p_r3_g57_h34_t23 -1 x_r3_g57 -1 x_r3_g34 >= -1 ;
1 p_r3_g79_h56_t23 -1 x_r3_g79 <= 0 ;
1 p_r3_g79_h56_t23 -1 x_r3_g56 <= 0 ;
1 p_r3_g79_h56_t23 -1 x_r3_g79 -1 x_r3_g56 >= -1 ;
1 p_r3_g144_h121_t23 -1 x_r3_g144 <= 0 ;
1 p_r3_g144_h121_t23 -1 x_r3_g121 <= 0 ;
1 p_r3_g144_h121_t23 -1 x_r3_g144 -1 x_r3_g121 >= -1 ;
1 p_r3_g147_h124_t23 -1 x_r3_g147 <= 0 ;
1 p_r3_g147_h124_t23 -1 x_r3_g124 <= 0 ;
1 p_r3_g147_h124_t23 -1 x_r3_g147 -1 x_r3_g124 >= -1 ;
1 d_23 -2 x_r0_g7 -1 x_r0_g14 -1 x_r0_g17 -1 x_r0_g20 -1 x_r0_g22 -2 x_r0_g26 -2 x_r0_g28 -1 x_r0_g32 -1 x_r0_g34 -2 x_r0_g35 -2 x_r0_g36 -1 x_r0_g54 -1 x_r0_g67 -1 x_r0_g68 -2 x_r0_g97 -1 x_r0_g102 -1 x_r0_g121 -2 x_r0_g123 -1 x_r0_g143 -1 x_r0_g162 -1 x_r1_g13 -1 x_r1_g15 -1 x_r1_g17 -2 x_r1_g59 -1 x_r1_g62 -1 x_r1_g64 -1 x_r1_g67 -1 x_r1_g75 -2 x_r1_g80 -1 x_r1_g91 -2 x_r1_g93 -1 x_r1_g96 -2 x_r1_g107 -1 x_r1_g110 -1 x_r1_g111 -1 x_r1_g117 -1 x_r1_g121 -1 x_r1_g126 -1 x_r1_g132 -1 x_r1_g143 -1 x_r1_g146 -1 x_r1_g154 -1 x_r1_g161 -2 x_r2_g2 -1 x_r2_g18 -1 x_r2_g30 -1 x_r2_g48 -1 x_r2_g60 -2 x_r2_g62 -2 x_r2_g64 -1 x_r2_g66 -1 x_r2_g67 -1 x_r2_g70 -1 x_r2_g82 -1 x_r2_g86 -2 x_r2_g91 -2 x_r2_g98 -1 x_r2_g107 -1 x_r2_g110 -1 x_r2_g111 -2 x_r2_g128 -1 x_r2_g135 -1 x_r2_g136 -1 x_r2_g139 -1 x_r2_g142 -1 x_r2_g149 -1 x_r2_g152 -1 x_r2_g155 -1 x_r2_g158 -1 x_r2_g163 -1 x_r2_g164 -1 x_r2_g165 -1 x_r3_g3 -2 x_r3_g7 -1 x_r3_g15 -2 x_r3_g16 -1 x_r3_g18 -1 x_r3_g19 -1 x_r3_g27 -1 x_r3_g36 -2 x_r3_g51 -2 x_r3_g53 -1 x_r3_g57 -1 x_r3_g72 -1 x_r3_g91 -1 x_r3_g103 -2 x_r3_g106 -1 x_r3_g111 -1 x_r3_g121 -1 x_r3_g125 -1 x_r3_g128 -2 x_r3_g145 -1 x_r3_g162 -1 x_r3_g165 -1 p_r0_g9_h153_t23 -1 p_r0_g32_h9_t23 -1 p_r0_g37_h14_t23 -1 p_r0_g48_h25_t23 -1 p_r0_g60_h37_t23 -1 p_r0_g70_h47_t23 -1 p_r0_g102_h79_t23 -1 p_r0_g144_h121_t23 -1 p_r0_g153_h130_t23 -1 p_r1_g11_h155_t23 -1 p_r1_g13_h157_t23 -1 p_r1_g17_h161_t23 -1 p_r1_g31_h8_t23 -1 p_r1_g38_h15_t23 -1 p_r1_g53_h30_t23 -1 p_r1_g76_h53_t23 -1 p_r1_g90_h67_t23 -1 p_r1_g113_h90_t23 -1 p_r1_g114_h91_t23 -1 p_r1_g155_h132_t23 -1 p_r2_g18_h162_t23 -1 p_r2_g100_h77_t23 -1 p_r2_g158_h135_t23 -1 p_r2_g159_h136_t23 -1 p_r2_g162_h139_t23 -1 p_r2_g165_h142_t23 -1 p_r3_g3_h147_t23 -1 p_r3_g15_h159_t23 -1 p_r3_g18_h162_t23 -1 p_r3_g34_h11_t23 -1 p_r3_g36_h13_t23 -1 p_r3_g56_h33_t23 -1 p_r3_g57_h34_t23 -1 p_r3_g79_h56_t23 -1 p_r3_g144_h121_t23 -1 p_r3_g147_h124_t23 = -70 ;
1 d_23 -1 u_23 <= 0 ;
-1 d_23 -1 u_23 <= 0 ;
1 u_23 -1 M <= 0 ;
1 u_23 <= 1 ;
1 p_r0_g35_h9_t26 -1 x_r0_g35 <= 0 ;
1 p_r0_g35_h9_t26 -1 x_r0_g9 <= 0 ;
1 p_r0_g35_h9_t26 -1 x_r0_g35 -1 x_r0_g9 >= -1 ;
1 p_r0_g48_h22_t26 -1 x_r0_g48 <= 0 ;
1 p_r0_g48_h22_t26 -1 x_r0_g22 <= 0 ;
1 p_r0_g48_h22_t26 -1 x_r0_g48 -1 x_r0_g22 >= -1 ;
1 p_r0_g54_h28_t26 -1 x_r0_g54 <= 0 ;
1 p_r0_g54_h28_t26 -1 x_r0_g28 <= 0 ;
1 p_r0_g54_h28_t26 -1 x_r0_g54 -1 x_r0_g28 >= -1 ;
1 p_r0_g60_h34_t26 -1 x_r0_g60 <= 0 ;
1 p_r0_g60_h34_t26 -1 x_r0_g34 <= 0 ;
1 p_r0_g60_h34_t26 -1 x_r0_g60 -1 x_r0_g34 >= -1 ;
1 p_r0_g123_h97_t26 -1 x_r0_g123 <= 0 ;
1 p_r0_g123_h97_t26 -1 x_r0_g97 <= 0 ;
1 p_r0_g123_h97_t26 -1 x_r0_g123 -1 x_r0_g97 >= -1 ;
1 p_r0_g144_h118_t26 -1 x_r0_g144 <= 0 ;
1 p_r0_g144_h118_t26 -1 x_r0_g118 <= 0 ;
1 p_r0_g144_h118_t26 -1 x_r0_g144 -1 x_r0_g118 >= -1 ;
1 p_r1_g13_h154_t26 -1 x_r1_g13 <= 0 ;
1 p_r1_g13_h154_t26 -1 x_r1_g154 <= 0 ;
1 p_r1_g13_h154_t26 -1 x_r1_g13 -1 x_r1_g154 >= -1 ;
1 p_r1_g64_h38_t26 -1 x_r1_g64 <= 0 ;
1 p_r1_g64_h38_t26 -1 x_r1_g38 <= 0 ;
1 p_r1_g64_h38_t26 -1 x_r1_g64 -1 x_r1_g38 >= -1 ;
1 p_r1_g90_h64_t26 -1 x_r1_g90 <= 0 ;
1 p_r1_g90_h64_t26 -1 x_r1_g64 <= 0 ;
1 p_r1_g90_h64_t26 -1 x_r1_g90 -1 x_r1_g64 >= -1 ;
1 p_r1_g93_h67_t26 -1 x_r1_g93 <= 0 ;
1 p_r1_g93_h67_t26 -1 x_r1_g67 <= 0 ;
1 p_r1_g93_h67_t26 -1 x_r1_g93 -1 x_r1_g67 >= -1 ;
1 p_r1_g117_h91_t26 -1 x_r1_g117 <= 0 ;
1 p_r1_g117_h91_t26 -1 x_r1_g91 <= 0 ;
1 p_r1_g117_h91_t26 -1 x_r1_g117 -1 x_r1_g91 >= -1 ;
1 p_r1_g143_h117_t26 -1 x_r1_g143 <= 0 ;
1 p_r1_g143_h117_t26 -1 x_r1_g117 <= 0 ;
1 p_r1_g143_h117_t26 -1 x_r1_g143 -1 x_r1_g117 >= -1 ;
1 p_r1_g154_h128_t26 -1 x_r1_g154 <= 0 ;
1 p_r1_g154_h128_t26 -1 x_r1_g128 <= 0 ;
1 p_r1_g154_h128_t26 -1 x_r1_g154 -1 x_r1_g128 >= -1 ;
1 p_r2_g18_h159_t26 -1 x_r2_g18 <= 0 ;
1 p_r2_g18_h159_t26 -1 x_r2_g159 <= 0 ;
1 p_r2_g18_h159_t26 -1 x_r2_g18 -1 x_r2_g159 >= -1 ;
1 p_r2_g60_h34_t26 -1 x_r2_g60 <= 0 ;
1 p_r2_g60_h34_t26 -1 x_r2_g34 <= 0 ;
1 p_r2_g60_h34_t26 -1 x_r2_g60 -1 x_r2_g34 >= -1 ;
1 p_r2_g74_h48_t26 -1 x_r2_g74 <= 0 ;
1 p_r2_g74_h48_t26 -1 x_r2_g48 <= 0 ;
1 p_r2_g74_h48_t26 -1 x_r2_g74 -1 x_r2_g48 >= -1 ;
1 p_r2_g86_h60_t26 -1 x_r2_g86 <= 0 ;
1 p_r2_g86_h60_t26 -1 x_r2_g60 <= 0 ;
1 p_r2_g86_h60_t26 -1 x_r2_g86 -1 x_r2_g60 >= -1 ;
1 p_r2_g100_h74_t26 -1 x_r2_g100 <= 0 ;
1 p_r2_g100_h74_t26 -1 x_r2_g74 <= 0 ;
1 p_r2_g100_h74_t26 -1 x_r2_g100 -1 x_r2_g74 >= -1 ;
1 p_r2_g136_h110_t26 -1 x_r2_g136 <= 0 ;
1 p_r2_g136_h110_t26 -1 x_r2_g110 <= 0 ;
1 p_r2_g136_h110_t26 -1 x_r2_g136 -1 x_r2_g110 >= -1 ;
1 p_r2_g162_h136_t26 -1 x_r2_g162 <= 0 ;
1 p_r2_g162_h136_t26 -1 x_r2_g136 <= 0 ;
1 p_r2_g162_h136_t26 -1 x_r2_g162 -1 x_r2_g136 >= -1 ;
1 p_r2_g165_h139_t26 -1 x_r2_g165 <= 0 ;
1 p_r2_g165_h139_t26 -1 x_r2_g139 <= 0 ;
1 p_r2_g165_h139_t26 -1 x_r2_g165 -1 x_r2_g139 >= -1 ;
1 p_r3_g3_h144_t26 -1 x_r3_g3 <= 0 ;
1 p_r3_g3_h144_t26 -1 x_r3_g144 <= 0 ;
1 p_r3_g3_h144_t26 -1 x_r3_g3 -1 x_r3_g144 >= -1 ;
1 p_r3_g13_h154_t26 -1 x_r3_g13 <= 0 ;
1 p_r3_g13_h154_t26 -1 x_r3_g154 <= 0 ;
1 p_r3_g13_h154_t26 -1 x_r3_g13 -1 x_r3_g154 >= -1 ;
1 p_r3_g18_h159_t26 -1 x_r3_g18 <= 0 ;
1 p_r3_g18_h159_t26 -1 x_r3_g159 <= 0 ;
1 p_r3_g18_h159_t26 -1 x_r3_g18 -1 x_r3_g159 >= -1 ;
1 p_r3_g33_h7_t26 -1 x_r3_g33 <= 0 ;
1 p_r3_g33_h7_t26 -1 x_r3_g7 <= 0 ;
1 p_r3_g33_h7_t26 -1 x_r3_g33 -1 x_r3_g7 >= -1 ;
1 p_r3_g34_h8_t26 -1 x_r3_g34 <= 0 ;
1 p_r3_g34_h8_t26 -1 x_r3_g8 <= 0 ;
1 p_r3_g34_h8_t26 -1 x_r3_g34 -1 x_r3_g8 >= -1 ;
1 p_r3_g53_h27_t26 -1 x_r3_g53 <= 0 ;
1 p_r3_g53_h27_t26 -1 x_r3_g27 <= 0 ;
1 p_r3_g53_h27_t26 -1 x_r3_g53 -1 x_r3_g27 >= -1 ;
1 p_r3_g77_h51_t26 -1 x_r3_g77 <= 0 ;
1 p_r3_g77_h51_t26 -1 x_r3_g51 <= 0 ;
1 p_r3_g77_h51_t26 -1 x_r3_g77 -1 x_r3_g51 >= -1 ;
1 p_r3_g79_h53_t26 -1 x_r3_g79 <= 0 ;
1 p_r3_g79_h53_t26 -1 x_r3_g53 <= 0 ;
1 p_r3_g79_h53_t26 -1 x_r3_g79 -1 x_r3_g53 >= -1 ;
1 p_r3_g91_h65_t26 -1 x_r3_g91 <= 0 ;
1 p_r3_g91_h65_t26 -1 x_r3_g65 <= 0 ;
1 p_r3_g91_h65_t26 -1 x_r3_g91 -1 x_r3_g65 >= -1 ;
1 p_r3_g103_h77_t26 -1 x_r3_g103 <= 0 ;
1 p_r3_g103_h77_t26 -1 x_r3_g77 <= 0 ;
1 p_r3_g103_h77_t26 -1 x_r3_g103 -1 x_r3_g77 >= -1 ;
1 p_r3_g147_h121_t26 -1 x_r3_g147 <= 0 ;
1 p_r3_g147_h121_t26 -1 x_r3_g121 <= 0 ;
1 p_r3_g147_h121_t26 -1 x_r3_g147 -1 x_r3_g121 >= -1 ;
1 p_r3_g154_h128_t26 -1 x_r3_g154 <= 0 ;
1 p_r3_g154_h128_t26 -1 x_r3_g128 <= 0 ;
1 p_r3_g154_h128_t26 -1 x_r3_g154 -1 x_r3_g128 >= -1 ;
1 d_26 -1 x_r0_g1 -1 x_r0_g4 -2 x_r0_g14 -2 x_r0_g17 -1 x_r0_g22 -1 x_r0_g23 -1 x_r0_g25 -1 x_r0_g26 -2 x_r0_g32 -1 x_r0_g36 -2 x_r0_g37 -1 x_r0_g48 -1 x_r0_g68 -1 x_r0_g69 -1 x_r0_g84 -1 x_r0_g87 -1 x_r0_g101 -1 x_r0_g123 -1 x_r0_g131 -1 x_r0_g144 -2 x_r0_g153 -1 x_r0_g162 -1 x_r1_g11 -1 x_r1_g13 -1 x_r1_g15 -1 x_r1_g25 -1 x_r1_g30 -1 x_r1_g31 -2 x_r1_g53 -2 x_r1_g62 -1 x_r1_g75 -2 x_r1_g83 -1 x_r1_g90 -1 x_r1_g91 -1 x_r1_g93 -1 x_r1_g96 -1 x_r1_g107 -1 x_r1_g108 -1 x_r1_g110 -1 x_r1_g113 -2 x_r1_g114 -1 x_r1_g121 -1 x_r1_g126 -1 x_r1_g157 -1 x_r1_g161 -1 x_r2_g2 -2 x_r2_g30 -1 x_r2_g64 -2 x_r2_g67 -1 x_r2_g82 -1 x_r2_g86 -1 x_r2_g91 -1 x_r2_g95 -1 x_r2_g100 -2 x_r2_g111 -2 x_r2_g120 -1 x_r2_g128 -1 x_r2_g135 -1 x_r2_g139 -2 x_r2_g142 -1 x_r2_g152 -2 x_r2_g155 -1 x_r2_g158 -1 x_r2_g162 -1 x_r2_g163 -1 x_r3_g7 -1 x_r3_g8 -1 x_r3_g11 -1 x_r3_g13 -1 x_r3_g15 -2 x_r3_g19 -1 x_r3_g27 -1 x_r3_g33 -1 x_r3_g36 -1 x_r3_g56 -1 x_r3_g57 -1 x_r3_g65 -2 x_r3_g72 -1 x_r3_g94 -1 x_r3_g103 -2 x_r3_g106 -1 x_r3_g111 -1 x_r3_g113 -1 x_r3_g123 -1 x_r3_g124 -2 x_r3_g125 -1 x_r3_g138 -1 x_r3_g144 -2 x_r3_g145 -1 x_r3_g147 -1 x_r3_g165 -1 p_r0_g35_h9_t26 -1 p_r0_g48_h22_t26 -1 p_r0_g54_h28_t26 -1 p_r0_g60_h34_t26 -1 p_r0_g123_h97_t26 -1 p_r0_g144_h118_t26 -1 p_r1_g13_h154_t26 -1 p_r1_g64_h38_t26 -1 p_r1_g90_h64_t26 -1 p_r1_g93_h67_t26 -1 p_r1_g117_h91_t26 -1 p_r1_g143_h117_t26 -1 p_r1_g154_h128_t26 -1 p_r2_g18_h159_t26 -1 p_r2_g60_h34_t26 -1 p_r2_g74_h48_t26 -1 p_r2_g86_h60_t26 -1 p_r2_g100_h74_t26 -1 p_r2_g136_h110_t26 -1 p_r2_g162_h136_t26 -1 p_r2_g165_h139_t26 -1 p_r3_g3_h144_t26 -1 p_r3_g13_h154_t26 -1 p_r3_g18_h159_t26 -1 p_r3_g33_h7_t26 -1 p_r3_g34_h8_t26 -1 p_r3_g53_h27_t26 -1 p_r3_g77_h51_t26 -1 p_r3_g79_h53_t26 -1 p_r3_g91_h65_t26 -1 p_r3_g103_h77_t26 -1 p_r3_g147_h121_t26 -1 p_r3_g154_h128_t26 = -67 ;
1 d_26 -1 u_26 <= 0 ;
-1 d_26 -1 u_26 <= 0 ;
1 u_26 -1 M <= 0 ;
1 u_26 <= 1 ;
1 p_r0_g36_h7_t29 -1 x_r0_g36 <= 0 ;
1 p_r0_g36_h7_t29 -1 x_r0_g7 <= 0 ;
1 p_r0_g36_h7_t29 -1 x_r0_g36 -1 x_r0_g7 >= -1 ;
1 p_r0_g54_h25_t29 -1 x_r0_g54 <= 0 ;
1 p_r0_g54_h25_t29 -1 x_r0_g25 <= 0 ;
1 p_r0_g54_h25_t29 -1 x_r0_g54 -1 x_r0_g25 >= -1 ;
1 p_r0_g97_h68_t29 -1 x_r0_g97 <= 0 ;
1 p_r0_g97_h68_t29 -1 x_r0_g68 <= 0 ;
1 p_r0_g97_h68_t29 -1 x_r0_g97 -1 x_r0_g68 >= -1 ;
1 p_r0_g130_h101_t29 -1 x_r0_g130 <= 0 ;
1 p_r0_g130_h101_t29 -1 x_r0_g101 <= 0 ;
1 p_r0_g130_h101_t29 -1 x_r0_g130 -1 x_r0_g101 >= -1 ;
1 p_r0_g131_h102_t29 -1 x_r0_g131 <= 0 ;
1 p_r0_g131_h102_t29 -1 x_r0_g102 <= 0 ;
1 p_r0_g131_h102_t29 -1 x_r0_g131 -1 x_r0_g102 >= -1 ;
1 p_r1_g8_h146_t29 -1 x_r1_g8 <= 0 ;
1 p_r1_g8_h146_t29 -1 x_r1_g146 <= 0 ;
1 p_r1_g8_h146_t29 -1 x_r1_g8 -1 x_r1_g146 >= -1 ;
1 p_r1_g17_h155_t29 -1 x_r1_g17 <= 0 ;
1 p_r1_g17_h155_t29 -1 x_r1_g155 <= 0 ;
1 p_r1_g17_h155_t29 -1 x_r1_g17 -1 x_r1_g155 >= -1 ;
1 p_r1_g59_h30_t29 -1 x_r1_g59 <= 0 ;
1 p_r1_g59_h30_t29 -1 x_r1_g30 <= 0 ;
1 p_r1_g59_h30_t29 -1 x_r1_g59 -1 x_r1_g30 >= -1 ;
1 p_r1_g64_h35_t29 -1 x_r1_g64 <= 0 ;
1 p_r1_g64_h35_t29 -1 x_r1_g35 <= 0 ;
1 p_r1_g64_h35_t29 -1 x_r1_g64 -1 x_r1_g35 >= -1 ;
1 p_r1_g67_h38_t29 -1 x_r1_g67 <= 0 ;
1 p_r1_g67_h38_t29 -1 x_r1_g38 <= 0 ;
1 p_r1_g67_h38_t29 -1 x_r1_g67 -1 x_r1_g38 >= -1 ;
1 p_r1_g91_h62_t29 -1 x_r1_g91 <= 0 ;
1 p_r1_g91_h62_t29 -1 x_r1_g62 <= 0 ;
1 p_r1_g91_h62_t29 -1 x_r1_g91 -1 x_r1_g62 >= -1 ;
1 p_r1_g93_h64_t29 -1 x_r1_g93 <= 0 ;
1 p_r1_g93_h64_t29 -1 x_r1_g64 <= 0 ;
1 p_r1_g93_h64_t29 -1 x_r1_g93 -1 x_r1_g64 >= -1 ;
1 p_r1_g96_h67_t29 -1 x_r1_g96 <= 0 ;
1 p_r1_g96_h67_t29 -1 x_r1_g67 <= 0 ;
1 p_r1_g96_h67_t29 -1 x_r1_g96 -1 x_r1_g67 >= -1 ;
1 p_r1_g143_h114_t29 -1 x_r1_g143 <= 0 ;
1 p_r1_g143_h114_t29 -1 x_r1_g114 <= 0 ;
1 p_r1_g143_h114_t29 -1 x_r1_g143 -1 x_r1_g114 >= -1 ;
1 p_r1_g146_h117_t29 -1 x_r1_g146 <= 0 ;
1 p_r1_g146_h117_t29 -1 x_r1_g117 <= 0 ;
1 p_r1_g146_h117_t29 -1 x_r1_g146 -1 x_r1_g117 >= -1 ;
1 p_r1_g155_h126_t29 -1 x_r1_g155 <= 0 ;
1 p_r1_g155_h126_t29 -1 x_r1_g126 <= 0 ;
1 p_r1_g155_h126_t29 -1 x_r1_g155 -1 x_r1_g126 >= -1 ;
1 p_r1_g157_h128_t29 -1 x_r1_g157 <= 0 ;
1 p_r1_g157_h128_t29 -1 x_r1_g128 <= 0 ;
1 p_r1_g157_h128_t29 -1 x_r1_g157 -1 x_r1_g128 >= -1 ;
1 p_r1_g161_h132_t29 -1 x_r1_g161 <= 0 ;
1 p_r1_g161_h132_t29 -1 x_r1_g132 <= 0 ;
1 p_r1_g161_h132_t29 -1 x_r1_g161 -1 x_r1_g132 >= -1 ;
1 p_r2_g77_h48_t29 -1 x_r2_g77 <= 0 ;
1 p_r2_g77_h48_t29 -1 x_r2_g48 <= 0 ;
1 p_r2_g77_h48_t29 -1 x_r2_g77 -1 x_r2_g48 >= -1 ;
1 p_r2_g91_h62_t29 -1 x_r2_g91 <= 0 ;
1 p_r2_g91_h62_t29 -1 x_r2_g62 <= 0 ;
1 p_r2_g91_h62_t29 -1 x_r2_g91 -1 x_r2_g62 >= -1 ;
1 p_r2_g95_h66_t29 -1 x_r2_g95 <= 0 ;
1 p_r2_g95_h66_t29 -1 x_r2_g66 <= 0 ;
1 p_r2_g95_h66_t29 -1 x_r2_g95 -1 x_r2_g66 >= -1 ;
1 p_r2_g111_h82_t29 -1 x_r2_g111 <= 0 ;
1 p_r2_g111_h82_t29 -1 x_r2_g82 <= 0 ;
1 p_r2_g111_h82_t29 -1 x_r2_g111 -1 x_r2_g82 >= -1 ;
1 p_r2_g120_h91_t29 -1 x_r2_g120 <= 0 ;
1 p_r2_g120_h91_t29 -1 x_r2_g91 <= 0 ;
1 p_r2_g120_h91_t29 -1 x_r2_g120 -1 x_r2_g91 >= -1 ;
1 p_r2_g136_h107_t29 -1 x_r2_g136 <= 0 ;
1 p_r2_g136_h107_t29 -1 x_r2_g107 <= 0 ;
1 p_r2_g136_h107_t29 -1 x_r2_g136 -1 x_r2_g107 >= -1 ;
1 p_r2_g139_h110_t29 -1 x_r2_g139 <= 0 ;
1 p_r2_g139_h110_t29 -1 x_r2_g110 <= 0 ;
1 p_r2_g139_h110_t29 -1 x_r2_g139 -1 x_r2_g110 >= -1 ;
1 p_r2_g149_h120_t29 -1 x_r2_g149 <= 0 ;
1 p_r2_g149_h120_t29 -1 x_r2_g120 <= 0 ;
1 p_r2_g149_h120_t29 -1 x_r2_g149 -1 x_r2_g120 >= -1 ;
1 p_r2_g164_h135_t29 -1 x_r2_g164 <= 0 ;
1 p_r2_g164_h135_t29 -1 x_r2_g135 <= 0 ;
1 p_r2_g164_h135_t29 -1 x_r2_g164 -1 x_r2_g135 >= -1 ;
1 p_r2_g165_h136_t29 -1 x_r2_g165 <= 0 ;
1 p_r2_g165_h136_t29 -1 x_r2_g136 <= 0 ;
1 p_r2_g165_h136_t29 -1 x_r2_g165 -1 x_r2_g136 >= -1 ;
1 p_r3_g7_h145_t29 -1 x_r3_g7 <= 0 ;
1 p_r3_g7_h145_t29 -1 x_r3_g145 <= 0 ;
1 p_r3_g7_h145_t29 -1 x_r3_g7 -1 x_r3_g145 >= -1 ;
1 p_r3_g16_h154_t29 -1 x_r3_g16 <= 0 ;
1 p_r3_g16_h154_t29 -1 x_r3_g154 <= 0 ;
1 p_r3_g16_h154_t29 -1 x_r3_g16 -1 x_r3_g154 >= -1 ;
1 p_r3_g27_h165_t29 -1 x_r3_g27 <= 0 ;
1 p_r3_g27_h165_t29 -1 x_r3_g165 <= 0 ;
1 p_r3_g27_h165_t29 -1 x_r3_g27 -1 x_r3_g165 >= -1 ;
1 p_r3_g36_h7_t29 -1 x_r3_g36 <= 0 ;
1 p_r3_g36_h7_t29 -1 x_r3_g7 <= 0 ;
1 p_r3_g36_h7_t29 -1 x_r3_g36 -1 x_r3_g7 >= -1 ;
1 p_r3_g56_h27_t29 -1 x_r3_g56 <= 0 ;
1 p_r3_g56_h27_t29 -1 x_r3_g27 <= 0 ;
1 p_r3_g56_h27_t29 -1 x_r3_g56 -1 x_r3_g27 >= -1 ;
1 p_r3_g65_h36_t29 -1 x_r3_g65 <= 0 ;
1 p_r3_g65_h36_t29 -1 x_r3_g36 <= 0 ;
1 p_r3_g65_h36_t29 -1 x_r3_g65 -1 x_r3_g36 >= -1 ;
1 p_r3_g94_h65_t29 -1 x_r3_g94 <= 0 ;
1 p_r3_g94_h65_t29 -1 x_r3_g65 <= 0 ;
1 p_r3_g94_h65_t29 -1 x_r3_g94 -1 x_r3_g65 >= -1 ;
1 p_r3_g106_h77_t29 -1 x_r3_g106 <= 0 ;
1 p_r3_g106_h77_t29 -1 x_r3_g77 <= 0 ;
1 p_r3_g106_h77_t29 -1 x_r3_g106 -1 x_r3_g77 >= -1 ;
1 p_r3_g123_h94_t29 -1 x_r3_g123 <= 0 ;
1 p_r3_g123_h94_t29 -1 x_r3_g94 <= 0 ;
1 p_r3_g123_h94_t29 -1 x_r3_g123 -1 x_r3_g94 >= -1 ;
1 p_r3_g154_h125_t29 -1 x_r3_g154 <= 0 ;
1 p_r3_g154_h125_t29 -1 x_r3_g125 <= 0 ;
1 p_r3_g154_h125_t29 -1 x_r3_g154 -1 x_r3_g125 >= -1 ;
1 d_29 -2 x_r0_g1 -1 x_r0_g4 -1 x_r0_g9 -2 x_r0_g14 -1 x_r0_g17 -2 x_r0_g20 -2 x_r0_g22 -1 x_r0_g23 -1 x_r0_g25 -1 x_r0_g26 -1 x_r0_g32 -2 x_r0_g34 -1 x_r0_g35 -1 x_r0_g36 -2 x_r0_g48 -1 x_r0_g67 -2 x_r0_g69 -2 x_r0_g84 -2 x_r0_g87 -1 x_r0_g97 -1 x_r0_g123 -1 x_r0_g130 -1 x_r0_g131 -1 x_r0_g143 -1 x_r0_g144 -1 x_r0_g153 -1 x_r1_g8 -1 x_r1_g11 -1 x_r1_g13 -1 x_r1_g15 -1 x_r1_g17 -1 x_r1_g25 -1 x_r1_g30 -1 x_r1_g53 -1 x_r1_g59 -1 x_r1_g75 -1 x_r1_g80 -1 x_r1_g83 -1 x_r1_g90 -1 x_r1_g107 -1 x_r1_g108 -1 x_r1_g110 -2 x_r1_g111 -1 x_r1_g113 -1 x_r1_g117 -1 x_r1_g132 -1 x_r1_g154 -2 x_r2_g2 -2 x_r2_g29 -1 x_r2_g30 -1 x_r2_g34 -1 x_r2_g60 -1 x_r2_g62 -1 x_r2_g64 -1 x_r2_g70 -1 x_r2_g73 -1 x_r2_g86 -1 x_r2_g100 -1 x_r2_g107 -1 x_r2_g111 -1 x_r2_g128 -1 x_r2_g139 -2 x_r2_g142 -1 x_r2_g152 -1 x_r2_g155 -2 x_r2_g158 -2 x_r2_g159 -2 x_r2_g163 -1 x_r2_g164 -1 x_r2_g165 -1 x_r3_g3 -1 x_r3_g8 -2 x_r3_g11 -1 x_r3_g13 -1 x_r3_g16 -1 x_r3_g18 -2 x_r3_g33 -1 x_r3_g34 -2 x_r3_g51 -2 x_r3_g57 -1 x_r3_g72 -1 x_r3_g79 -1 x_r3_g91 -2 x_r3_g103 -1 x_r3_g111 -1 x_r3_g113 -1 x_r3_g128 -1 x_r3_g144 -2 x_r3_g147 -1 p_r0_g36_h7_t29 -1 p_r0_g54_h25_t29 -1 p_r0_g97_h68_t29 -1 p_r0_g130_h101_t29 -1 p_r0_g131_h102_t29 -1 p_r1_g8_h146_t29 -1 p_r1_g17_h155_t29 -1 p_r1_g59_h30_t29 -1 p_r1_g64_h35_t29 -1 p_r1_g67_h38_t29 -1 p_r1_g91_h62_t29 -1 p_r1_g93_h64_t29 -1 p_r1_g96_h67_t29 -1 p_r1_g143_h114_t29 -1 p_r1_g146_h117_t29 -1 p_r1_g155_h126_t29 -1 p_r1_g157_h128_t29 -1 p_r1_g161_h132_t29 -1 p_r2_g77_h48_t29 -1 p_r2_g91_h62_t29 -1 p_r2_g95_h66_t29 -1 p_r2_g111_h82_t29 -1 p_r2_g120_h91_t29 -1 p_r2_g136_h107_t29 -1 p_r2_g139_h110_t29 -1 p_r2_g149_h120_t29 -1 p_r2_g164_h135_t29 -1 p_r2_g165_h136_t29 -1 p_r3_g7_h145_t29 -1 p_r3_g16_h154_t29 -1 p_r3_g27_h165_t29 -1 p_r3_g36_h7_t29 -1 p_r3_g56_h27_t29 -1 p_r3_g65_h36_t29 -1 p_r3_g94_h65_t29 -1 p_r3_g106_h77_t29 -1 p_r3_g123_h94_t29 -1 p_r3_g154_h125_t29 = -52 ;
1 d_29 -1 u_29 <= 0 ;
-1 d_29 -1 u_29 <= 0 ;
1 u_29 -1 M <= 0 ;
1 u_29 <= 2 ;
1 p_r0_g22_h153_t36 -1 x_r0_g22 <= 0 ;
1 p_r0_g22_h153_t36 -1 x_r0_g153 <= 0 ;
1 p_r0_g22_h153_t36 -1 x_r0_g22 -1 x_r0_g153 >= -1 ;
1 p_r0_g37_h1_t36 -1 x_r0_g37 <= 0 ;
1 p_r0_g37_h1_t36 -1 x_r0_g1 <= 0 ;
1 p_r0_g37_h1_t36 -1 x_r0_g37 -1 x_r0_g1 >= -1 ;
1 p_r0_g68_h32_t36 -1 x_r0_g68 <= 0 ;
1 p_r0_g68_h32_t36 -1 x_r0_g32 <= 0 ;
1 p_r0_g68_h32_t36 -1 x_r0_g68 -1 x_r0_g32 >= -1 ;
1 p_r0_g70_h34_t36 -1 x_r0_g70 <= 0 ;
1 p_r0_g70_h34_t36 -1 x_r0_g34 <= 0 ;
1 p_r0_g70_h34_t36 -1 x_r0_g70 -1 x_r0_g34 >= -1 ;
1 p_r0_g84_h48_t36 -1 x_r0_g84 <= 0 ;
1 p_r0_g84_h48_t36 -1 x_r0_g48 <= 0 ;
1 p_r0_g84_h48_t36 -1 x_r0_g84 -1 x_r0_g48 >= -1 ;
1 p_r0_g123_h87_t36 -1 x_r0_g123 <= 0 ;
1 p_r0_g123_h87_t36 -1 x_r0_g87 <= 0 ;
1 p_r0_g123_h87_t36 -1 x_r0_g123 -1 x_r0_g87 >= -1 ;
1 p_r1_g15_h146_t36 -1 x_r1_g15 <= 0 ;
1 p_r1_g15_h146_t36 -1 x_r1_g146 <= 0 ;
1 p_r1_g15_h146_t36 -1 x_r1_g15 -1 x_r1_g146 >= -1 ;
1 p_r1_g30_h161_t36 -1 x_r1_g30 <= 0 ;
1 p_r1_g30_h161_t36 -1 x_r1_g161 <= 0 ;
1 p_r1_g30_h161_t36 -1 x_r1_g30 -1 x_r1_g161 >= -1 ;
1 p_r1_g53_h17_t36 -1 x_r1_g53 <= 0 ;
1 p_r1_g53_h17_t36 -1 x_r1_g17 <= 0 ;
1 p_r1_g53_h17_t36 -1 x_r1_g53 -1 x_r1_g17 >= -1 ;
1 p_r1_g67_h31_t36 -1 x_r1_g67 <= 0 ;
1 p_r1_g67_h31_t36 -1 x_r1_g31 <= 0 ;
1 p_r1_g67_h31_t36 -1 x_r1_g67 -1 x_r1_g31 >= -1 ;
1 p_r1_g111_h75_t36 -1 x_r1_g111 <= 0 ;
1 p_r1_g111_h75_t36 -1 x_r1_g75 <= 0 ;
1 p_r1_g111_h75_t36 -1 x_r1_g111 -1 x_r1_g75 >= -1 ;
1 p_r1_g126_h90_t36 -1 x_r1_g126 <= 0 ;
1 p_r1_g126_h90_t36 -1 x_r1_g90 <= 0 ;
1 p_r1_g126_h90_t36 -1 x_r1_g126 -1 x_r1_g90 >= -1 ;
1 p_r1_g132_h96_t36 -1 x_r1_g132 <= 0 ;
1 p_r1_g132_h96_t36 -1 x_r1_g96 <= 0 ;
1 p_r1_g132_h96_t36 -1 x_r1_g132 -1 x_r1_g96 >= -1 ;
1 p_r1_g143_h107_t36 -1 x_r1_g143 <= 0 ;
1 p_r1_g143_h107_t36 -1 x_r1_g107 <= 0 ;
1 p_r1_g143_h107_t36 -1 x_r1_g143 -1 x_r1_g107 >= -1 ;
1 p_r1_g146_h110_t36 -1 x_r1_g146 <= 0 ;
1 p_r1_g146_h110_t36 -1 x_r1_g110 <= 0 ;
1 p_r1_g146_h110_t36 -1 x_r1_g146 -1 x_r1_g110 >= -1 ;
1 p_r1_g157_h121_t36 -1 x_r1_g157 <= 0 ;
1 p_r1_g157_h121_t36 -1 x_r1_g121 <= 0 ;
1 p_r1_g157_h121_t36 -1 x_r1_g157 -1 x_r1_g121 >= -1 ;
1 p_r2_g18_h149_t36 -1 x_r2_g18 <= 0 ;
1 p_r2_g18_h149_t36 -1 x_r2_g149 <= 0 ;
1 p_r2_g18_h149_t36 -1 x_r2_g18 -1 x_r2_g149 >= -1 ;
1 p_r2_g34_h165_t36 -1 x_r2_g34 <= 0 ;
1 p_r2_g34_h165_t36 -1 x_r2_g165 <= 0 ;
1 p_r2_g34_h165_t36 -1 x_r2_g34 -1 x_r2_g165 >= -1 ;
1 p_r2_g66_h30_t36 -1 x_r2_g66 <= 0 ;
1 p_r2_g66_h30_t36 -1 x_r2_g30 <= 0 ;
1 p_r2_g66_h30_t36 -1 x_r2_g66 -1 x_r2_g30 >= -1 ;
1 p_r2_g70_h34_t36 -1 x_r2_g70 <= 0 ;
1 p_r2_g70_h34_t36 -1 x_r2_g34 <= 0 ;
1 p_r2_g70_h34_t36 -1 x_r2_g70 -1 x_r2_g34 >= -1 ;
1 p_r2_g98_h62_t36 -1 x_r2_g98 <= 0 ;
1 p_r2_g98_h62_t36 -1 x_r2_g62 <= 0 ;
1 p_r2_g98_h62_t36 -1 x_r2_g98 -1 x_r2_g62 >= -1 ;
1 p_r2_g100_h64_t36 -1 x_r2_g100 <= 0 ;
1 p_r2_g100_h64_t36 -1 x_r2_g64 <= 0 ;
1 p_r2_g100_h64_t36 -1 x_r2_g100 -1 x_r2_g64 >= -1 ;
1 p_r2_g110_h74_t36 -1 x_r2_g110 <= 0 ;
1 p_r2_g110_h74_t36 -1 x_r2_g74 <= 0 ;
1 p_r2_g110_h74_t36 -1 x_r2_g110 -1 x_r2_g74 >= -1 ;
1 p_r2_g136_h100_t36 -1 x_r2_g136 <= 0 ;
1 p_r2_g136_h100_t36 -1 x_r2_g100 <= 0 ;
1 p_r2_g136_h100_t36 -1 x_r2_g136 -1 x_r2_g100 >= -1 ;
1 p_r2_g164_h128_t36 -1 x_r2_g164 <= 0 ;
1 p_r2_g164_h128_t36 -1 x_r2_g128 <= 0 ;
1 p_r2_g164_h128_t36 -1 x_r2_g164 -1 x_r2_g128 >= -1 ;
1 p_r3_g7_h138_t36 -1 x_r3_g7 <= 0 ;
1 p_r3_g7_h138_t36 -1 x_r3_g138 <= 0 ;
1 p_r3_g7_h138_t36 -1 x_r3_g7 -1 x_r3_g138 >= -1 ;
1 p_r3_g13_h144_t36 -1 x_r3_g13 <= 0 ;
1 p_r3_g13_h144_t36 -1 x_r3_g144 <= 0 ;
1 p_r3_g13_h144_t36 -1 x_r3_g13 -1 x_r3_g144 >= -1 ;
1 p_r3_g16_h147_t36 -1 x_r3_g16 <= 0 ;
1 p_r3_g16_h147_t36 -1 x_r3_g147 <= 0 ;
1 p_r3_g16_h147_t36 -1 x_r3_g16 -1 x_r3_g147 >= -1 ;
1 p_r3_g34_h165_t36 -1 x_r3_g34 <= 0 ;
1 p_r3_g34_h165_t36 -1 x_r3_g165 <= 0 ;
1 p_r3_g34_h165_t36 -1 x_r3_g34 -1 x_r3_g165 >= -1 ;
1 p_r3_g51_h15_t36 -1 x_r3_g51 <= 0 ;
1 p_r3_g51_h15_t36 -1 x_r3_g15 <= 0 ;
1 p_r3_g51_h15_t36 -1 x_r3_g51 -1 x_r3_g15 >= -1 ;
1 p_r3_g72_h36_t36 -1 x_r3_g72 <= 0 ;
1 p_r3_g72_h36_t36 -1 x_r3_g36 <= 0 ;
1 p_r3_g72_h36_t36 -1 x_r3_g72 -1 x_r3_g36 >= -1 ;
1 p_r3_g113_h77_t36 -1 x_r3_g113 <= 0 ;
1 p_r3_g113_h77_t36 -1 x_r3_g77 <= 0 ;
1 p_r3_g113_h77_t36 -1 x_r3_g113 -1 x_r3_g77 >= -1 ;
1 p_r3_g147_h111_t36 -1 x_r3_g147 <= 0 ;
1 p_r3_g147_h111_t36 -1 x_r3_g111 <= 0 ;
1 p_r3_g147_h111_t36 -1 x_r3_g147 -1 x_r3_g111 >= -1 ;
1 p_r3_g159_h123_t36 -1 x_r3_g159 <= 0 ;
1 p_r3_g159_h123_t36 -1 x_r3_g123 <= 0 ;
1 p_r3_g159_h123_t36 -1 x_r3_g159 -1 x_r3_g123 >= -1 ;
1 d_36 -1 x_r0_g1 -1 x_r0_g4 -1 x_r0_g7 -1 x_r0_g9 -1 x_r0_g20 -1 x_r0_g22 -1 x_r0_g23 -2 x_r0_g26 -1 x_r0_g28 -1 x_r0_g32 -1 x_r0_g34 -1 x_r0_g47 -1 x_r0_g48 -1 x_r0_g54 -1 x_r0_g67 -1 x_r0_g70 -1 x_r0_g79 -1 x_r0_g84 -1 x_r0_g87 -2 x_r0_g101 -1 x_r0_g121 -1 x_r0_g123 -1 x_r0_g143 -1 x_r0_g144 -1 x_r0_g162 -1 x_r1_g8 -1 x_r1_g13 -1 x_r1_g25 -1 x_r1_g30 -1 x_r1_g35 -1 x_r1_g53 -1 x_r1_g59 -2 x_r1_g62 -1 x_r1_g64 -1 x_r1_g67 -1 x_r1_g75 -2 x_r1_g76 -2 x_r1_g80 -1 x_r1_g83 -1 x_r1_g91 -1 x_r1_g93 -1 x_r1_g114 -1 x_r1_g117 -1 x_r1_g128 -1 x_r1_g132 -1 x_r1_g155 -1 x_r1_g157 -2 x_r2_g29 -1 x_r2_g30 -1 x_r2_g62 -1 x_r2_g64 -1 x_r2_g66 -1 x_r2_g67 -2 x_r2_g77 -1 x_r2_g80 -1 x_r2_g82 -1 x_r2_g86 -1 x_r2_g98 -1 x_r2_g110 -1 x_r2_g111 -1 x_r2_g135 -1 x_r2_g149 -2 x_r2_g152 -1 x_r2_g155 -2 x_r2_g158 -1 x_r2_g159 -2 x_r2_g162 -1 x_r2_g164 -1 x_r2_g165 -2 x_r3_g3 -1 x_r3_g7 -1 x_r3_g8 -2 x_r3_g11 -1 x_r3_g13 -1 x_r3_g18 -1 x_r3_g19 -2 x_r3_g53 -1 x_r3_g56 -1 x_r3_g72 -1 x_r3_g77 -1 x_r3_g79 -2 x_r3_g91 -1 x_r3_g103 -1 x_r3_g106 -1 x_r3_g111 -1 x_r3_g113 -1 x_r3_g124 -1 x_r3_g125 -1 x_r3_g144 -1 x_r3_g154 -1 x_r3_g159 -1 x_r3_g165 -1 p_r0_g22_h153_t36 -1 p_r0_g37_h1_t36 -1 p_r0_g68_h32_t36 -1 p_r0_g70_h34_t36 -1 p_r0_g84_h48_t36 -1 p_r0_g123_h87_t36 -1 p_r1_g15_h146_t36 -1 p_r1_g30_h161_t36 -1 p_r1_g53_h17_t36 -1 p_r1_g67_h31_t36 -1 p_r1_g111_h75_t36 -1 p_r1_g126_h90_t36 -1 p_r1_g132_h96_t36 -1 p_r1_g143_h107_t36 -1 p_r1_g146_h110_t36 -1 p_r1_g157_h121_t36 -1 p_r2_g18_h149_t36 -1 p_r2_g34_h165_t36 -1 p_r2_g66_h30_t36 -1 p_r2_g70_h34_t36 -1 p_r2_g98_h62_t36 -1 p_r2_g100_h64_t36 -1 p_r2_g110_h74_t36 -1 p_r2_g136_h100_t36 -1 p_r2_g164_h128_t36 -1 p_r3_g7_h138_t36 -1 p_r3_g13_h144_t36 -1 p_r3_g16_h147_t36 -1 p_r3_g34_h165_t36 -1 p_r3_g51_h15_t36 -1 p_r3_g72_h36_t36 -1 p_r3_g113_h77_t36 -1 p_r3_g147_h111_t36 -1 p_r3_g159_h123_t36 = -53 ;
1 d_36 -1 u_36 <= 0 ;
-1 d_36 -1 u_36 <= 0 ;
1 u_36 -1 M <= 0 ;
1 u_36 <= 1 ;
1 p_r0_g1_h131_t37 -1 x_r0_g1 <= 0 ;
1 p_r0_g1_h131_t37 -1 x_r0_g131 <= 0 ;
1 p_r0_g1_h131_t37 -1 x_r0_g1 -1 x_r0_g131 >= -1 ;
1 p_r0_g14_h144_t37 -1 x_r0_g14 <= 0 ;
1 p_r0_g14_h144_t37 -1 x_r0_g144 <= 0 ;
1 p_r0_g14_h144_t37 -1 x_r0_g14 -1 x_r0_g144 >= -1 ;
1 p_r0_g23_h153_t37 -1 x_r0_g23 <= 0 ;
1 p_r0_g23_h153_t37 -1 x_r0_g153 <= 0 ;
1 p_r0_g23_h153_t37 -1 x_r0_g23 -1 x_r0_g153 >= -1 ;
1 p_r0_g32_h162_t37 -1 x_r0_g32 <= 0 ;
1 p_r0_g32_h162_t37 -1 x_r0_g162 <= 0 ;
1 p_r0_g32_h162_t37 -1 x_r0_g32 -1 x_r0_g162 >= -1 ;
1 p_r0_g54_h17_t37 -1 x_r0_g54 <= 0 ;
1 p_r0_g54_h17_t37 -1 x_r0_g17 <= 0 ;
1 p_r0_g54_h17_t37 -1 x_r0_g54 -1 x_r0_g17 >= -1 ;
1 p_r0_g60_h23_t37 -1 x_r0_g60 <= 0 ;
1 p_r0_g60_h23_t37 -1 x_r0_g23 <= 0 ;
1 p_r0_g60_h23_t37 -1 x_r0_g60 -1 x_r0_g23 >= -1 ;
1 p_r0_g69_h32_t37 -1 x_r0_g69 <= 0 ;
1 p_r0_g69_h32_t37 -1 x_r0_g32 <= 0 ;
1 p_r0_g69_h32_t37 -1 x_r0_g69 -1 x_r0_g32 >= -1 ;
1 p_r0_g84_h47_t37 -1 x_r0_g84 <= 0 ;
1 p_r0_g84_h47_t37 -1 x_r0_g47 <= 0 ;
1 p_r0_g84_h47_t37 -1 x_r0_g84 -1 x_r0_g47 >= -1 ;
1 p_r0_g97_h60_t37 -1 x_r0_g97 <= 0 ;
1 p_r0_g97_h60_t37 -1 x_r0_g60 <= 0 ;
1 p_r0_g97_h60_t37 -1 x_r0_g97 -1 x_r0_g60 >= -1 ;
1 p_r0_g121_h84_t37 -1 x_r0_g121 <= 0 ;
1 p_r0_g121_h84_t37 -1 x_r0_g84 <= 0 ;
1 p_r0_g121_h84_t37 -1 x_r0_g121 -1 x_r0_g84 >= -1 ;
1 p_r1_g13_h143_t37 -1 x_r1_g13 <= 0 ;
1 p_r1_g13_h143_t37 -1 x_r1_g143 <= 0 ;
1 p_r1_g13_h143_t37 -1 x_r1_g13 -1 x_r1_g143 >= -1 ;
1 p_r1_g25_h155_t37 -1 x_r1_g25 <= 0 ;
1 p_r1_g25_h155_t37 -1 x_r1_g155 <= 0 ;
1 p_r1_g25_h155_t37 -1 x_r1_g25 -1 x_r1_g155 >= -1 ;
1 p_r1_g31_h161_t37 -1 x_r1_g31 <= 0 ;
1 p_r1_g31_h161_t37 -1 x_r1_g161 <= 0 ;
1 p_r1_g31_h161_t37 -1 x_r1_g31 -1 x_r1_g161 >= -1 ;
1 p_r1_g62_h25_t37 -1 x_r1_g62 <= 0 ;
1 p_r1_g62_h25_t37 -1 x_r1_g25 <= 0 ;
1 p_r1_g62_h25_t37 -1 x_r1_g62 -1 x_r1_g25 >= -1 ;
1 p_r1_g67_h30_t37 -1 x_r1_g67 <= 0 ;
1 p_r1_g67_h30_t37 -1 x_r1_g30 <= 0 ;
1 p_r1_g67_h30_t37 -1 x_r1_g67 -1 x_r1_g30 >= -1 ;
1 p_r1_g75_h38_t37 -1 x_r1_g75 <= 0 ;
1 p_r1_g75_h38_t37 -1 x_r1_g38 <= 0 ;
1 p_r1_g75_h38_t37 -1 x_r1_g75 -1 x_r1_g38 >= -1 ;
1 p_r1_g90_h53_t37 -1 x_r1_g90 <= 0 ;
1 p_r1_g90_h53_t37 -1 x_r1_g53 <= 0 ;
1 p_r1_g90_h53_t37 -1 x_r1_g90 -1 x_r1_g53 >= -1 ;
1 p_r1_g96_h59_t37 -1 x_r1_g96 <= 0 ;
1 p_r1_g96_h59_t37 -1 x_r1_g59 <= 0 ;
1 p_r1_g96_h59_t37 -1 x_r1_g96 -1 x_r1_g59 >= -1 ;
1 p_r1_g113_h76_t37 -1 x_r1_g113 <= 0 ;
1 p_r1_g113_h76_t37 -1 x_r1_g76 <= 0 ;
1 p_r1_g113_h76_t37 -1 x_r1_g113 -1 x_r1_g76 >= -1 ;
1 p_r1_g117_h80_t37 -1 x_r1_g117 <= 0 ;
1 p_r1_g117_h80_t37 -1 x_r1_g80 <= 0 ;
1 p_r1_g117_h80_t37 -1 x_r1_g117 -1 x_r1_g80 >= -1 ;
1 p_r1_g128_h91_t37 -1 x_r1_g128 <= 0 ;
1 p_r1_g128_h91_t37 -1 x_r1_g91 <= 0 ;
1 p_r1_g128_h91_t37 -1 x_r1_g128 -1 x_r1_g91 >= -1 ;
1 p_r1_g154_h117_t37 -1 x_r1_g154 <= 0 ;
1 p_r1_g154_h117_t37 -1 x_r1_g117 <= 0 ;
1 p_r1_g154_h117_t37 -1 x_r1_g154 -1 x_r1_g117 >= -1 ;
1 p_r2_g29_h159_t37 -1 x_r2_g29 <= 0 ;
1 p_r2_g29_h159_t37 -1 x_r2_g159 <= 0 ;
1 p_r2_g29_h159_t37 -1 x_r2_g29 -1 x_r2_g159 >= -1 ;
1 p_r2_g34_h164_t37 -1 x_r2_g34 <= 0 ;
1 p_r2_g34_h164_t37 -1 x_r2_g164 <= 0 ;
1 p_r2_g34_h164_t37 -1 x_r2_g34 -1 x_r2_g164 >= -1 ;
1 p_r2_g66_h29_t37 -1 x_r2_g66 <= 0 ;
1 p_r2_g66_h29_t37 -1 x_r2_g29 <= 0 ;
1 p_r2_g66_h29_t37 -1 x_r2_g66 -1 x_r2_g29 >= -1 ;
1 p_r2_g67_h30_t37 -1 x_r2_g67 <= 0 ;
1 p_r2_g67_h30_t37 -1 x_r2_g30 <= 0 ;
1 p_r2_g67_h30_t37 -1 x_r2_g67 -1 x_r2_g30 >= -1 ;
1 p_r2_g107_h70_t37 -1 x_r2_g107 <= 0 ;
1 p_r2_g107_h70_t37 -1 x_r2_g70 <= 0 ;
1 p_r2_g107_h70_t37 -1 x_r2_g107 -1 x_r2_g70 >= -1 ;
1 p_r2_g110_h73_t37 -1 x_r2_g110 <= 0 ;
1 p_r2_g110_h73_t37 -1 x_r2_g73 <= 0 ;
1 p_r2_g110_h73_t37 -1 x_r2_g110 -1 x_r2_g73 >= -1 ;
1 p_r2_g111_h74_t37 -1 x_r2_g111 <= 0 ;
1 p_r2_g111_h74_t37 -1 x_r2_g74 <= 0 ;
1 p_r2_g111_h74_t37 -1 x_r2_g111 -1 x_r2_g74 >= -1 ;
1 p_r2_g128_h91_t37 -1 x_r2_g128 <= 0 ;
1 p_r2_g128_h91_t37 -1 x_r2_g91 <= 0 ;
1 p_r2_g128_h91_t37 -1 x_r2_g128 -1 x_r2_g91 >= -1 ;
1 p_r2_g135_h98_t37 -1 x_r2_g135 <= 0 ;
1 p_r2_g135_h98_t37 -1 x_r2_g98 <= 0 ;
1 p_r2_g135_h98_t37 -1 x_r2_g135 -1 x_r2_g98 >= -1 ;
1 p_r2_g165_h128_t37 -1 x_r2_g165 <= 0 ;
1 p_r2_g165_h128_t37 -1 x_r2_g128 <= 0 ;
1 p_r2_g165_h128_t37 -1 x_r2_g165 -1 x_r2_g128 >= -1 ;
1 p_r3_g8_h138_t37 -1 x_r3_g8 <= 0 ;
1 p_r3_g8_h138_t37 -1 x_r3_g138 <= 0 ;
1 p_r3_g8_h138_t37 -1 x_r3_g8 -1 x_r3_g138 >= -1 ;
1 p_r3_g15_h145_t37 -1 x_r3_g15 <= 0 ;
1 p_r3_g15_h145_t37 -1 x_r3_g145 <= 0 ;
1 p_r3_g15_h145_t37 -1 x_r3_g15 -1 x_r3_g145 >= -1 ;
1 p_r3_g53_h16_t37 -1 x_r3_g53 <= 0 ;
1 p_r3_g53_h16_t37 -1 x_r3_g16 <= 0 ;
1 p_r3_g53_h16_t37 -1 x_r3_g53 -1 x_r3_g16 >= -1 ;
1 p_r3_g56_h19_t37 -1 x_r3_g56 <= 0 ;
1 p_r3_g56_h19_t37 -1 x_r3_g19 <= 0 ;
1 p_r3_g56_h19_t37 -1 x_r3_g56 -1 x_r3_g19 >= -1 ;
1 p_r3_g94_h57_t37 -1 x_r3_g94 <= 0 ;
1 p_r3_g94_h57_t37 -1 x_r3_g57 <= 0 ;
1 p_r3_g94_h57_t37 -1 x_r3_g94 -1 x_r3_g57 >= -1 ;
1 p_r3_g128_h91_t37 -1 x_r3_g128 <= 0 ;
1 p_r3_g128_h91_t37 -1 x_r3_g91 <= 0 ;
1 p_r3_g128_h91_t37 -1 x_r3_g128 -1 x_r3_g91 >= -1 ;
1 p_r3_g162_h125_t37 -1 x_r3_g162 <= 0 ;
1 p_r3_g162_h125_t37 -1 x_r3_g125 <= 0 ;
1 p_r3_g162_h125_t37 -1 x_r3_g162 -1 x_r3_g125 >= -1 ;
1 p_r3_g165_h128_t37 -1 x_r3_g165 <= 0 ;
1 p_r3_g165_h128_t37 -1 x_r3_g128 <= 0 ;
1 p_r3_g165_h128_t37 -1 x_r3_g165 -1 x_r3_g128 >= -1 ;
1 d_37 -1 x_r0_g1 -1 x_r0_g7 -1 x_r0_g9 -1 x_r0_g14 -2 x_r0_g22 -2 x_r0_g25 -1 x_r0_g26 -2 x_r0_g28 -1 x_r0_g35 -1 x_r0_g37 -1 x_r0_g48 -1 x_r0_g67 -1 x_r0_g69 -2 x_r0_g79 -2 x_r0_g102 -1 x_r0_g118 -1 x_r0_g121 -1 x_r0_g123 -2 x_r0_g143 -1 x_r0_g153 -1 x_r0_g162 -1 x_r1_g8 -1 x_r1_g11 -1 x_r1_g30 -1 x_r1_g31 -1 x_r1_g38 -1 x_r1_g53 -1 x_r1_g64 -1 x_r1_g75 -1 x_r1_g76 -1 x_r1_g83 -1 x_r1_g90 -2 x_r1_g93 -1 x_r1_g107 -1 x_r1_g121 -2 x_r1_g126 -1 x_r1_g132 -2 x_r1_g146 -1 x_r1_g157 -1 x_r1_g161 -2 x_r2_g2 -1 x_r2_g18 -1 x_r2_g30 -1 x_r2_g48 -1 x_r2_g62 -2 x_r2_g64 -1 x_r2_g67 -1 x_r2_g70 -1 x_r2_g77 -1 x_r2_g80 -1 x_r2_g82 -1 x_r2_g86 -2 x_r2_g95 -1 x_r2_g98 -2 x_r2_g100 -1 x_r2_g111 -2 x_r2_g120 -1 x_r2_g139 -1 x_r2_g142 -1 x_r2_g149 -1 x_r2_g152 -1 x_r2_g155 -2 x_r2_g158 -1 x_r2_g159 -2 x_r2_g163 -1 x_r3_g3 -1 x_r3_g7 -1 x_r3_g8 -1 x_r3_g13 -2 x_r3_g18 -1 x_r3_g19 -1 x_r3_g33 -1 x_r3_g36 -1 x_r3_g57 -1 x_r3_g65 -1 x_r3_g77 -2 x_r3_g103 -1 x_r3_g106 -2 x_r3_g111 -1 x_r3_g113 -2 x_r3_g123 -1 x_r3_g145 -2 x_r3_g147 -1 x_r3_g159 -1 x_r3_g162 -1 p_r0_g1_h131_t37 -1 p_r0_g14_h144_t37 -1 p_r0_g23_h153_t37 -1 p_r0_g32_h162_t37 -1 p_r0_g54_h17_t37 -1 p_r0_g60_h23_t37 -1 p_r0_g69_h32_t37 -1 p_r0_g84_h47_t37 -1 p_r0_g97_h60_t37 -1 p_r0_g121_h84_t37 -1 p_r1_g13_h143_t37 -1 p_r1_g25_h155_t37 -1 p_r1_g31_h161_t37 -1 p_r1_g62_h25_t37 -1 p_r1_g67_h30_t37 -1 p_r1_g75_h38_t37 -1 p_r1_g90_h53_t37 -1 p_r1_g96_h59_t37 -1 p_r1_g113_h76_t37 -1 p_r1_g117_h80_t37 -1 p_r1_g128_h91_t37 -1 p_r1_g154_h117_t37 -1 p_r2_g29_h159_t37 -1 p_r2_g34_h164_t37 -1 p_r2_g66_h29_t37 -1 p_r2_g67_h30_t37 -1 p_r2_g107_h70_t37 -1 p_r2_g110_h73_t37 -1 p_r2_g111_h74_t37 -1 p_r2_g128_h91_t37 -1 p_r2_g135_h98_t37 -1 p_r2_g165_h128_t37 -1 p_r3_g8_h138_t37 -1 p_r3_g15_h145_t37 -1 p_r3_g53_h16_t37 -1 p_r3_g56_h19_t37 -1 p_r3_g94_h57_t37 -1 p_r3_g128_h91_t37 -1 p_r3_g162_h125_t37 -1 p_r3_g165_h128_t37 = -58 ;
1 d_37 -1 u_37 <= 0 ;
-1 d_37 -1 u_37 <= 0 ;
1 u_37 -1 M <= 0 ;
1 u_37 <= 1 ;
1 p_r0_g1_h130_t38 -1 x_r0_g1 <= 0 ;
1 p_r0_g1_h130_t38 -1 x_r0_g130 <= 0 ;
1 p_r0_g1_h130_t38 -1 x_r0_g1 -1 x_r0_g130 >= -1 ;
1 p_r0_g14_h143_t38 -1 x_r0_g14 <= 0 ;
1 p_r0_g14_h143_t38 -1 x_r0_g143 <= 0 ;
1 p_r0_g14_h143_t38 -1 x_r0_g14 -1 x_r0_g143 >= -1 ;
1 p_r0_g47_h9_t38 -1 x_r0_g47 <= 0 ;
1 p_r0_g47_h9_t38 -1 x_r0_g9 <= 0 ;
1 p_r0_g47_h9_t38 -1 x_r0_g47 -1 x_r0_g9 >= -1 ;
1 p_r0_g60_h22_t38 -1 x_r0_g60 <= 0 ;
1 p_r0_g60_h22_t38 -1 x_r0_g22 <= 0 ;
1 p_r0_g60_h22_t38 -1 x_r0_g60 -1 x_r0_g22 >= -1 ;
1 p_r0_g70_h32_t38 -1 x_r0_g70 <= 0 ;
1 p_r0_g70_h32_t38 -1 x_r0_g32 <= 0 ;
1 p_r0_g70_h32_t38 -1 x_r0_g70 -1 x_r0_g32 >= -1 ;
1 p_r1_g17_h146_t38 -1 x_r1_g17 <= 0 ;
1 p_r1_g17_h146_t38 -1 x_r1_g146 <= 0 ;
1 p_r1_g17_h146_t38 -1 x_r1_g17 -1 x_r1_g146 >= -1 ;
1 p_r1_g25_h154_t38 -1 x_r1_g25 <= 0 ;
1 p_r1_g25_h154_t38 -1 x_r1_g154 <= 0 ;
1 p_r1_g25_h154_t38 -1 x_r1_g25 -1 x_r1_g154 >= -1 ;
1 p_r1_g53_h15_t38 -1 x_r1_g53 <= 0 ;
1 p_r1_g53_h15_t38 -1 x_r1_g15 <= 0 ;
1 p_r1_g53_h15_t38 -1 x_r1_g53 -1 x_r1_g15 >= -1 ;
1 p_r1_g76_h38_t38 -1 x_r1_g76 <= 0 ;
1 p_r1_g76_h38_t38 -1 x_r1_g38 <= 0 ;
1 p_r1_g76_h38_t38 -1 x_r1_g76 -1 x_r1_g38 >= -1 ;
1 p_r1_g91_h53_t38 -1 x_r1_g91 <= 0 ;
1 p_r1_g91_h53_t38 -1 x_r1_g53 <= 0 ;
1 p_r1_g91_h53_t38 -1 x_r1_g91 -1 x_r1_g53 >= -1 ;
1 p_r1_g113_h75_t38 -1 x_r1_g113 <= 0 ;
1 p_r1_g113_h75_t38 -1 x_r1_g75 <= 0 ;
1 p_r1_g113_h75_t38 -1 x_r1_g113 -1 x_r1_g75 >= -1 ;
1 p_r1_g114_h76_t38 -1 x_r1_g114 <= 0 ;
1 p_r1_g114_h76_t38 -1 x_r1_g76 <= 0 ;
1 p_r1_g114_h76_t38 -1 x_r1_g114 -1 x_r1_g76 >= -1 ;
1 p_r1_g121_h83_t38 -1 x_r1_g121 <= 0 ;
1 p_r1_g121_h83_t38 -1 x_r1_g83 <= 0 ;
1 p_r1_g121_h83_t38 -1 x_r1_g121 -1 x_r1_g83 >= -1 ;
1 p_r1_g128_h90_t38 -1 x_r1_g128 <= 0 ;
1 p_r1_g128_h90_t38 -1 x_r1_g90 <= 0 ;
1 p_r1_g128_h90_t38 -1 x_r1_g128 -1 x_r1_g90 >= -1 ;
1 p_r1_g146_h108_t38 -1 x_r1_g146 <= 0 ;
1 p_r1_g146_h108_t38 -1 x_r1_g108 <= 0 ;
1 p_r1_g146_h108_t38 -1 x_r1_g146 -1 x_r1_g108 >= -1 ;
1 p_r1_g155_h117_t38 -1 x_r1_g155 <= 0 ;
1 p_r1_g155_h117_t38 -1 x_r1_g117 <= 0 ;
1 p_r1_g155_h117_t38 -1 x_r1_g155 -1 x_r1_g117 >= -1 ;
1 p_r2_g29_h158_t38 -1 x_r2_g29 <= 0 ;
1 p_r2_g29_h158_t38 -1 x_r2_g158 <= 0 ;
1 p_r2_g29_h158_t38 -1 x_r2_g29 -1 x_r2_g158 >= -1 ;
1 p_r2_g30_h159_t38 -1 x_r2_g30 <= 0 ;
1 p_r2_g30_h159_t38 -1 x_r2_g159 <= 0 ;
1 p_r2_g30_h159_t38 -1 x_r2_g30 -1 x_r2_g159 >= -1 ;
1 p_r2_g34_h163_t38 -1 x_r2_g34 <= 0 ;
1 p_r2_g34_h163_t38 -1 x_r2_g163 <= 0 ;
1 p_r2_g34_h163_t38 -1 x_r2_g34 -1 x_r2_g163 >= -1 ;
1 p_r2_g67_h29_t38 -1 x_r2_g67 <= 0 ;
1 p_r2_g67_h29_t38 -1 x_r2_g29 <= 0 ;
1 p_r2_g67_h29_t38 -1 x_r2_g67 -1 x_r2_g29 >= -1 ;
1 p_r2_g86_h48_t38 -1 x_r2_g86 <= 0 ;
1 p_r2_g86_h48_t38 -1 x_r2_g48 <= 0 ;
1 p_r2_g86_h48_t38 -1 x_r2_g86 -1 x_r2_g48 >= -1 ;
1 p_r2_g98_h60_t38 -1 x_r2_g98 <= 0 ;
1 p_r2_g98_h60_t38 -1 x_r2_g60 <= 0 ;
1 p_r2_g98_h60_t38 -1 x_r2_g98 -1 x_r2_g60 >= -1 ;
1 p_r2_g100_h62_t38 -1 x_r2_g100 <= 0 ;
1 p_r2_g100_h62_t38 -1 x_r2_g62 <= 0 ;
1 p_r2_g100_h62_t38 -1 x_r2_g100 -1 x_r2_g62 >= -1 ;
1 p_r2_g111_h73_t38 -1 x_r2_g111 <= 0 ;
1 p_r2_g111_h73_t38 -1 x_r2_g73 <= 0 ;
1 p_r2_g111_h73_t38 -1 x_r2_g111 -1 x_r2_g73 >= -1 ;
1 p_r2_g120_h82_t38 -1 x_r2_g120 <= 0 ;
1 p_r2_g120_h82_t38 -1 x_r2_g82 <= 0 ;
1 p_r2_g120_h82_t38 -1 x_r2_g120 -1 x_r2_g82 >= -1 ;
1 p_r2_g136_h98_t38 -1 x_r2_g136 <= 0 ;
1 p_r2_g136_h98_t38 -1 x_r2_g98 <= 0 ;
1 p_r2_g136_h98_t38 -1 x_r2_g136 -1 x_r2_g98 >= -1 ;
1 p_r2_g149_h111_t38 -1 x_r2_g149 <= 0 ;
1 p_r2_g149_h111_t38 -1 x_r2_g111 <= 0 ;
1 p_r2_g149_h111_t38 -1 x_r2_g149 -1 x_r2_g111 >= -1 ;
1 p_r2_g158_h120_t38 -1 x_r2_g158 <= 0 ;
1 p_r2_g158_h120_t38 -1 x_r2_g120 <= 0 ;
1 p_r2_g158_h120_t38 -1 x_r2_g158 -1 x_r2_g120 >= -1 ;
1 p_r3_g15_h144_t38 -1 x_r3_g15 <= 0 ;
1 p_r3_g15_h144_t38 -1 x_r3_g144 <= 0 ;
1 p_r3_g15_h144_t38 -1 x_r3_g15 -1 x_r3_g144 >= -1 ;
1 p_r3_g16_h145_t38 -1 x_r3_g16 <= 0 ;
1 p_r3_g16_h145_t38 -1 x_r3_g145 <= 0 ;
1 p_r3_g16_h145_t38 -1 x_r3_g16 -1 x_r3_g145 >= -1 ;
1 p_r3_g18_h147_t38 -1 x_r3_g18 <= 0 ;
1 p_r3_g18_h147_t38 -1 x_r3_g147 <= 0 ;
1 p_r3_g18_h147_t38 -1 x_r3_g18 -1 x_r3_g147 >= -1 ;
1 p_r3_g33_h162_t38 -1 x_r3_g33 <= 0 ;
1 p_r3_g33_h162_t38 -1 x_r3_g162 <= 0 ;
1 p_r3_g33_h162_t38 -1 x_r3_g33 -1 x_r3_g162 >= -1 ;
1 p_r3_g36_h165_t38 -1 x_r3_g36 <= 0 ;
1 p_r3_g36_h165_t38 -1 x_r3_g165 <= 0 ;
1 p_r3_g36_h165_t38 -1 x_r3_g36 -1 x_r3_g165 >= -1 ;
1 p_r3_g51_h13_t38 -1 x_r3_g51 <= 0 ;
1 p_r3_g51_h13_t38 -1 x_r3_g13 <= 0 ;
1 p_r3_g51_h13_t38 -1 x_r3_g51 -1 x_r3_g13 >= -1 ;
1 p_r3_g53_h15_t38 -1 x_r3_g53 <= 0 ;
1 p_r3_g53_h15_t38 -1 x_r3_g15 <= 0 ;
1 p_r3_g53_h15_t38 -1 x_r3_g53 -1 x_r3_g15 >= -1 ;
1 p_r3_g56_h18_t38 -1 x_r3_g56 <= 0 ;
1 p_r3_g56_h18_t38 -1 x_r3_g18 <= 0 ;
1 p_r3_g56_h18_t38 -1 x_r3_g56 -1 x_r3_g18 >= -1 ;
1 p_r3_g57_h19_t38 -1 x_r3_g57 <= 0 ;
1 p_r3_g57_h19_t38 -1 x_r3_g19 <= 0 ;
1 p_r3_g57_h19_t38 -1 x_r3_g57 -1 x_r3_g19 >= -1 ;
1 p_r3_g65_h27_t38 -1 x_r3_g65 <= 0 ;
1 p_r3_g65_h27_t38 -1 x_r3_g27 <= 0 ;
1 p_r3_g65_h27_t38 -1 x_r3_g65 -1 x_r3_g27 >= -1 ;
1 p_r3_g72_h34_t38 -1 x_r3_g72 <= 0 ;
1 p_r3_g72_h34_t38 -1 x_r3_g34 <= 0 ;
1 p_r3_g72_h34_t38 -1 x_r3_g72 -1 x_r3_g34 >= -1 ;
1 p_r3_g91_h53_t38 -1 x_r3_g91 <= 0 ;
1 p_r3_g91_h53_t38 -1 x_r3_g53 <= 0 ;
1 p_r3_g91_h53_t38 -1 x_r3_g91 -1 x_r3_g53 >= -1 ;
1 p_r3_g94_h56_t38 -1 x_r3_g94 <= 0 ;
1 p_r3_g94_h56_t38 -1 x_r3_g56 <= 0 ;
1 p_r3_g94_h56_t38 -1 x_r3_g94 -1 x_r3_g56 >= -1 ;
1 p_r3_g103_h65_t38 -1 x_r3_g103 <= 0 ;
1 p_r3_g103_h65_t38 -1 x_r3_g65 <= 0 ;
1 p_r3_g103_h65_t38 -1 x_r3_g103 -1 x_r3_g65 >= -1 ;
1 p_r3_g144_h106_t38 -1 x_r3_g144 <= 0 ;
1 p_r3_g144_h106_t38 -1 x_r3_g106 <= 0 ;
1 p_r3_g144_h106_t38 -1 x_r3_g144 -1 x_r3_g106 >= -1 ;
1 p_r3_g159_h121_t38 -1 x_r3_g159 <= 0 ;
1 p_r3_g159_h121_t38 -1 x_r3_g121 <= 0 ;
1 p_r3_g159_h121_t38 -1 x_r3_g159 -1 x_r3_g121 >= -1 ;
1 p_r3_g162_h124_t38 -1 x_r3_g162 <= 0 ;
1 p_r3_g162_h124_t38 -1 x_r3_g124 <= 0 ;
1 p_r3_g162_h124_t38 -1 x_r3_g162 -1 x_r3_g124 >= -1 ;
1 d_38 -1 x_r0_g4 -2 x_r0_g7 -1 x_r0_g14 -2 x_r0_g17 -2 x_r0_g20 -1 x_r0_g22 -1 x_r0_g23 -1 x_r0_g25 -1 x_r0_g26 -1 x_r0_g28 -1 x_r0_g34 -2 x_r0_g36 -1 x_r0_g60 -2 x_r0_g68 -1 x_r0_g84 -2 x_r0_g87 -1 x_r0_g97 -2 x_r0_g101 -1 x_r0_g121 -2 x_r0_g144 -1 x_r1_g8 -2 x_r1_g11 -2 x_r1_g30 -2 x_r1_g31 -1 x_r1_g35 -1 x_r1_g62 -1 x_r1_g64 -1 x_r1_g67 -1 x_r1_g75 -1 x_r1_g80 -1 x_r1_g107 -1 x_r1_g108 -1 x_r1_g117 -1 x_r1_g121 -2 x_r1_g126 -1 x_r1_g128 -1 x_r1_g132 -1 x_r1_g154 -1 x_r1_g155 -1 x_r1_g157 -2 x_r1_g161 -1 x_r2_g18 -1 x_r2_g30 -2 x_r2_g64 -2 x_r2_g66 -1 x_r2_g67 -1 x_r2_g74 -2 x_r2_g77 -1 x_r2_g91 -1 x_r2_g110 -1 x_r2_g128 -1 x_r2_g136 -1 x_r2_g139 -1 x_r2_g142 -1 x_r2_g149 -1 x_r2_g152 -1 x_r2_g155 -1 x_r2_g159 -1 x_r2_g162 -1 x_r2_g164 -2 x_r3_g3 -1 x_r3_g7 -2 x_r3_g8 -2 x_r3_g11 -1 x_r3_g13 -1 x_r3_g19 -1 x_r3_g34 -1 x_r3_g36 -1 x_r3_g51 -1 x_r3_g72 -1 x_r3_g77 -1 x_r3_g79 -1 x_r3_g91 -1 x_r3_g94 -1 x_r3_g106 -1 x_r3_g111 -2 x_r3_g113 -1 x_r3_g121 -1 x_r3_g124 -1 x_r3_g125 -1 x_r3_g128 -1 x_r3_g138 -1 x_r3_g159 -1 x_r3_g165 -1 p_r0_g1_h130_t38 -1 p_r0_g14_h143_t38 -1 p_r0_g47_h9_t38 -1 p_r0_g60_h22_t38 -1 p_r0_g70_h32_t38 -1 p_r1_g17_h146_t38 -1 p_r1_g25_h154_t38 -1 p_r1_g53_h15_t38 -1 p_r1_g76_h38_t38 -1 p_r1_g91_h53_t38 -1 p_r1_g113_h75_t38 -1 p_r1_g114_h76_t38 -1 p_r1_g121_h83_t38 -1 p_r1_g128_h90_t38 -1 p_r1_g146_h108_t38 -1 p_r1_g155_h117_t38 -1 p_r2_g29_h158_t38 -1 p_r2_g30_h159_t38 -1 p_r2_g34_h163_t38 -1 p_r2_g67_h29_t38 -1 p_r2_g86_h48_t38 -1 p_r2_g98_h60_t38 -1 p_r2_g100_h62_t38 -1 p_r2_g111_h73_t38 -1 p_r2_g120_h82_t38 -1 p_r2_g136_h98_t38 -1 p_r2_g149_h111_t38 -1 p_r2_g158_h120_t38 -1 p_r3_g15_h144_t38 -1 p_r3_g16_h145_t38 -1 p_r3_g18_h147_t38 -1 p_r3_g33_h162_t38 -1 p_r3_g36_h165_t38 -1 p_r3_g51_h13_t38 -1 p_r3_g53_h15_t38 -1 p_r3_g56_h18_t38 -1 p_r3_g57_h19_t38 -1 p_r3_g65_h27_t38 -1 p_r3_g72_h34_t38 -1 p_r3_g91_h53_t38 -1 p_r3_g94_h56_t38 -1 p_r3_g103_h65_t38 -1 p_r3_g144_h106_t38 -1 p_r3_g159_h121_t38 -1 p_r3_g162_h124_t38 = -63 ;
1 d_38 -1 u_38 <= 0 ;
-1 d_38 -1 u_38 <= 0 ;
1 u_38 -1 M <= 0 ;
1 u_38 <= 0 ;
1 p_r0_g25_h153_t39 -1 x_r0_g25 <= 0 ;
1 p_r0_g25_h153_t39 -1 x_r0_g153 <= 0 ;
1 p_r0_g25_h153_t39 -1 x_r0_g25 -1 x_r0_g153 >= -1 ;
1 p_r0_g34_h162_t39 -1 x_r0_g34 <= 0 ;
1 p_r0_g34_h162_t39 -1 x_r0_g162 <= 0 ;
1 p_r0_g34_h162_t39 -1 x_r0_g34 -1 x_r0_g162 >= -1 ;
1 p_r0_g48_h9_t39 -1 x_r0_g48 <= 0 ;
1 p_r0_g48_h9_t39 -1 x_r0_g9 <= 0 ;
1 p_r0_g48_h9_t39 -1 x_r0_g48 -1 x_r0_g9 >= -1 ;
1 p_r0_g67_h28_t39 -1 x_r0_g67 <= 0 ;
1 p_r0_g67_h28_t39 -1 x_r0_g28 <= 0 ;
1 p_r0_g67_h28_t39 -1 x_r0_g67 -1 x_r0_g28 >= -1 ;
1 p_r0_g87_h48_t39 -1 x_r0_g87 <= 0 ;
1 p_r0_g87_h48_t39 -1 x_r0_g48 <= 0 ;
1 p_r0_g87_h48_t39 -1 x_r0_g87 -1 x_r0_g48 >= -1 ;
1 p_r0_g118_h79_t39 -1 x_r0_g118 <= 0 ;
1 p_r0_g118_h79_t39 -1 x_r0_g79 <= 0 ;
1 p_r0_g118_h79_t39 -1 x_r0_g118 -1 x_r0_g79 >= -1 ;
1 p_r0_g123_h84_t39 -1 x_r0_g123 <= 0 ;
1 p_r0_g123_h84_t39 -1 x_r0_g84 <= 0 ;
1 p_r0_g123_h84_t39 -1 x_r0_g123 -1 x_r0_g84 >= -1 ;
1 p_r0_g162_h123_t39 -1 x_r0_g162 <= 0 ;
1 p_r0_g162_h123_t39 -1 x_r0_g123 <= 0 ;
1 p_r0_g162_h123_t39 -1 x_r0_g162 -1 x_r0_g123 >= -1 ;
1 p_r1_g15_h143_t39 -1 x_r1_g15 <= 0 ;
1 p_r1_g15_h143_t39 -1 x_r1_g143 <= 0 ;
1 p_r1_g15_h143_t39 -1 x_r1_g15 -1 x_r1_g143 >= -1 ;
1 p_r1_g64_h25_t39 -1 x_r1_g64 <= 0 ;
1 p_r1_g64_h25_t39 -1 x_r1_g25 <= 0 ;
1 p_r1_g64_h25_t39 -1 x_r1_g64 -1 x_r1_g25 >= -1 ;
1 p_r1_g114_h75_t39 -1 x_r1_g114 <= 0 ;
1 p_r1_g114_h75_t39 -1 x_r1_g75 <= 0 ;
1 p_r1_g114_h75_t39 -1 x_r1_g114 -1 x_r1_g75 >= -1 ;
1 p_r1_g132_h93_t39 -1 x_r1_g132 <= 0 ;
1 p_r1_g132_h93_t39 -1 x_r1_g93 <= 0 ;
1 p_r1_g132_h93_t39 -1 x_r1_g132 -1 x_r1_g93 >= -1 ;
1 p_r1_g146_h107_t39 -1 x_r1_g146 <= 0 ;
1 p_r1_g146_h107_t39 -1 x_r1_g107 <= 0 ;
1 p_r1_g146_h107_t39 -1 x_r1_g146 -1 x_r1_g107 >= -1 ;
1 p_r2_g30_h158_t39 -1 x_r2_g30 <= 0 ;
1 p_r2_g30_h158_t39 -1 x_r2_g158 <= 0 ;
1 p_r2_g30_h158_t39 -1 x_r2_g30 -1 x_r2_g158 >= -1 ;
1 p_r2_g34_h162_t39 -1 x_r2_g34 <= 0 ;
1 p_r2_g34_h162_t39 -1 x_r2_g162 <= 0 ;
1 p_r2_g34_h162_t39 -1 x_r2_g34 -1 x_r2_g162 >= -1 ;
1 p_r2_g73_h34_t39 -1 x_r2_g73 <= 0 ;
1 p_r2_g73_h34_t39 -1 x_r2_g34 <= 0 ;
1 p_r2_g73_h34_t39 -1 x_r2_g73 -1 x_r2_g34 >= -1 ;
1 p_r2_g139_h100_t39 -1 x_r2_g139 <= 0 ;
1 p_r2_g139_h100_t39 -1 x_r2_g100 <= 0 ;
1 p_r2_g139_h100_t39 -1 x_r2_g139 -1 x_r2_g100 >= -1 ;
1 p_r2_g149_h110_t39 -1 x_r2_g149 <= 0 ;
1 p_r2_g149_h110_t39 -1 x_r2_g110 <= 0 ;
1 p_r2_g149_h110_t39 -1 x_r2_g149 -1 x_r2_g110 >= -1 ;
1 p_r2_g159_h120_t39 -1 x_r2_g159 <= 0 ;
1 p_r2_g159_h120_t39 -1 x_r2_g120 <= 0 ;
1 p_r2_g159_h120_t39 -1 x_r2_g159 -1 x_r2_g120 >= -1 ;
1 p_r3_g16_h144_t39 -1 x_r3_g16 <= 0 ;
1 p_r3_g16_h144_t39 -1 x_r3_g144 <= 0 ;
1 p_r3_g16_h144_t39 -1 x_r3_g16 -1 x_r3_g144 >= -1 ;
1 p_r3_g19_h147_t39 -1 x_r3_g19 <= 0 ;
1 p_r3_g19_h147_t39 -1 x_r3_g147 <= 0 ;
1 p_r3_g19_h147_t39 -1 x_r3_g19 -1 x_r3_g147 >= -1 ;
1 p_r3_g34_h162_t39 -1 x_r3_g34 <= 0 ;
1 p_r3_g34_h162_t39 -1 x_r3_g162 <= 0 ;
1 p_r3_g34_h162_t39 -1 x_r3_g34 -1 x_r3_g162 >= -1 ;
1 p_r3_g57_h18_t39 -1 x_r3_g57 <= 0 ;
1 p_r3_g57_h18_t39 -1 x_r3_g18 <= 0 ;
1 p_r3_g57_h18_t39 -1 x_r3_g57 -1 x_r3_g18 >= -1 ;
1 p_r3_g72_h33_t39 -1 x_r3_g72 <= 0 ;
1 p_r3_g72_h33_t39 -1 x_r3_g33 <= 0 ;
1 p_r3_g72_h33_t39 -1 x_r3_g72 -1 x_r3_g33 >= -1 ;
1 p_r3_g111_h72_t39 -1 x_r3_g111 <= 0 ;
1 p_r3_g111_h72_t39 -1 x_r3_g72 <= 0 ;
1 p_r3_g111_h72_t39 -1 x_r3_g111 -1 x_r3_g72 >= -1 ;
1 p_r3_g145_h106_t39 -1 x_r3_g145 <= 0 ;
1 p_r3_g145_h106_t39 -1 x_r3_g106 <= 0 ;
1 p_r3_g145_h106_t39 -1 x_r3_g145 -1 x_r3_g106 >= -1 ;
1 p_r3_g162_h123_t39 -1 x_r3_g162 <= 0 ;
1 p_r3_g162_h123_t39 -1 x_r3_g123 <= 0 ;
1 p_r3_g162_h123_t39 -1 x_r3_g162 -1 x_r3_g123 >= -1 ;
1 d_39 -1 x_r0_g1 -2 x_r0_g4 -1 x_r0_g9 -1 x_r0_g14 -1 x_r0_g20 -2 x_r0_g23 -1 x_r0_g26 -1 x_r0_g32 -2 x_r0_g35 -1 x_r0_g37 -1 x_r0_g54 -1 x_r0_g67 -1 x_r0_g69 -1 x_r0_g79 -1 x_r0_g84 -1 x_r0_g87 -2 x_r0_g97 -1 x_r0_g101 -1 x_r0_g102 -1 x_r0_g118 -1 x_r0_g121 -1 x_r0_g131 -1 x_r0_g143 -1 x_r1_g13 -1 x_r1_g17 -1 x_r1_g30 -2 x_r1_g31 -1 x_r1_g35 -1 x_r1_g38 -2 x_r1_g59 -1 x_r1_g64 -1 x_r1_g75 -2 x_r1_g76 -1 x_r1_g80 -1 x_r1_g83 -1 x_r1_g91 -1 x_r1_g96 -1 x_r1_g107 -1 x_r1_g108 -2 x_r1_g117 -2 x_r1_g121 -1 x_r1_g126 -1 x_r1_g128 -1 x_r1_g146 -2 x_r1_g154 -2 x_r1_g155 -1 x_r1_g157 -2 x_r2_g2 -1 x_r2_g18 -2 x_r2_g29 -1 x_r2_g48 -1 x_r2_g60 -1 x_r2_g62 -1 x_r2_g64 -2 x_r2_g66 -1 x_r2_g67 -1 x_r2_g70 -1 x_r2_g73 -1 x_r2_g74 -1 x_r2_g77 -2 x_r2_g80 -2 x_r2_g82 -1 x_r2_g91 -2 x_r2_g95 -1 x_r2_g98 -1 x_r2_g100 -2 x_r2_g107 -1 x_r2_g111 -1 x_r2_g128 -1 x_r2_g135 -1 x_r2_g142 -1 x_r2_g149 -1 x_r2_g152 -2 x_r2_g155 -1 x_r2_g158 -1 x_r2_g159 -1 x_r2_g165 -1 x_r3_g7 -1 x_r3_g8 -1 x_r3_g11 -1 x_r3_g15 -1 x_r3_g16 -1 x_r3_g27 -1 x_r3_g36 -1 x_r3_g51 -1 x_r3_g56 -1 x_r3_g65 -1 x_r3_g77 -2 x_r3_g79 -1 x_r3_g94 -1 x_r3_g103 -1 x_r3_g113 -1 x_r3_g121 -1 x_r3_g124 -1 x_r3_g125 -1 x_r3_g128 -1 x_r3_g138 -1 x_r3_g145 -1 x_r3_g147 -1 x_r3_g154 -1 x_r3_g165 -1 p_r0_g25_h153_t39 -1 p_r0_g34_h162_t39 -1 p_r0_g48_h9_t39 -1 p_r0_g67_h28_t39 -1 p_r0_g87_h48_t39 -1 p_r0_g118_h79_t39 -1 p_r0_g123_h84_t39 -1 p_r0_g162_h123_t39 -1 p_r1_g15_h143_t39 -1 p_r1_g64_h25_t39 -1 p_r1_g114_h75_t39 -1 p_r1_g132_h93_t39 -1 p_r1_g146_h107_t39 -1 p_r2_g30_h158_t39 -1 p_r2_g34_h162_t39 -1 p_r2_g73_h34_t39 -1 p_r2_g139_h100_t39 -1 p_r2_g149_h110_t39 -1 p_r2_g159_h120_t39 -1 p_r3_g16_h144_t39 -1 p_r3_g19_h147_t39 -1 p_r3_g34_h162_t39 -1 p_r3_g57_h18_t39 -1 p_r3_g72_h33_t39 -1 p_r3_g111_h72_t39 -1 p_r3_g145_h106_t39 -1 p_r3_g162_h123_t39 = -54 ;
1 d_39 -1 u_39 <= 0 ;
-1 d_39 -1 u_39 <= 0 ;
1 u_39 -1 M <= 0 ;
1 u_39 <= 2 ;
1 p_r0_g7_h130_t44 -1 x_r0_g7 <= 0 ;
1 p_r0_g7_h130_t44 -1 x_r0_g130 <= 0 ;
1 p_r0_g7_h130_t44 -1 x_r0_g7 -1 x_r0_g130 >= -1 ;
1 p_r0_g20_h143_t44 -1 x_r0_g20 <= 0 ;
1 p_r0_g20_h143_t44 -1 x_r0_g143 <= 0 ;
1 p_r0_g20_h143_t44 -1 x_r0_g20 -1 x_r0_g143 >= -1 ;
1 p_r0_g48_h4_t44 -1 x_r0_g48 <= 0 ;
1 p_r0_g48_h4_t44 -1 x_r0_g4 <= 0 ;
1 p_r0_g48_h4_t44 -1 x_r0_g48 -1 x_r0_g4 >= -1 ;
1 p_r0_g67_h23_t44 -1 x_r0_g67 <= 0 ;
1 p_r0_g67_h23_t44 -1 x_r0_g23 <= 0 ;
1 p_r0_g67_h23_t44 -1 x_r0_g67 -1 x_r0_g23 >= -1 ;
1 p_r0_g69_h25_t44 -1 x_r0_g69 <= 0 ;
1 p_r0_g69_h25_t44 -1 x_r0_g25 <= 0 ;
1 p_r0_g69_h25_t44 -1 x_r0_g69 -1 x_r0_g25 >= -1 ;
1 p_r0_g70_h26_t44 -1 x_r0_g70 <= 0 ;
1 p_r0_g70_h26_t44 -1 x_r0_g26 <= 0 ;
1 p_r0_g70_h26_t44 -1 x_r0_g70 -1 x_r0_g26 >= -1 ;
1 p_r0_g79_h35_t44 -1 x_r0_g79 <= 0 ;
1 p_r0_g79_h35_t44 -1 x_r0_g35 <= 0 ;
1 p_r0_g79_h35_t44 -1 x_r0_g79 -1 x_r0_g35 >= -1 ;
1 p_r0_g123_h79_t44 -1 x_r0_g123 <= 0 ;
1 p_r0_g123_h79_t44 -1 x_r0_g79 <= 0 ;
1 p_r0_g123_h79_t44 -1 x_r0_g123 -1 x_r0_g79 >= -1 ;
1 p_r0_g131_h87_t44 -1 x_r0_g131 <= 0 ;
1 p_r0_g131_h87_t44 -1 x_r0_g87 <= 0 ;
1 p_r0_g131_h87_t44 -1 x_r0_g131 -1 x_r0_g87 >= -1 ;
1 p_r0_g162_h118_t44 -1 x_r0_g162 <= 0 ;
1 p_r0_g162_h118_t44 -1 x_r0_g118 <= 0 ;
1 p_r0_g162_h118_t44 -1 x_r0_g162 -1 x_r0_g118 >= -1 ;
1 p_r1_g31_h154_t44 -1 x_r1_g31 <= 0 ;
1 p_r1_g31_h154_t44 -1 x_r1_g154 <= 0 ;
1 p_r1_g31_h154_t44 -1 x_r1_g31 -1 x_r1_g154 >= -1 ;
1 p_r1_g38_h161_t44 -1 x_r1_g38 <= 0 ;
1 p_r1_g38_h161_t44 -1 x_r1_g161 <= 0 ;
1 p_r1_g38_h161_t44 -1 x_r1_g38 -1 x_r1_g161 >= -1 ;
1 p_r1_g59_h15_t44 -1 x_r1_g59 <= 0 ;
1 p_r1_g59_h15_t44 -1 x_r1_g15 <= 0 ;
1 p_r1_g59_h15_t44 -1 x_r1_g59 -1 x_r1_g15 >= -1 ;
1 p_r1_g75_h31_t44 -1 x_r1_g75 <= 0 ;
1 p_r1_g75_h31_t44 -1 x_r1_g31 <= 0 ;
1 p_r1_g75_h31_t44 -1 x_r1_g75 -1 x_r1_g31 >= -1 ;
1 p_r1_g108_h64_t44 -1 x_r1_g108 <= 0 ;
1 p_r1_g108_h64_t44 -1 x_r1_g64 <= 0 ;
1 p_r1_g108_h64_t44 -1 x_r1_g108 -1 x_r1_g64 >= -1 ;
1 p_r1_g111_h67_t44 -1 x_r1_g111 <= 0 ;
1 p_r1_g111_h67_t44 -1 x_r1_g67 <= 0 ;
1 p_r1_g111_h67_t44 -1 x_r1_g111 -1 x_r1_g67 >= -1 ;
1 p_r1_g154_h110_t44 -1 x_r1_g154 <= 0 ;
1 p_r1_g154_h110_t44 -1 x_r1_g110 <= 0 ;
1 p_r1_g154_h110_t44 -1 x_r1_g154 -1 x_r1_g110 >= -1 ;
1 p_r1_g155_h111_t44 -1 x_r1_g155 <= 0 ;
1 p_r1_g155_h111_t44 -1 x_r1_g111 <= 0 ;
1 p_r1_g155_h111_t44 -1 x_r1_g155 -1 x_r1_g111 >= -1 ;
1 p_r1_g157_h113_t44 -1 x_r1_g157 <= 0 ;
1 p_r1_g157_h113_t44 -1 x_r1_g113 <= 0 ;
1 p_r1_g157_h113_t44 -1 x_r1_g157 -1 x_r1_g113 >= -1 ;
1 p_r1_g161_h117_t44 -1 x_r1_g161 <= 0 ;
1 p_r1_g161_h117_t44 -1 x_r1_g117 <= 0 ;
1 p_r1_g161_h117_t44 -1 x_r1_g161 -1 x_r1_g117 >= -1 ;
1 p_r2_g29_h152_t44 -1 x_r2_g29 <= 0 ;
1 p_r2_g29_h152_t44 -1 x_r2_g152 <= 0 ;
1 p_r2_g29_h152_t44 -1 x_r2_g29 -1 x_r2_g152 >= -1 ;
1 p_r2_g62_h18_t44 -1 x_r2_g62 <= 0 ;
1 p_r2_g62_h18_t44 -1 x_r2_g18 <= 0 ;
1 p_r2_g62_h18_t44 -1 x_r2_g62 -1 x_r2_g18 >= -1 ;
1 p_r2_g73_h29_t44 -1 x_r2_g73 <= 0 ;
1 p_r2_g73_h29_t44 -1 x_r2_g29 <= 0 ;
1 p_r2_g73_h29_t44 -1 x_r2_g73 -1 x_r2_g29 >= -1 ;
1 p_r2_g74_h30_t44 -1 x_r2_g74 <= 0 ;
1 p_r2_g74_h30_t44 -1 x_r2_g30 <= 0 ;
1 p_r2_g74_h30_t44 -1 x_r2_g74 -1 x_r2_g30 >= -1 ;
1 p_r2_g110_h66_t44 -1 x_r2_g110 <= 0 ;
1 p_r2_g110_h66_t44 -1 x_r2_g66 <= 0 ;
1 p_r2_g110_h66_t44 -1 x_r2_g110 -1 x_r2_g66 >= -1 ;
1 p_r2_g111_h67_t44 -1 x_r2_g111 <= 0 ;
1 p_r2_g111_h67_t44 -1 x_r2_g67 <= 0 ;
1 p_r2_g111_h67_t44 -1 x_r2_g111 -1 x_r2_g67 >= -1 ;
1 p_r2_g135_h91_t44 -1 x_r2_g135 <= 0 ;
1 p_r2_g135_h91_t44 -1 x_r2_g91 <= 0 ;
1 p_r2_g135_h91_t44 -1 x_r2_g135 -1 x_r2_g91 >= -1 ;
1 p_r2_g139_h95_t44 -1 x_r2_g139 <= 0 ;
1 p_r2_g139_h95_t44 -1 x_r2_g95 <= 0 ;
1 p_r2_g139_h95_t44 -1 x_r2_g139 -1 x_r2_g95 >= -1 ;
1 p_r2_g142_h98_t44 -1 x_r2_g142 <= 0 ;
1 p_r2_g142_h98_t44 -1 x_r2_g98 <= 0 ;
1 p_r2_g142_h98_t44 -1 x_r2_g142 -1 x_r2_g98 >= -1 ;
1 p_r2_g155_h111_t44 -1 x_r2_g155 <= 0 ;
1 p_r2_g155_h111_t44 -1 x_r2_g111 <= 0 ;
1 p_r2_g155_h111_t44 -1 x_r2_g155 -1 x_r2_g111 >= -1 ;
1 p_r2_g164_h120_t44 -1 x_r2_g164 <= 0 ;
1 p_r2_g164_h120_t44 -1 x_r2_g120 <= 0 ;
1 p_r2_g164_h120_t44 -1 x_r2_g164 -1 x_r2_g120 >= -1 ;
1 p_r3_g15_h138_t44 -1 x_r3_g15 <= 0 ;
1 p_r3_g15_h138_t44 -1 x_r3_g138 <= 0 ;
1 p_r3_g15_h138_t44 -1 x_r3_g15 -1 x_r3_g138 >= -1 ;
1 p_r3_g36_h159_t44 -1 x_r3_g36 <= 0 ;
1 p_r3_g36_h159_t44 -1 x_r3_g159 <= 0 ;
1 p_r3_g36_h159_t44 -1 x_r3_g36 -1 x_r3_g159 >= -1 ;
1 p_r3_g51_h7_t44 -1 x_r3_g51 <= 0 ;
1 p_r3_g51_h7_t44 -1 x_r3_g7 <= 0 ;
1 p_r3_g51_h7_t44 -1 x_r3_g51 -1 x_r3_g7 >= -1 ;
1 p_r3_g57_h13_t44 -1 x_r3_g57 <= 0 ;
1 p_r3_g57_h13_t44 -1 x_r3_g13 <= 0 ;
1 p_r3_g57_h13_t44 -1 x_r3_g57 -1 x_r3_g13 >= -1 ;
1 p_r3_g77_h33_t44 -1 x_r3_g77 <= 0 ;
1 p_r3_g77_h33_t44 -1 x_r3_g33 <= 0 ;
1 p_r3_g77_h33_t44 -1 x_r3_g77 -1 x_r3_g33 >= -1 ;
1 p_r3_g121_h77_t44 -1 x_r3_g121 <= 0 ;
1 p_r3_g121_h77_t44 -1 x_r3_g77 <= 0 ;
1 p_r3_g121_h77_t44 -1 x_r3_g121 -1 x_r3_g77 >= -1 ;
1 p_r3_g123_h79_t44 -1 x_r3_g123 <= 0 ;
1 p_r3_g123_h79_t44 -1 x_r3_g79 <= 0 ;
1 p_r3_g123_h79_t44 -1 x_r3_g123 -1 x_r3_g79 >= -1 ;
1 p_r3_g138_h94_t44 -1 x_r3_g138 <= 0 ;
1 p_r3_g138_h94_t44 -1 x_r3_g94 <= 0 ;
1 p_r3_g138_h94_t44 -1 x_r3_g138 -1 x_r3_g94 >= -1 ;
1 p_r3_g147_h103_t44 -1 x_r3_g147 <= 0 ;
1 p_r3_g147_h103_t44 -1 x_r3_g103 <= 0 ;
1 p_r3_g147_h103_t44 -1 x_r3_g147 -1 x_r3_g103 >= -1 ;
1 p_r3_g165_h121_t44 -1 x_r3_g165 <= 0 ;
1 p_r3_g165_h121_t44 -1 x_r3_g121 <= 0 ;
1 p_r3_g165_h121_t44 -1 x_r3_g165 -1 x_r3_g121 >= -1 ;
1 d_44 -1 x_r0_g1 -1 x_r0_g4 -1 x_r0_g7 -1 x_r0_g9 -2 x_r0_g14 -1 x_r0_g23 -1 x_r0_g26 -1 x_r0_g28 -1 x_r0_g32 -1 x_r0_g34 -1 x_r0_g35 -1 x_r0_g36 -1 x_r0_g37 -1 x_r0_g47 -1 x_r0_g54 -1 x_r0_g69 -1 x_r0_g84 -1 x_r0_g87 -2 x_r0_g102 -1 x_r0_g118 -2 x_r0_g121 -1 x_r0_g144 -1 x_r0_g153 -1 x_r1_g13 -1 x_r1_g15 -1 x_r1_g17 -1 x_r1_g25 -1 x_r1_g35 -1 x_r1_g38 -1 x_r1_g59 -1 x_r1_g62 -1 x_r1_g64 -1 x_r1_g75 -1 x_r1_g76 -2 x_r1_g80 -2 x_r1_g83 -1 x_r1_g90 -1 x_r1_g93 -1 x_r1_g96 -1 x_r1_g110 -1 x_r1_g113 -1 x_r1_g114 -2 x_r1_g126 -1 x_r1_g128 -1 x_r1_g132 -1 x_r1_g143 -1 x_r1_g155 -1 x_r2_g2 -1 x_r2_g30 -2 x_r2_g34 -1 x_r2_g48 -1 x_r2_g60 -1 x_r2_g64 -2 x_r2_g70 -2 x_r2_g77 -1 x_r2_g82 -1 x_r2_g86 -1 x_r2_g100 -2 x_r2_g107 -2 x_r2_g149 -1 x_r2_g158 -1 x_r2_g159 -1 x_r2_g162 -1 x_r2_g163 -1 x_r2_g164 -1 x_r2_g165 -1 x_r3_g3 -2 x_r3_g11 -1 x_r3_g15 -1 x_r3_g16 -1 x_r3_g18 -1 x_r3_g19 -1 x_r3_g34 -1 x_r3_g36 -1 x_r3_g53 -1 x_r3_g56 -1 x_r3_g72 -1 x_r3_g91 -1 x_r3_g103 -1 x_r3_g106 -2 x_r3_g124 -2 x_r3_g125 -1 x_r3_g128 -1 x_r3_g145 -1 x_r3_g154 -2 x_r3_g162 -1 p_r0_g7_h130_t44 -1 p_r0_g20_h143_t44 -1 p_r0_g48_h4_t44 -1 p_r0_g67_h23_t44 -1 p_r0_g69_h25_t44 -1 p_r0_g70_h26_t44 -1 p_r0_g79_h35_t44 -1 p_r0_g123_h79_t44 -1 p_r0_g131_h87_t44 -1 p_r0_g162_h118_t44 -1 p_r1_g31_h154_t44 -1 p_r1_g38_h161_t44 -1 p_r1_g59_h15_t44 -1 p_r1_g75_h31_t44 -1 p_r1_g108_h64_t44 -1 p_r1_g111_h67_t44 -1 p_r1_g154_h110_t44 -1 p_r1_g155_h111_t44 -1 p_r1_g157_h113_t44 -1 p_r1_g161_h117_t44 -1 p_r2_g29_h152_t44 -1 p_r2_g62_h18_t44 -1 p_r2_g73_h29_t44 -1 p_r2_g74_h30_t44 -1 p_r2_g110_h66_t44 -1 p_r2_g111_h67_t44 -1 p_r2_g135_h91_t44 -1 p_r2_g139_h95_t44 -1 p_r2_g142_h98_t44 -1 p_r2_g155_h111_t44 -1 p_r2_g164_h120_t44 -1 p_r3_g15_h138_t44 -1 p_r3_g36_h159_t44 -1 p_r3_g51_h7_t44 -1 p_r3_g57_h13_t44 -1 p_r3_g77_h33_t44 -1 p_r3_g121_h77_t44 -1 p_r3_g123_h79_t44 -1 p_r3_g138_h94_t44 -1 p_r3_g147_h103_t44 -1 p_r3_g165_h121_t44 = -54 ;
1 d_44 -1 u_44 <= 0 ;
-1 d_44 -1 u_44 <= 0 ;
1 u_44 -1 M <= 0 ;
1 u_44 <= 1 ;
1 p_r0_g1_h118_t50 -1 x_r0_g1 <= 0 ;
1 p_r0_g1_h118_t50 -1 x_r0_g118 <= 0 ;
1 p_r0_g1_h118_t50 -1 x_r0_g1 -1 x_r0_g118 >= -1 ;
1 p_r0_g4_h121_t50 -1 x_r0_g4 <= 0 ;
1 p_r0_g4_h121_t50 -1 x_r0_g121 <= 0 ;
1 p_r0_g4_h121_t50 -1 x_r0_g4 -1 x_r0_g121 >= -1 ;
1 p_r0_g14_h131_t50 -1 x_r0_g14 <= 0 ;
1 p_r0_g14_h131_t50 -1 x_r0_g131 <= 0 ;
1 p_r0_g14_h131_t50 -1 x_r0_g14 -1 x_r0_g131 >= -1 ;
1 p_r0_g26_h143_t50 -1 x_r0_g26 <= 0 ;
1 p_r0_g26_h143_t50 -1 x_r0_g143 <= 0 ;
1 p_r0_g26_h143_t50 -1 x_r0_g26 -1 x_r0_g143 >= -1 ;
1 p_r0_g36_h153_t50 -1 x_r0_g36 <= 0 ;
1 p_r0_g36_h153_t50 -1 x_r0_g153 <= 0 ;
1 p_r0_g36_h153_t50 -1 x_r0_g36 -1 x_r0_g153 >= -1 ;
1 p_r0_g54_h4_t50 -1 x_r0_g54 <= 0 ;
1 p_r0_g54_h4_t50 -1 x_r0_g4 <= 0 ;
1 p_r0_g54_h4_t50 -1 x_r0_g54 -1 x_r0_g4 >= -1 ;
1 p_r0_g67_h17_t50 -1 x_r0_g67 <= 0 ;
1 p_r0_g67_h17_t50 -1 x_r0_g17 <= 0 ;
1 p_r0_g67_h17_t50 -1 x_r0_g67 -1 x_r0_g17 >= -1 ;
1 p_r0_g70_h20_t50 -1 x_r0_g70 <= 0 ;
1 p_r0_g70_h20_t50 -1 x_r0_g20 <= 0 ;
1 p_r0_g70_h20_t50 -1 x_r0_g70 -1 x_r0_g20 >= -1 ;
1 p_r0_g84_h34_t50 -1 x_r0_g84 <= 0 ;
1 p_r0_g84_h34_t50 -1 x_r0_g34 <= 0 ;
1 p_r0_g84_h34_t50 -1 x_r0_g84 -1 x_r0_g34 >= -1 ;
1 p_r0_g87_h37_t50 -1 x_r0_g87 <= 0 ;
1 p_r0_g87_h37_t50 -1 x_r0_g37 <= 0 ;
1 p_r0_g87_h37_t50 -1 x_r0_g87 -1 x_r0_g37 >= -1 ;
1 p_r0_g97_h47_t50 -1 x_r0_g97 <= 0 ;
1 p_r0_g97_h47_t50 -1 x_r0_g47 <= 0 ;
1 p_r0_g97_h47_t50 -1 x_r0_g97 -1 x_r0_g47 >= -1 ;
1 p_r0_g118_h68_t50 -1 x_r0_g118 <= 0 ;
1 p_r0_g118_h68_t50 -1 x_r0_g68 <= 0 ;
1 p_r0_g118_h68_t50 -1 x_r0_g118 -1 x_r0_g68 >= -1 ;
1 p_r1_g11_h128_t50 -1 x_r1_g11 <= 0 ;
1 p_r1_g11_h128_t50 -1 x_r1_g128 <= 0 ;
1 p_r1_g11_h128_t50 -1 x_r1_g11 -1 x_r1_g128 >= -1 ;
1 p_r1_g15_h132_t50 -1 x_r1_g15 <= 0 ;
1 p_r1_g15_h132_t50 -1 x_r1_g132 <= 0 ;
1 p_r1_g15_h132_t50 -1 x_r1_g15 -1 x_r1_g132 >= -1 ;
1 p_r1_g38_h155_t50 -1 x_r1_g38 <= 0 ;
1 p_r1_g38_h155_t50 -1 x_r1_g155 <= 0 ;
1 p_r1_g38_h155_t50 -1 x_r1_g38 -1 x_r1_g155 >= -1 ;
1 p_r1_g67_h17_t50 -1 x_r1_g67 <= 0 ;
1 p_r1_g67_h17_t50 -1 x_r1_g17 <= 0 ;
1 p_r1_g67_h17_t50 -1 x_r1_g67 -1 x_r1_g17 >= -1 ;
1 p_r1_g75_h25_t50 -1 x_r1_g75 <= 0 ;
1 p_r1_g75_h25_t50 -1 x_r1_g25 <= 0 ;
1 p_r1_g75_h25_t50 -1 x_r1_g75 -1 x_r1_g25 >= -1 ;
1 p_r1_g80_h30_t50 -1 x_r1_g80 <= 0 ;
1 p_r1_g80_h30_t50 -1 x_r1_g30 <= 0 ;
1 p_r1_g80_h30_t50 -1 x_r1_g80 -1 x_r1_g30 >= -1 ;
1 p_r1_g114_h64_t50 -1 x_r1_g114 <= 0 ;
1 p_r1_g114_h64_t50 -1 x_r1_g64 <= 0 ;
1 p_r1_g114_h64_t50 -1 x_r1_g114 -1 x_r1_g64 >= -1 ;
1 p_r1_g117_h67_t50 -1 x_r1_g117 <= 0 ;
1 p_r1_g117_h67_t50 -1 x_r1_g67 <= 0 ;
1 p_r1_g117_h67_t50 -1 x_r1_g117 -1 x_r1_g67 >= -1 ;
1 p_r1_g126_h76_t50 -1 x_r1_g126 <= 0 ;
1 p_r1_g126_h76_t50 -1 x_r1_g76 <= 0 ;
1 p_r1_g126_h76_t50 -1 x_r1_g126 -1 x_r1_g76 >= -1 ;
1 p_r1_g143_h93_t50 -1 x_r1_g143 <= 0 ;
1 p_r1_g143_h93_t50 -1 x_r1_g93 <= 0 ;
1 p_r1_g143_h93_t50 -1 x_r1_g143 -1 x_r1_g93 >= -1 ;
1 p_r1_g146_h96_t50 -1 x_r1_g146 <= 0 ;
1 p_r1_g146_h96_t50 -1 x_r1_g96 <= 0 ;
1 p_r1_g146_h96_t50 -1 x_r1_g146 -1 x_r1_g96 >= -1 ;
1 p_r1_g157_h107_t50 -1 x_r1_g157 <= 0 ;
1 p_r1_g157_h107_t50 -1 x_r1_g107 <= 0 ;
1 p_r1_g157_h107_t50 -1 x_r1_g157 -1 x_r1_g107 >= -1 ;
1 p_r1_g161_h111_t50 -1 x_r1_g161 <= 0 ;
1 p_r1_g161_h111_t50 -1 x_r1_g111 <= 0 ;
1 p_r1_g161_h111_t50 -1 x_r1_g161 -1 x_r1_g111 >= -1 ;
1 p_r2_g18_h135_t50 -1 x_r2_g18 <= 0 ;
1 p_r2_g18_h135_t50 -1 x_r2_g135 <= 0 ;
1 p_r2_g18_h135_t50 -1 x_r2_g18 -1 x_r2_g135 >= -1 ;
1 p_r2_g48_h165_t50 -1 x_r2_g48 <= 0 ;
1 p_r2_g48_h165_t50 -1 x_r2_g165 <= 0 ;
1 p_r2_g48_h165_t50 -1 x_r2_g48 -1 x_r2_g165 >= -1 ;
1 p_r2_g80_h30_t50 -1 x_r2_g80 <= 0 ;
1 p_r2_g80_h30_t50 -1 x_r2_g30 <= 0 ;
1 p_r2_g80_h30_t50 -1 x_r2_g80 -1 x_r2_g30 >= -1 ;
1 p_r2_g98_h48_t50 -1 x_r2_g98 <= 0 ;
1 p_r2_g98_h48_t50 -1 x_r2_g48 <= 0 ;
1 p_r2_g98_h48_t50 -1 x_r2_g98 -1 x_r2_g48 >= -1 ;
1 p_r2_g110_h60_t50 -1 x_r2_g110 <= 0 ;
1 p_r2_g110_h60_t50 -1 x_r2_g60 <= 0 ;
1 p_r2_g110_h60_t50 -1 x_r2_g110 -1 x_r2_g60 >= -1 ;
1 p_r2_g120_h70_t50 -1 x_r2_g120 <= 0 ;
1 p_r2_g120_h70_t50 -1 x_r2_g70 <= 0 ;
1 p_r2_g120_h70_t50 -1 x_r2_g120 -1 x_r2_g70 >= -1 ;
1 p_r2_g136_h86_t50 -1 x_r2_g136 <= 0 ;
1 p_r2_g136_h86_t50 -1 x_r2_g86 <= 0 ;
1 p_r2_g136_h86_t50 -1 x_r2_g136 -1 x_r2_g86 >= -1 ;
1 p_r3_g7_h124_t50 -1 x_r3_g7 <= 0 ;
1 p_r3_g7_h124_t50 -1 x_r3_g124 <= 0 ;
1 p_r3_g7_h124_t50 -1 x_r3_g7 -1 x_r3_g124 >= -1 ;
1 p_r3_g8_h125_t50 -1 x_r3_g8 <= 0 ;
1 p_r3_g8_h125_t50 -1 x_r3_g125 <= 0 ;
1 p_r3_g8_h125_t50 -1 x_r3_g8 -1 x_r3_g125 >= -1 ;
1 p_r3_g11_h128_t50 -1 x_r3_g11 <= 0 ;
1 p_r3_g11_h128_t50 -1 x_r3_g128 <= 0 ;
1 p_r3_g11_h128_t50 -1 x_r3_g11 -1 x_r3_g128 >= -1 ;
1 p_r3_g27_h144_t50 -1 x_r3_g27 <= 0 ;
1 p_r3_g27_h144_t50 -1 x_r3_g144 <= 0 ;
1 p_r3_g27_h144_t50 -1 x_r3_g27 -1 x_r3_g144 >= -1 ;
1 p_r3_g53_h3_t50 -1 x_r3_g53 <= 0 ;
1 p_r3_g53_h3_t50 -1 x_r3_g3 <= 0 ;
1 p_r3_g53_h3_t50 -1 x_r3_g53 -1 x_r3_g3 >= -1 ;
1 p_r3_g57_h7_t50 -1 x_r3_g57 <= 0 ;
1 p_r3_g57_h7_t50 -1 x_r3_g7 <= 0 ;
1 p_r3_g57_h7_t50 -1 x_r3_g57 -1 x_r3_g7 >= -1 ;
1 p_r3_g65_h15_t50 -1 x_r3_g65 <= 0 ;
1 p_r3_g65_h15_t50 -1 x_r3_g15 <= 0 ;
1 p_r3_g65_h15_t50 -1 x_r3_g65 -1 x_r3_g15 >= -1 ;
1 p_r3_g77_h27_t50 -1 x_r3_g77 <= 0 ;
1 p_r3_g77_h27_t50 -1 x_r3_g27 <= 0 ;
1 p_r3_g77_h27_t50 -1 x_r3_g77 -1 x_r3_g27 >= -1 ;
1 p_r3_g103_h53_t50 -1 x_r3_g103 <= 0 ;
1 p_r3_g103_h53_t50 -1 x_r3_g53 <= 0 ;
1 p_r3_g103_h53_t50 -1 x_r3_g103 -1 x_r3_g53 >= -1 ;
1 p_r3_g106_h56_t50 -1 x_r3_g106 <= 0 ;
1 p_r3_g106_h56_t50 -1 x_r3_g56 <= 0 ;
1 p_r3_g106_h56_t50 -1 x_r3_g106 -1 x_r3_g56 >= -1 ;
1 p_r3_g144_h94_t50 -1 x_r3_g144 <= 0 ;
1 p_r3_g144_h94_t50 -1 x_r3_g94 <= 0 ;
1 p_r3_g144_h94_t50 -1 x_r3_g144 -1 x_r3_g94 >= -1 ;
1 d_50 -1 x_r0_g1 -2 x_r0_g9 -1 x_r0_g20 -1 x_r0_g22 -1 x_r0_g25 -1 x_r0_g32 -1 x_r0_g34 -1 x_r0_g35 -2 x_r0_g48 -2 x_r0_g69 -1 x_r0_g70 -1 x_r0_g87 -2 x_r0_g101 -2 x_r0_g102 -1 x_r0_g123 -1 x_r0_g130 -1 x_r0_g153 -1 x_r0_g162 -1 x_r1_g13 -1 x_r1_g15 -1 x_r1_g31 -1 x_r1_g38 -2 x_r1_g53 -1 x_r1_g59 -1 x_r1_g62 -1 x_r1_g76 -1 x_r1_g80 -2 x_r1_g90 -1 x_r1_g91 -1 x_r1_g96 -1 x_r1_g107 -1 x_r1_g110 -1 x_r1_g113 -1 x_r1_g114 -1 x_r1_g128 -1 x_r1_g132 -1 x_r1_g143 -1 x_r1_g146 -1 x_r1_g154 -1 x_r1_g157 -1 x_r1_g161 -1 x_r2_g2 -1 x_r2_g18 -1 x_r2_g29 -1 x_r2_g34 -1 x_r2_g62 -2 x_r2_g64 -1 x_r2_g66 -1 x_r2_g70 -1 x_r2_g77 -1 x_r2_g80 -1 x_r2_g82 -1 x_r2_g91 -1 x_r2_g98 -1 x_r2_g100 -1 x_r2_g107 -1 x_r2_g110 -2 x_r2_g111 -1 x_r2_g128 -1 x_r2_g135 -1 x_r2_g142 -1 x_r2_g152 -1 x_r2_g155 -1 x_r2_g158 -1 x_r2_g162 -2 x_r2_g163 -1 x_r2_g164 -1 x_r2_g165 -1 x_r3_g11 -1 x_r3_g15 -1 x_r3_g16 -1 x_r3_g18 -1 x_r3_g33 -1 x_r3_g34 -1 x_r3_g36 -1 x_r3_g51 -1 x_r3_g56 -2 x_r3_g72 -1 x_r3_g77 -1 x_r3_g79 -1 x_r3_g91 -1 x_r3_g111 -1 x_r3_g113 -1 x_r3_g121 -1 x_r3_g123 -1 x_r3_g124 -1 x_r3_g125 -1 x_r3_g128 -1 x_r3_g145 -1 x_r3_g147 -1 x_r3_g154 -2 x_r3_g162 -1 p_r0_g1_h118_t50 -1 p_r0_g4_h121_t50 -1 p_r0_g14_h131_t50 -1 p_r0_g26_h143_t50 -1 p_r0_g36_h153_t50 -1 p_r0_g54_h4_t50 -1 p_r0_g67_h17_t50 -1 p_r0_g70_h20_t50 -1 p_r0_g84_h34_t50 -1 p_r0_g87_h37_t50 -1 p_r0_g97_h47_t50 -1 p_r0_g118_h68_t50 -1 p_r1_g11_h128_t50 -1 p_r1_g15_h132_t50 -1 p_r1_g38_h155_t50 -1 p_r1_g67_h17_t50 -1 p_r1_g75_h25_t50 -1 p_r1_g80_h30_t50 -1 p_r1_g114_h64_t50 -1 p_r1_g117_h67_t50 -1 p_r1_g126_h76_t50 -1 p_r1_g143_h93_t50 -1 p_r1_g146_h96_t50 -1 p_r1_g157_h107_t50 -1 p_r1_g161_h111_t50 -1 p_r2_g18_h135_t50 -1 p_r2_g48_h165_t50 -1 p_r2_g80_h30_t50 -1 p_r2_g98_h48_t50 -1 p_r2_g110_h60_t50 -1 p_r2_g120_h70_t50 -1 p_r2_g136_h86_t50 -1 p_r3_g7_h124_t50 -1 p_r3_g8_h125_t50 -1 p_r3_g11_h128_t50 -1 p_r3_g27_h144_t50 -1 p_r3_g53_h3_t50 -1 p_r3_g57_h7_t50 -1 p_r3_g65_h15_t50 -1 p_r3_g77_h27_t50 -1 p_r3_g103_h53_t50 -1 p_r3_g106_h56_t50 -1 p_r3_g144_h94_t50 = -69 ;
1 d_50 -1 u_50 <= 0 ;
-1 d_50 -1 u_50 <= 0 ;
1 u_50 -1 M <= 0 ;
1 u_50 <= 1 ;
1 p_r0_g9_h118_t58 -1 x_r0_g9 <= 0 ;
1 p_r0_g9_h118_t58 -1 x_r0_g118 <= 0 ;
1 p_r0_g9_h118_t58 -1 x_r0_g9 -1 x_r0_g118 >= -1 ;
1 p_r0_g14_h123_t58 -1 x_r0_g14 <= 0 ;
1 p_r0_g14_h123_t58 -1 x_r0_g123 <= 0 ;
1 p_r0_g14_h123_t58 -1 x_r0_g14 -1 x_r0_g123 >= -1 ;
1 p_r0_g22_h131_t58 -1 x_r0_g22 <= 0 ;
1 p_r0_g22_h131_t58 -1 x_r0_g131 <= 0 ;
1 p_r0_g22_h131_t58 -1 x_r0_g22 -1 x_r0_g131 >= -1 ;
1 p_r0_g34_h143_t58 -1 x_r0_g34 <= 0 ;
1 p_r0_g34_h143_t58 -1 x_r0_g143 <= 0 ;
1 p_r0_g34_h143_t58 -1 x_r0_g34 -1 x_r0_g143 >= -1 ;
1 p_r0_g35_h144_t58 -1 x_r0_g35 <= 0 ;
1 p_r0_g35_h144_t58 -1 x_r0_g144 <= 0 ;
1 p_r0_g35_h144_t58 -1 x_r0_g35 -1 x_r0_g144 >= -1 ;
1 p_r0_g67_h9_t58 -1 x_r0_g67 <= 0 ;
1 p_r0_g67_h9_t58 -1 x_r0_g9 <= 0 ;
1 p_r0_g67_h9_t58 -1 x_r0_g67 -1 x_r0_g9 >= -1 ;
1 p_r0_g84_h26_t58 -1 x_r0_g84 <= 0 ;
1 p_r0_g84_h26_t58 -1 x_r0_g26 <= 0 ;
1 p_r0_g84_h26_t58 -1 x_r0_g84 -1 x_r0_g26 >= -1 ;
1 p_r0_g118_h60_t58 -1 x_r0_g118 <= 0 ;
1 p_r0_g118_h60_t58 -1 x_r0_g60 <= 0 ;
1 p_r0_g118_h60_t58 -1 x_r0_g118 -1 x_r0_g60 >= -1 ;
1 p_r1_g8_h117_t58 -1 x_r1_g8 <= 0 ;
1 p_r1_g8_h117_t58 -1 x_r1_g117 <= 0 ;
1 p_r1_g8_h117_t58 -1 x_r1_g8 -1 x_r1_g117 >= -1 ;
1 p_r1_g17_h126_t58 -1 x_r1_g17 <= 0 ;
1 p_r1_g17_h126_t58 -1 x_r1_g126 <= 0 ;
1 p_r1_g17_h126_t58 -1 x_r1_g17 -1 x_r1_g126 >= -1 ;
1 p_r1_g75_h17_t58 -1 x_r1_g75 <= 0 ;
1 p_r1_g75_h17_t58 -1 x_r1_g17 <= 0 ;
1 p_r1_g75_h17_t58 -1 x_r1_g75 -1 x_r1_g17 >= -1 ;
1 p_r1_g83_h25_t58 -1 x_r1_g83 <= 0 ;
1 p_r1_g83_h25_t58 -1 x_r1_g25 <= 0 ;
1 p_r1_g83_h25_t58 -1 x_r1_g83 -1 x_r1_g25 >= -1 ;
1 p_r1_g93_h35_t58 -1 x_r1_g93 <= 0 ;
1 p_r1_g93_h35_t58 -1 x_r1_g35 <= 0 ;
1 p_r1_g93_h35_t58 -1 x_r1_g93 -1 x_r1_g35 >= -1 ;
1 p_r1_g96_h38_t58 -1 x_r1_g96 <= 0 ;
1 p_r1_g96_h38_t58 -1 x_r1_g38 <= 0 ;
1 p_r1_g96_h38_t58 -1 x_r1_g96 -1 x_r1_g38 >= -1 ;
1 p_r1_g111_h53_t58 -1 x_r1_g111 <= 0 ;
1 p_r1_g111_h53_t58 -1 x_r1_g53 <= 0 ;
1 p_r1_g111_h53_t58 -1 x_r1_g111 -1 x_r1_g53 >= -1 ;
1 p_r1_g117_h59_t58 -1 x_r1_g117 <= 0 ;
1 p_r1_g117_h59_t58 -1 x_r1_g59 <= 0 ;
1 p_r1_g117_h59_t58 -1 x_r1_g117 -1 x_r1_g59 >= -1 ;
1 p_r1_g154_h96_t58 -1 x_r1_g154 <= 0 ;
1 p_r1_g154_h96_t58 -1 x_r1_g96 <= 0 ;
1 p_r1_g154_h96_t58 -1 x_r1_g154 -1 x_r1_g96 >= -1 ;
1 p_r2_g2_h111_t58 -1 x_r2_g2 <= 0 ;
1 p_r2_g2_h111_t58 -1 x_r2_g111 <= 0 ;
1 p_r2_g2_h111_t58 -1 x_r2_g2 -1 x_r2_g111 >= -1 ;
1 p_r2_g30_h139_t58 -1 x_r2_g30 <= 0 ;
1 p_r2_g30_h139_t58 -1 x_r2_g139 <= 0 ;
1 p_r2_g30_h139_t58 -1 x_r2_g30 -1 x_r2_g139 >= -1 ;
1 p_r2_g60_h2_t58 -1 x_r2_g60 <= 0 ;
1 p_r2_g60_h2_t58 -1 x_r2_g2 <= 0 ;
1 p_r2_g60_h2_t58 -1 x_r2_g60 -1 x_r2_g2 >= -1 ;
1 p_r2_g120_h62_t58 -1 x_r2_g120 <= 0 ;
1 p_r2_g120_h62_t58 -1 x_r2_g62 <= 0 ;
1 p_r2_g120_h62_t58 -1 x_r2_g120 -1 x_r2_g62 >= -1 ;
1 p_r2_g128_h70_t58 -1 x_r2_g128 <= 0 ;
1 p_r2_g128_h70_t58 -1 x_r2_g70 <= 0 ;
1 p_r2_g128_h70_t58 -1 x_r2_g128 -1 x_r2_g70 >= -1 ;
1 p_r2_g135_h77_t58 -1 x_r2_g135 <= 0 ;
1 p_r2_g135_h77_t58 -1 x_r2_g77 <= 0 ;
1 p_r2_g135_h77_t58 -1 x_r2_g135 -1 x_r2_g77 >= -1 ;
1 p_r2_g149_h91_t58 -1 x_r2_g149 <= 0 ;
1 p_r2_g149_h91_t58 -1 x_r2_g91 <= 0 ;
1 p_r2_g149_h91_t58 -1 x_r2_g149 -1 x_r2_g91 >= -1 ;
1 p_r2_g158_h100_t58 -1 x_r2_g158 <= 0 ;
1 p_r2_g158_h100_t58 -1 x_r2_g100 <= 0 ;
1 p_r2_g158_h100_t58 -1 x_r2_g158 -1 x_r2_g100 >= -1 ;
1 p_r2_g165_h107_t58 -1 x_r2_g165 <= 0 ;
1 p_r2_g165_h107_t58 -1 x_r2_g107 <= 0 ;
1 p_r2_g165_h107_t58 -1 x_r2_g165 -1 x_r2_g107 >= -1 ;
1 p_r3_g15_h124_t58 -1 x_r3_g15 <= 0 ;
1 p_r3_g15_h124_t58 -1 x_r3_g124 <= 0 ;
1 p_r3_g15_h124_t58 -1 x_r3_g15 -1 x_r3_g124 >= -1 ;
1 p_r3_g16_h125_t58 -1 x_r3_g16 <= 0 ;
1 p_r3_g16_h125_t58 -1 x_r3_g125 <= 0 ;
1 p_r3_g16_h125_t58 -1 x_r3_g16 -1 x_r3_g125 >= -1 ;
1 p_r3_g19_h128_t58 -1 x_r3_g19 <= 0 ;
1 p_r3_g19_h128_t58 -1 x_r3_g128 <= 0 ;
1 p_r3_g19_h128_t58 -1 x_r3_g19 -1 x_r3_g128 >= -1 ;
1 p_r3_g36_h145_t58 -1 x_r3_g36 <= 0 ;
1 p_r3_g36_h145_t58 -1 x_r3_g145 <= 0 ;
1 p_r3_g36_h145_t58 -1 x_r3_g36 -1 x_r3_g145 >= -1 ;
1 p_r3_g53_h162_t58 -1 x_r3_g53 <= 0 ;
1 p_r3_g53_h162_t58 -1 x_r3_g162 <= 0 ;
1 p_r3_g53_h162_t58 -1 x_r3_g53 -1 x_r3_g162 >= -1 ;
1 p_r3_g56_h165_t58 -1 x_r3_g56 <= 0 ;
1 p_r3_g56_h165_t58 -1 x_r3_g165 <= 0 ;
1 p_r3_g56_h165_t58 -1 x_r3_g56 -1 x_r3_g165 >= -1 ;
1 p_r3_g65_h7_t58 -1 x_r3_g65 <= 0 ;
1 p_r3_g65_h7_t58 -1 x_r3_g7 <= 0 ;
1 p_r3_g65_h7_t58 -1 x_r3_g65 -1 x_r3_g7 >= -1 ;
1 p_r3_g77_h19_t58 -1 x_r3_g77 <= 0 ;
1 p_r3_g77_h19_t58 -1 x_r3_g19 <= 0 ;
1 p_r3_g77_h19_t58 -1 x_r3_g77 -1 x_r3_g19 >= -1 ;
1 p_r3_g91_h33_t58 -1 x_r3_g91 <= 0 ;
1 p_r3_g91_h33_t58 -1 x_r3_g33 <= 0 ;
1 p_r3_g91_h33_t58 -1 x_r3_g91 -1 x_r3_g33 >= -1 ;
1 p_r3_g94_h36_t58 -1 x_r3_g94 <= 0 ;
1 p_r3_g94_h36_t58 -1 x_r3_g36 <= 0 ;
1 p_r3_g94_h36_t58 -1 x_r3_g94 -1 x_r3_g36 >= -1 ;
1 p_r3_g111_h53_t58 -1 x_r3_g111 <= 0 ;
1 p_r3_g111_h53_t58 -1 x_r3_g53 <= 0 ;
1 p_r3_g111_h53_t58 -1 x_r3_g111 -1 x_r3_g53 >= -1 ;
1 p_r3_g123_h65_t58 -1 x_r3_g123 <= 0 ;
1 p_r3_g123_h65_t58 -1 x_r3_g65 <= 0 ;
1 p_r3_g123_h65_t58 -1 x_r3_g123 -1 x_r3_g65 >= -1 ;
1 d_58 -1 x_r0_g1 -2 x_r0_g4 -2 x_r0_g7 -1 x_r0_g17 -1 x_r0_g23 -1 x_r0_g28 -1 x_r0_g32 -1 x_r0_g37 -2 x_r0_g48 -1 x_r0_g54 -1 x_r0_g67 -1 x_r0_g68 -2 x_r0_g69 -1 x_r0_g70 -1 x_r0_g79 -1 x_r0_g84 -1 x_r0_g97 -2 x_r0_g101 -1 x_r0_g102 -2 x_r0_g121 -1 x_r0_g123 -1 x_r1_g8 -1 x_r1_g11 -1 x_r1_g15 -1 x_r1_g30 -2 x_r1_g31 -1 x_r1_g59 -1 x_r1_g76 -1 x_r1_g80 -1 x_r1_g83 -1 x_r1_g90 -1 x_r1_g107 -1 x_r1_g108 -1 x_r1_g110 -1 x_r1_g114 -1 x_r1_g126 -1 x_r1_g128 -2 x_r1_g146 -1 x_r1_g155 -1 x_r1_g161 -1 x_r2_g29 -1 x_r2_g48 -1 x_r2_g62 -1 x_r2_g64 -1 x_r2_g74 -1 x_r2_g82 -1 x_r2_g86 -1 x_r2_g91 -1 x_r2_g95 -1 x_r2_g107 -1 x_r2_g110 -1 x_r2_g135 -2 x_r2_g136 -1 x_r2_g142 -2 x_r2_g152 -1 x_r2_g155 -1 x_r2_g158 -1 x_r2_g159 -1 x_r2_g162 -1 x_r2_g163 -1 x_r2_g165 -2 x_r3_g3 -1 x_r3_g8 -1 x_r3_g13 -1 x_r3_g16 -2 x_r3_g18 -1 x_r3_g33 -1 x_r3_g34 -1 x_r3_g51 -1 x_r3_g57 -1 x_r3_g79 -1 x_r3_g91 -1 x_r3_g103 -1 x_r3_g111 -2 x_r3_g113 -1 x_r3_g121 -1 x_r3_g124 -1 x_r3_g138 -1 x_r3_g144 -2 x_r3_g147 -1 x_r3_g154 -1 p_r0_g9_h118_t58 -1 p_r0_g14_h123_t58 -1 p_r0_g22_h131_t58 -1 p_r0_g34_h143_t58 -1 p_r0_g35_h144_t58 -1 p_r0_g67_h9_t58 -1 p_r0_g84_h26_t58 -1 p_r0_g118_h60_t58 -1 p_r1_g8_h117_t58 -1 p_r1_g17_h126_t58 -1 p_r1_g75_h17_t58 -1 p_r1_g83_h25_t58 -1 p_r1_g93_h35_t58 -1 p_r1_g96_h38_t58 -1 p_r1_g111_h53_t58 -1 p_r1_g117_h59_t58 -1 p_r1_g154_h96_t58 -1 p_r2_g2_h111_t58 -1 p_r2_g30_h139_t58 -1 p_r2_g60_h2_t58 -1 p_r2_g120_h62_t58 -1 p_r2_g128_h70_t58 -1 p_r2_g135_h77_t58 -1 p_r2_g149_h91_t58 -1 p_r2_g158_h100_t58 -1 p_r2_g165_h107_t58 -1 p_r3_g15_h124_t58 -1 p_r3_g16_h125_t58 -1 p_r3_g19_h128_t58 -1 p_r3_g36_h145_t58 -1 p_r3_g53_h162_t58 -1 p_r3_g56_h165_t58 -1 p_r3_g65_h7_t58 -1 p_r3_g77_h19_t58 -1 p_r3_g91_h33_t58 -1 p_r3_g94_h36_t58 -1 p_r3_g111_h53_t58 -1 p_r3_g123_h65_t58 = -61 ;
1 d_58 -1 u_58 <= 0 ;
-1 d_58 -1 u_58 <= 0 ;
1 u_58 -1 M <= 0 ;
1 u_58 <= 1 ;
1 p_r0_g25_h130_t62 -1 x_r0_g25 <= 0 ;
1 p_r0_g25_h130_t62 -1 x_r0_g130 <= 0 ;
1 p_r0_g25_h130_t62 -1 x_r0_g25 -1 x_r0_g130 >= -1 ;
1 p_r0_g26_h131_t62 -1 x_r0_g26 <= 0 ;
1 p_r0_g26_h131_t62 -1 x_r0_g131 <= 0 ;
1 p_r0_g26_h131_t62 -1 x_r0_g26 -1 x_r0_g131 >= -1 ;
1 p_r0_g48_h153_t62 -1 x_r0_g48 <= 0 ;
1 p_r0_g48_h153_t62 -1 x_r0_g153 <= 0 ;
1 p_r0_g48_h153_t62 -1 x_r0_g48 -1 x_r0_g153 >= -1 ;
1 p_r0_g69_h7_t62 -1 x_r0_g69 <= 0 ;
1 p_r0_g69_h7_t62 -1 x_r0_g7 <= 0 ;
1 p_r0_g69_h7_t62 -1 x_r0_g69 -1 x_r0_g7 >= -1 ;
1 p_r0_g79_h17_t62 -1 x_r0_g79 <= 0 ;
1 p_r0_g79_h17_t62 -1 x_r0_g17 <= 0 ;
1 p_r0_g79_h17_t62 -1 x_r0_g79 -1 x_r0_g17 >= -1 ;
1 p_r0_g84_h22_t62 -1 x_r0_g84 <= 0 ;
1 p_r0_g84_h22_t62 -1 x_r0_g22 <= 0 ;
1 p_r0_g84_h22_t62 -1 x_r0_g84 -1 x_r0_g22 >= -1 ;
1 p_r0_g87_h25_t62 -1 x_r0_g87 <= 0 ;
1 p_r0_g87_h25_t62 -1 x_r0_g25 <= 0 ;
1 p_r0_g87_h25_t62 -1 x_r0_g87 -1 x_r0_g25 >= -1 ;
1 p_r0_g97_h35_t62 -1 x_r0_g97 <= 0 ;
1 p_r0_g97_h35_t62 -1 x_r0_g35 <= 0 ;
1 p_r0_g97_h35_t62 -1 x_r0_g97 -1 x_r0_g35 >= -1 ;
1 p_r0_g130_h68_t62 -1 x_r0_g130 <= 0 ;
1 p_r0_g130_h68_t62 -1 x_r0_g68 <= 0 ;
1 p_r0_g130_h68_t62 -1 x_r0_g130 -1 x_r0_g68 >= -1 ;
1 p_r0_g131_h69_t62 -1 x_r0_g131 <= 0 ;
1 p_r0_g131_h69_t62 -1 x_r0_g69 <= 0 ;
1 p_r0_g131_h69_t62 -1 x_r0_g131 -1 x_r0_g69 >= -1 ;
1 p_r1_g8_h113_t62 -1 x_r1_g8 <= 0 ;
1 p_r1_g8_h113_t62 -1 x_r1_g113 <= 0 ;
1 p_r1_g8_h113_t62 -1 x_r1_g8 -1 x_r1_g113 >= -1 ;
1 p_r1_g38_h143_t62 -1 x_r1_g38 <= 0 ;
1 p_r1_g38_h143_t62 -1 x_r1_g143 <= 0 ;
1 p_r1_g38_h143_t62 -1 x_r1_g38 -1 x_r1_g143 >= -1 ;
1 p_r1_g75_h13_t62 -1 x_r1_g75 <= 0 ;
1 p_r1_g75_h13_t62 -1 x_r1_g13 <= 0 ;
1 p_r1_g75_h13_t62 -1 x_r1_g75 -1 x_r1_g13 >= -1 ;
1 p_r1_g93_h31_t62 -1 x_r1_g93 <= 0 ;
1 p_r1_g93_h31_t62 -1 x_r1_g31 <= 0 ;
1 p_r1_g93_h31_t62 -1 x_r1_g93 -1 x_r1_g31 >= -1 ;
1 p_r1_g121_h59_t62 -1 x_r1_g121 <= 0 ;
1 p_r1_g121_h59_t62 -1 x_r1_g59 <= 0 ;
1 p_r1_g121_h59_t62 -1 x_r1_g121 -1 x_r1_g59 >= -1 ;
1 p_r1_g126_h64_t62 -1 x_r1_g126 <= 0 ;
1 p_r1_g126_h64_t62 -1 x_r1_g64 <= 0 ;
1 p_r1_g126_h64_t62 -1 x_r1_g126 -1 x_r1_g64 >= -1 ;
1 p_r1_g155_h93_t62 -1 x_r1_g155 <= 0 ;
1 p_r1_g155_h93_t62 -1 x_r1_g93 <= 0 ;
1 p_r1_g155_h93_t62 -1 x_r1_g155 -1 x_r1_g93 >= -1 ;
1 p_r2_g2_h107_t62 -1 x_r2_g2 <= 0 ;
1 p_r2_g2_h107_t62 -1 x_r2_g107 <= 0 ;
1 p_r2_g2_h107_t62 -1 x_r2_g2 -1 x_r2_g107 >= -1 ;
1 p_r2_g30_h135_t62 -1 x_r2_g30 <= 0 ;
1 p_r2_g30_h135_t62 -1 x_r2_g135 <= 0 ;
1 p_r2_g30_h135_t62 -1 x_r2_g30 -1 x_r2_g135 >= -1 ;
1 p_r2_g34_h139_t62 -1 x_r2_g34 <= 0 ;
1 p_r2_g34_h139_t62 -1 x_r2_g139 <= 0 ;
1 p_r2_g34_h139_t62 -1 x_r2_g34 -1 x_r2_g139 >= -1 ;
1 p_r2_g60_h165_t62 -1 x_r2_g60 <= 0 ;
1 p_r2_g60_h165_t62 -1 x_r2_g165 <= 0 ;
1 p_r2_g60_h165_t62 -1 x_r2_g60 -1 x_r2_g165 >= -1 ;
1 p_r2_g64_h2_t62 -1 x_r2_g64 <= 0 ;
1 p_r2_g64_h2_t62 -1 x_r2_g2 <= 0 ;
1 p_r2_g64_h2_t62 -1 x_r2_g64 -1 x_r2_g2 >= -1 ;
1 p_r2_g80_h18_t62 -1 x_r2_g80 <= 0 ;
1 p_r2_g80_h18_t62 -1 x_r2_g18 <= 0 ;
1 p_r2_g80_h18_t62 -1 x_r2_g80 -1 x_r2_g18 >= -1 ;
1 p_r2_g91_h29_t62 -1 x_r2_g91 <= 0 ;
1 p_r2_g91_h29_t62 -1 x_r2_g29 <= 0 ;
1 p_r2_g91_h29_t62 -1 x_r2_g91 -1 x_r2_g29 >= -1 ;
1 p_r2_g110_h48_t62 -1 x_r2_g110 <= 0 ;
1 p_r2_g110_h48_t62 -1 x_r2_g48 <= 0 ;
1 p_r2_g110_h48_t62 -1 x_r2_g110 -1 x_r2_g48 >= -1 ;
1 p_r2_g128_h66_t62 -1 x_r2_g128 <= 0 ;
1 p_r2_g128_h66_t62 -1 x_r2_g66 <= 0 ;
1 p_r2_g128_h66_t62 -1 x_r2_g128 -1 x_r2_g66 >= -1 ;
1 p_r2_g135_h73_t62 -1 x_r2_g135 <= 0 ;
1 p_r2_g135_h73_t62 -1 x_r2_g73 <= 0 ;
1 p_r2_g135_h73_t62 -1 x_r2_g135 -1 x_r2_g73 >= -1 ;
1 p_r2_g136_h74_t62 -1 x_r2_g136 <= 0 ;
1 p_r2_g136_h74_t62 -1 x_r2_g74 <= 0 ;
1 p_r2_g136_h74_t62 -1 x_r2_g136 -1 x_r2_g74 >= -1 ;
1 p_r2_g139_h77_t62 -1 x_r2_g139 <= 0 ;
1 p_r2_g139_h77_t62 -1 x_r2_g77 <= 0 ;
1 p_r2_g139_h77_t62 -1 x_r2_g139 -1 x_r2_g77 >= -1 ;
1 p_r2_g142_h80_t62 -1 x_r2_g142 <= 0 ;
1 p_r2_g142_h80_t62 -1 x_r2_g80 <= 0 ;
1 p_r2_g142_h80_t62 -1 x_r2_g142 -1 x_r2_g80 >= -1 ;
1 p_r2_g162_h100_t62 -1 x_r2_g162 <= 0 ;
1 p_r2_g162_h100_t62 -1 x_r2_g100 <= 0 ;
1 p_r2_g162_h100_t62 -1 x_r2_g162 -1 x_r2_g100 >= -1 ;
1 p_r3_g8_h113_t62 -1 x_r3_g8 <= 0 ;
1 p_r3_g8_h113_t62 -1 x_r3_g113 <= 0 ;
1 p_r3_g8_h113_t62 -1 x_r3_g8 -1 x_r3_g113 >= -1 ;
1 p_r3_g16_h121_t62 -1 x_r3_g16 <= 0 ;
1 p_r3_g16_h121_t62 -1 x_r3_g121 <= 0 ;
1 p_r3_g16_h121_t62 -1 x_r3_g16 -1 x_r3_g121 >= -1 ;
1 p_r3_g18_h123_t62 -1 x_r3_g18 <= 0 ;
1 p_r3_g18_h123_t62 -1 x_r3_g123 <= 0 ;
1 p_r3_g18_h123_t62 -1 x_r3_g18 -1 x_r3_g123 >= -1 ;
1 p_r3_g19_h124_t62 -1 x_r3_g19 <= 0 ;
1 p_r3_g19_h124_t62 -1 x_r3_g124 <= 0 ;
1 p_r3_g19_h124_t62 -1 x_r3_g19 -1 x_r3_g124 >= -1 ;
1 p_r3_g33_h138_t62 -1 x_r3_g33 <= 0 ;
1 p_r3_g33_h138_t62 -1 x_r3_g138 <= 0 ;
1 p_r3_g33_h138_t62 -1 x_r3_g33 -1 x_r3_g138 >= -1 ;
1 p_r3_g57_h162_t62 -1 x_r3_g57 <= 0 ;
1 p_r3_g57_h162_t62 -1 x_r3_g162 <= 0 ;
1 p_r3_g57_h162_t62 -1 x_r3_g57 -1 x_r3_g162 >= -1 ;
1 p_r3_g65_h3_t62 -1 x_r3_g65 <= 0 ;
1 p_r3_g65_h3_t62 -1 x_r3_g3 <= 0 ;
1 p_r3_g65_h3_t62 -1 x_r3_g65 -1 x_r3_g3 >= -1 ;
1 p_r3_g77_h15_t62 -1 x_r3_g77 <= 0 ;
1 p_r3_g77_h15_t62 -1 x_r3_g15 <= 0 ;
1 p_r3_g77_h15_t62 -1 x_r3_g77 -1 x_r3_g15 >= -1 ;
1 p_r3_g113_h51_t62 -1 x_r3_g113 <= 0 ;
1 p_r3_g113_h51_t62 -1 x_r3_g51 <= 0 ;
1 p_r3_g113_h51_t62 -1 x_r3_g113 -1 x_r3_g51 >= -1 ;
1 p_r3_g165_h103_t62 -1 x_r3_g165 <= 0 ;
1 p_r3_g165_h103_t62 -1 x_r3_g103 <= 0 ;
1 p_r3_g165_h103_t62 -1 x_r3_g165 -1 x_r3_g103 >= -1 ;
1 d_62 -2 x_r0_g1 -1 x_r0_g14 -1 x_r0_g17 -1 x_r0_g20 -1 x_r0_g22 -1 x_r0_g26 -1 x_r0_g28 -1 x_r0_g32 -1 x_r0_g34 -1 x_r0_g36 -1 x_r0_g37 -1 x_r0_g47 -2 x_r0_g54 -2 x_r0_g60 -1 x_r0_g67 -1 x_r0_g68 -1 x_r0_g70 -1 x_r0_g84 -1 x_r0_g87 -1 x_r0_g97 -1 x_r0_g101 -1 x_r0_g102 -1 x_r0_g118 -1 x_r0_g121 -1 x_r0_g143 -1 x_r0_g162 -1 x_r1_g8 -1 x_r1_g11 -1 x_r1_g17 -2 x_r1_g25 -1 x_r1_g35 -1 x_r1_g38 -1 x_r1_g53 -1 x_r1_g59 -1 x_r1_g62 -1 x_r1_g76 -1 x_r1_g80 -1 x_r1_g91 -2 x_r1_g108 -1 x_r1_g111 -1 x_r1_g121 -1 x_r1_g128 -2 x_r1_g132 -1 x_r1_g143 -1 x_r1_g146 -1 x_r1_g154 -1 x_r1_g157 -1 x_r1_g161 -1 x_r2_g29 -1 x_r2_g48 -1 x_r2_g60 -1 x_r2_g62 -1 x_r2_g64 -1 x_r2_g66 -1 x_r2_g67 -1 x_r2_g70 -1 x_r2_g82 -1 x_r2_g86 -1 x_r2_g91 -2 x_r2_g95 -1 x_r2_g98 -1 x_r2_g111 -1 x_r2_g120 -1 x_r2_g136 -1 x_r2_g149 -1 x_r2_g152 -1 x_r2_g155 -2 x_r2_g163 -1 x_r2_g164 -1 x_r3_g3 -1 x_r3_g7 -2 x_r3_g13 -1 x_r3_g16 -1 x_r3_g18 -1 x_r3_g19 -2 x_r3_g27 -1 x_r3_g34 -1 x_r3_g36 -1 x_r3_g56 -1 x_r3_g57 -1 x_r3_g65 -1 x_r3_g72 -1 x_r3_g77 -1 x_r3_g79 -1 x_r3_g94 -1 x_r3_g103 -1 x_r3_g106 -2 x_r3_g111 -1 x_r3_g121 -1 x_r3_g123 -1 x_r3_g124 -1 x_r3_g125 -1 x_r3_g128 -1 x_r3_g138 -1 x_r3_g144 -2 x_r3_g145 -1 x_r3_g154 -1 p_r0_g25_h130_t62 -1 p_r0_g26_h131_t62 -1 p_r0_g48_h153_t62 -1 p_r0_g69_h7_t62 -1 p_r0_g79_h17_t62 -1 p_r0_g84_h22_t62 -1 p_r0_g87_h25_t62 -1 p_r0_g97_h35_t62 -1 p_r0_g130_h68_t62 -1 p_r0_g131_h69_t62 -1 p_r1_g8_h113_t62 -1 p_r1_g38_h143_t62 -1 p_r1_g75_h13_t62 -1 p_r1_g93_h31_t62 -1 p_r1_g121_h59_t62 -1 p_r1_g126_h64_t62 -1 p_r1_g155_h93_t62 -1 p_r2_g2_h107_t62 -1 p_r2_g30_h135_t62 -1 p_r2_g34_h139_t62 -1 p_r2_g60_h165_t62 -1 p_r2_g64_h2_t62 -1 p_r2_g80_h18_t62 -1 p_r2_g91_h29_t62 -1 p_r2_g110_h48_t62 -1 p_r2_g128_h66_t62 -1 p_r2_g135_h73_t62 -1 p_r2_g136_h74_t62 -1 p_r2_g139_h77_t62 -1 p_r2_g142_h80_t62 -1 p_r2_g162_h100_t62 -1 p_r3_g8_h113_t62 -1 p_r3_g16_h121_t62 -1 p_r3_g18_h123_t62 -1 p_r3_g19_h124_t62 -1 p_r3_g33_h138_t62 -1 p_r3_g57_h162_t62 -1 p_r3_g65_h3_t62 -1 p_r3_g77_h15_t62 -1 p_r3_g113_h51_t62 -1 p_r3_g165_h103_t62 = -69 ;
1 d_62 -1 u_62 <= 0 ;
-1 d_62 -1 u_62 <= 0 ;
1 u_62 -1 M <= 0 ;
1 u_62 <= 0 ;
1 p_r0_g20_h123_t64 -1 x_r0_g20 <= 0 ;
1 p_r0_g20_h123_t64 -1 x_r0_g123 <= 0 ;
1 p_r0_g20_h123_t64 -1 x_r0_g20 -1 x_r0_g123 >= -1 ;
1 p_r0_g28_h131_t64 -1 x_r0_g28 <= 0 ;
1 p_r0_g28_h131_t64 -1 x_r0_g131 <= 0 ;
1 p_r0_g28_h131_t64 -1 x_r0_g28 -1 x_r0_g131 >= -1 ;
1 p_r0_g68_h4_t64 -1 x_r0_g68 <= 0 ;
1 p_r0_g68_h4_t64 -1 x_r0_g4 <= 0 ;
1 p_r0_g68_h4_t64 -1 x_r0_g68 -1 x_r0_g4 >= -1 ;
1 p_r0_g84_h20_t64 -1 x_r0_g84 <= 0 ;
1 p_r0_g84_h20_t64 -1 x_r0_g20 <= 0 ;
1 p_r0_g84_h20_t64 -1 x_r0_g84 -1 x_r0_g20 >= -1 ;
1 p_r0_g87_h23_t64 -1 x_r0_g87 <= 0 ;
1 p_r0_g87_h23_t64 -1 x_r0_g23 <= 0 ;
1 p_r0_g87_h23_t64 -1 x_r0_g87 -1 x_r0_g23 >= -1 ;
1 p_r0_g101_h37_t64 -1 x_r0_g101 <= 0 ;
1 p_r0_g101_h37_t64 -1 x_r0_g37 <= 0 ;
1 p_r0_g101_h37_t64 -1 x_r0_g101 -1 x_r0_g37 >= -1 ;
1 p_r0_g118_h54_t64 -1 x_r0_g118 <= 0 ;
1 p_r0_g118_h54_t64 -1 x_r0_g54 <= 0 ;
1 p_r0_g118_h54_t64 -1 x_r0_g118 -1 x_r0_g54 >= -1 ;
1 p_r0_g131_h67_t64 -1 x_r0_g131 <= 0 ;
1 p_r0_g131_h67_t64 -1 x_r0_g67 <= 0 ;
1 p_r0_g131_h67_t64 -1 x_r0_g131 -1 x_r0_g67 >= -1 ;
1 p_r0_g143_h79_t64 -1 x_r0_g143 <= 0 ;
1 p_r0_g143_h79_t64 -1 x_r0_g79 <= 0 ;
1 p_r0_g143_h79_t64 -1 x_r0_g143 -1 x_r0_g79 >= -1 ;
1 p_r1_g8_h111_t64 -1 x_r1_g8 <= 0 ;
1 p_r1_g8_h111_t64 -1 x_r1_g111 <= 0 ;
1 p_r1_g8_h111_t64 -1 x_r1_g8 -1 x_r1_g111 >= -1 ;
1 p_r1_g11_h114_t64 -1 x_r1_g11 <= 0 ;
1 p_r1_g11_h114_t64 -1 x_r1_g114 <= 0 ;
1 p_r1_g11_h114_t64 -1 x_r1_g11 -1 x_r1_g114 >= -1 ;
1 p_r1_g25_h128_t64 -1 x_r1_g25 <= 0 ;
1 p_r1_g25_h128_t64 -1 x_r1_g128 <= 0 ;
1 p_r1_g25_h128_t64 -1 x_r1_g25 -1 x_r1_g128 >= -1 ;
1 p_r1_g75_h11_t64 -1 x_r1_g75 <= 0 ;
1 p_r1_g75_h11_t64 -1 x_r1_g11 <= 0 ;
1 p_r1_g75_h11_t64 -1 x_r1_g75 -1 x_r1_g11 >= -1 ;
1 p_r1_g117_h53_t64 -1 x_r1_g117 <= 0 ;
1 p_r1_g117_h53_t64 -1 x_r1_g53 <= 0 ;
1 p_r1_g117_h53_t64 -1 x_r1_g117 -1 x_r1_g53 >= -1 ;
1 p_r1_g126_h62_t64 -1 x_r1_g126 <= 0 ;
1 p_r1_g126_h62_t64 -1 x_r1_g62 <= 0 ;
1 p_r1_g126_h62_t64 -1 x_r1_g126 -1 x_r1_g62 >= -1 ;
1 p_r1_g128_h64_t64 -1 x_r1_g128 <= 0 ;
1 p_r1_g128_h64_t64 -1 x_r1_g64 <= 0 ;
1 p_r1_g128_h64_t64 -1 x_r1_g128 -1 x_r1_g64 >= -1 ;
1 p_r1_g154_h90_t64 -1 x_r1_g154 <= 0 ;
1 p_r1_g154_h90_t64 -1 x_r1_g90 <= 0 ;
1 p_r1_g154_h90_t64 -1 x_r1_g154 -1 x_r1_g90 >= -1 ;
1 p_r1_g155_h91_t64 -1 x_r1_g155 <= 0 ;
1 p_r1_g155_h91_t64 -1 x_r1_g91 <= 0 ;
1 p_r1_g155_h91_t64 -1 x_r1_g155 -1 x_r1_g91 >= -1 ;
1 p_r1_g157_h93_t64 -1 x_r1_g157 <= 0 ;
1 p_r1_g157_h93_t64 -1 x_r1_g93 <= 0 ;
1 p_r1_g157_h93_t64 -1 x_r1_g157 -1 x_r1_g93 >= -1 ;
1 p_r2_g60_h163_t64 -1 x_r2_g60 <= 0 ;
1 p_r2_g60_h163_t64 -1 x_r2_g163 <= 0 ;
1 p_r2_g60_h163_t64 -1 x_r2_g60 -1 x_r2_g163 >= -1 ;
1 p_r2_g62_h165_t64 -1 x_r2_g62 <= 0 ;
1 p_r2_g62_h165_t64 -1 x_r2_g165 <= 0 ;
1 p_r2_g62_h165_t64 -1 x_r2_g62 -1 x_r2_g165 >= -1 ;
1 p_r2_g66_h2_t64 -1 x_r2_g66 <= 0 ;
1 p_r2_g66_h2_t64 -1 x_r2_g2 <= 0 ;
1 p_r2_g66_h2_t64 -1 x_r2_g66 -1 x_r2_g2 >= -1 ;
1 p_r2_g82_h18_t64 -1 x_r2_g82 <= 0 ;
1 p_r2_g82_h18_t64 -1 x_r2_g18 <= 0 ;
1 p_r2_g82_h18_t64 -1 x_r2_g82 -1 x_r2_g18 >= -1 ;
1 p_r2_g98_h34_t64 -1 x_r2_g98 <= 0 ;
1 p_r2_g98_h34_t64 -1 x_r2_g34 <= 0 ;
1 p_r2_g98_h34_t64 -1 x_r2_g98 -1 x_r2_g34 >= -1 ;
1 p_r2_g128_h64_t64 -1 x_r2_g128 <= 0 ;
1 p_r2_g128_h64_t64 -1 x_r2_g64 <= 0 ;
1 p_r2_g128_h64_t64 -1 x_r2_g128 -1 x_r2_g64 >= -1 ;
1 p_r2_g155_h91_t64 -1 x_r2_g155 <= 0 ;
1 p_r2_g155_h91_t64 -1 x_r2_g91 <= 0 ;
1 p_r2_g155_h91_t64 -1 x_r2_g155 -1 x_r2_g91 >= -1 ;
1 p_r2_g159_h95_t64 -1 x_r2_g159 <= 0 ;
1 p_r2_g159_h95_t64 -1 x_r2_g95 <= 0 ;
1 p_r2_g159_h95_t64 -1 x_r2_g159 -1 x_r2_g95 >= -1 ;
1 p_r2_g162_h98_t64 -1 x_r2_g162 <= 0 ;
1 p_r2_g162_h98_t64 -1 x_r2_g98 <= 0 ;
1 p_r2_g162_h98_t64 -1 x_r2_g162 -1 x_r2_g98 >= -1 ;
1 p_r2_g164_h100_t64 -1 x_r2_g164 <= 0 ;
1 p_r2_g164_h100_t64 -1 x_r2_g100 <= 0 ;
1 p_r2_g164_h100_t64 -1 x_r2_g164 -1 x_r2_g100 >= -1 ;
1 p_r3_g3_h106_t64 -1 x_r3_g3 <= 0 ;
1 p_r3_g3_h106_t64 -1 x_r3_g106 <= 0 ;
1 p_r3_g3_h106_t64 -1 x_r3_g3 -1 x_r3_g106 >= -1 ;
1 p_r3_g8_h111_t64 -1 x_r3_g8 <= 0 ;
1 p_r3_g8_h111_t64 -1 x_r3_g111 <= 0 ;
1 p_r3_g8_h111_t64 -1 x_r3_g8 -1 x_r3_g111 >= -1 ;
1 p_r3_g18_h121_t64 -1 x_r3_g18 <= 0 ;
1 p_r3_g18_h121_t64 -1 x_r3_g121 <= 0 ;
1 p_r3_g18_h121_t64 -1 x_r3_g18 -1 x_r3_g121 >= -1 ;
1 p_r3_g51_h154_t64 -1 x_r3_g51 <= 0 ;
1 p_r3_g51_h154_t64 -1 x_r3_g154 <= 0 ;
1 p_r3_g51_h154_t64 -1 x_r3_g51 -1 x_r3_g154 >= -1 ;
1 p_r3_g56_h159_t64 -1 x_r3_g56 <= 0 ;
1 p_r3_g56_h159_t64 -1 x_r3_g159 <= 0 ;
1 p_r3_g56_h159_t64 -1 x_r3_g56 -1 x_r3_g159 >= -1 ;
1 p_r3_g72_h8_t64 -1 x_r3_g72 <= 0 ;
1 p_r3_g72_h8_t64 -1 x_r3_g8 <= 0 ;
1 p_r3_g72_h8_t64 -1 x_r3_g72 -1 x_r3_g8 >= -1 ;
1 p_r3_g77_h13_t64 -1 x_r3_g77 <= 0 ;
1 p_r3_g77_h13_t64 -1 x_r3_g13 <= 0 ;
1 p_r3_g77_h13_t64 -1 x_r3_g77 -1 x_r3_g13 >= -1 ;
1 p_r3_g79_h15_t64 -1 x_r3_g79 <= 0 ;
1 p_r3_g79_h15_t64 -1 x_r3_g15 <= 0 ;
1 p_r3_g79_h15_t64 -1 x_r3_g79 -1 x_r3_g15 >= -1 ;
1 p_r3_g91_h27_t64 -1 x_r3_g91 <= 0 ;
1 p_r3_g91_h27_t64 -1 x_r3_g27 <= 0 ;
1 p_r3_g91_h27_t64 -1 x_r3_g91 -1 x_r3_g27 >= -1 ;
1 p_r3_g121_h57_t64 -1 x_r3_g121 <= 0 ;
1 p_r3_g121_h57_t64 -1 x_r3_g57 <= 0 ;
1 p_r3_g121_h57_t64 -1 x_r3_g121 -1 x_r3_g57 >= -1 ;
1 d_64 -1 x_r0_g1 -1 x_r0_g17 -1 x_r0_g22 -1 x_r0_g23 -1 x_r0_g26 -2 x_r0_g34 -2 x_r0_g36 -1 x_r0_g48 -1 x_r0_g54 -1 x_r0_g60 -1 x_r0_g67 -1 x_r0_g68 -1 x_r0_g69 -1 x_r0_g70 -1 x_r0_g79 -1 x_r0_g87 -1 x_r0_g101 -1 x_r0_g102 -1 x_r0_g118 -1 x_r0_g123 -1 x_r0_g143 -2 x_r0_g162 -1 x_r1_g13 -1 x_r1_g15 -1 x_r1_g17 -1 x_r1_g25 -1 x_r1_g31 -1 x_r1_g35 -1 x_r1_g38 -1 x_r1_g53 -1 x_r1_g59 -1 x_r1_g67 -1 x_r1_g76 -1 x_r1_g80 -1 x_r1_g90 -1 x_r1_g91 -1 x_r1_g93 -2 x_r1_g96 -1 x_r1_g108 -1 x_r1_g110 -2 x_r1_g113 -2 x_r1_g121 -2 x_r1_g132 -2 x_r1_g143 -1 x_r1_g146 -1 x_r2_g2 -1 x_r2_g18 -2 x_r2_g29 -1 x_r2_g30 -1 x_r2_g34 -2 x_r2_g48 -1 x_r2_g62 -1 x_r2_g64 -1 x_r2_g66 -1 x_r2_g70 -1 x_r2_g73 -1 x_r2_g82 -1 x_r2_g86 -1 x_r2_g91 -1 x_r2_g95 -2 x_r2_g107 -2 x_r2_g110 -1 x_r2_g120 -1 x_r2_g128 -1 x_r2_g136 -1 x_r2_g139 -2 x_r2_g142 -2 x_r2_g149 -1 x_r2_g152 -1 x_r2_g158 -1 x_r2_g159 -1 x_r2_g164 -1 x_r2_g165 -1 x_r3_g7 -1 x_r3_g11 -1 x_r3_g15 -2 x_r3_g16 -2 x_r3_g19 -2 x_r3_g34 -1 x_r3_g36 -1 x_r3_g57 -2 x_r3_g65 -1 x_r3_g79 -1 x_r3_g94 -1 x_r3_g103 -1 x_r3_g111 -1 x_r3_g113 -2 x_r3_g123 -2 x_r3_g125 -1 x_r3_g138 -2 x_r3_g144 -1 x_r3_g145 -1 x_r3_g147 -2 x_r3_g162 -1 x_r3_g165 -1 p_r0_g20_h123_t64 -1 p_r0_g28_h131_t64 -1 p_r0_g68_h4_t64 -1 p_r0_g84_h20_t64 -1 p_r0_g87_h23_t64 -1 p_r0_g101_h37_t64 -1 p_r0_g118_h54_t64 -1 p_r0_g131_h67_t64 -1 p_r0_g143_h79_t64 -1 p_r1_g8_h111_t64 -1 p_r1_g11_h114_t64 -1 p_r1_g25_h128_t64 -1 p_r1_g75_h11_t64 -1 p_r1_g117_h53_t64 -1 p_r1_g126_h62_t64 -1 p_r1_g128_h64_t64 -1 p_r1_g154_h90_t64 -1 p_r1_g155_h91_t64 -1 p_r1_g157_h93_t64 -1 p_r2_g60_h163_t64 -1 p_r2_g62_h165_t64 -1 p_r2_g66_h2_t64 -1 p_r2_g82_h18_t64 -1 p_r2_g98_h34_t64 -1 p_r2_g128_h64_t64 -1 p_r2_g155_h91_t64 -1 p_r2_g159_h95_t64 -1 p_r2_g162_h98_t64 -1 p_r2_g164_h100_t64 -1 p_r3_g3_h106_t64 -1 p_r3_g8_h111_t64 -1 p_r3_g18_h121_t64 -1 p_r3_g51_h154_t64 -1 p_r3_g56_h159_t64 -1 p_r3_g72_h8_t64 -1 p_r3_g77_h13_t64 -1 p_r3_g79_h15_t64 -1 p_r3_g91_h27_t64 -1 p_r3_g121_h57_t64 = -75 ;
1 d_64 -1 u_64 <= 0 ;
-1 d_64 -1 u_64 <= 0 ;
1 u_64 -1 M <= 0 ;
1 u_64 <= 1 ;
1 p_r0_g4_h102_t69 -1 x_r0_g4 <= 0 ;
1 p_r0_g4_h102_t69 -1 x_r0_g102 <= 0 ;
1 p_r0_g4_h102_t69 -1 x_r0_g4 -1 x_r0_g102 >= -1 ;
1 p_r0_g20_h118_t69 -1 x_r0_g20 <= 0 ;
1 p_r0_g20_h118_t69 -1 x_r0_g118 <= 0 ;
1 p_r0_g20_h118_t69 -1 x_r0_g20 -1 x_r0_g118 >= -1 ;
1 p_r0_g23_h121_t69 -1 x_r0_g23 <= 0 ;
1 p_r0_g23_h121_t69 -1 x_r0_g121 <= 0 ;
1 p_r0_g23_h121_t69 -1 x_r0_g23 -1 x_r0_g121 >= -1 ;
1 p_r0_g25_h123_t69 -1 x_r0_g25 <= 0 ;
1 p_r0_g25_h123_t69 -1 x_r0_g123 <= 0 ;
1 p_r0_g25_h123_t69 -1 x_r0_g25 -1 x_r0_g123 >= -1 ;
1 p_r0_g32_h130_t69 -1 x_r0_g32 <= 0 ;
1 p_r0_g32_h130_t69 -1 x_r0_g130 <= 0 ;
1 p_r0_g32_h130_t69 -1 x_r0_g32 -1 x_r0_g130 >= -1 ;
1 p_r0_g70_h1_t69 -1 x_r0_g70 <= 0 ;
1 p_r0_g70_h1_t69 -1 x_r0_g1 <= 0 ;
1 p_r0_g70_h1_t69 -1 x_r0_g70 -1 x_r0_g1 >= -1 ;
1 p_r0_g97_h28_t69 -1 x_r0_g97 <= 0 ;
1 p_r0_g97_h28_t69 -1 x_r0_g28 <= 0 ;
1 p_r0_g97_h28_t69 -1 x_r0_g97 -1 x_r0_g28 >= -1 ;
1 p_r0_g101_h32_t69 -1 x_r0_g101 <= 0 ;
1 p_r0_g101_h32_t69 -1 x_r0_g32 <= 0 ;
1 p_r0_g101_h32_t69 -1 x_r0_g101 -1 x_r0_g32 >= -1 ;
1 p_r0_g123_h54_t69 -1 x_r0_g123 <= 0 ;
1 p_r0_g123_h54_t69 -1 x_r0_g54 <= 0 ;
1 p_r0_g123_h54_t69 -1 x_r0_g123 -1 x_r0_g54 >= -1 ;
1 p_r0_g153_h84_t69 -1 x_r0_g153 <= 0 ;
1 p_r0_g153_h84_t69 -1 x_r0_g84 <= 0 ;
1 p_r0_g153_h84_t69 -1 x_r0_g153 -1 x_r0_g84 >= -1 ;
1 p_r1_g13_h111_t69 -1 x_r1_g13 <= 0 ;
1 p_r1_g13_h111_t69 -1 x_r1_g111 <= 0 ;
1 p_r1_g13_h111_t69 -1 x_r1_g13 -1 x_r1_g111 >= -1 ;
1 p_r1_g15_h113_t69 -1 x_r1_g15 <= 0 ;
1 p_r1_g15_h113_t69 -1 x_r1_g113 <= 0 ;
1 p_r1_g15_h113_t69 -1 x_r1_g15 -1 x_r1_g113 >= -1 ;
1 p_r1_g30_h128_t69 -1 x_r1_g30 <= 0 ;
1 p_r1_g30_h128_t69 -1 x_r1_g128 <= 0 ;
1 p_r1_g30_h128_t69 -1 x_r1_g30 -1 x_r1_g128 >= -1 ;
1 p_r1_g59_h157_t69 -1 x_r1_g59 <= 0 ;
1 p_r1_g59_h157_t69 -1 x_r1_g157 <= 0 ;
1 p_r1_g59_h157_t69 -1 x_r1_g59 -1 x_r1_g157 >= -1 ;
1 p_r1_g80_h11_t69 -1 x_r1_g80 <= 0 ;
1 p_r1_g80_h11_t69 -1 x_r1_g11 <= 0 ;
1 p_r1_g80_h11_t69 -1 x_r1_g80 -1 x_r1_g11 >= -1 ;
1 p_r1_g107_h38_t69 -1 x_r1_g107 <= 0 ;
1 p_r1_g107_h38_t69 -1 x_r1_g38 <= 0 ;
1 p_r1_g107_h38_t69 -1 x_r1_g107 -1 x_r1_g38 >= -1 ;
1 p_r1_g128_h59_t69 -1 x_r1_g128 <= 0 ;
1 p_r1_g128_h59_t69 -1 x_r1_g59 <= 0 ;
1 p_r1_g128_h59_t69 -1 x_r1_g128 -1 x_r1_g59 >= -1 ;
1 p_r2_g2_h100_t69 -1 x_r2_g2 <= 0 ;
1 p_r2_g2_h100_t69 -1 x_r2_g100 <= 0 ;
1 p_r2_g2_h100_t69 -1 x_r2_g2 -1 x_r2_g100 >= -1 ;
1 p_r2_g30_h128_t69 -1 x_r2_g30 <= 0 ;
1 p_r2_g30_h128_t69 -1 x_r2_g128 <= 0 ;
1 p_r2_g30_h128_t69 -1 x_r2_g30 -1 x_r2_g128 >= -1 ;
1 p_r2_g60_h158_t69 -1 x_r2_g60 <= 0 ;
1 p_r2_g60_h158_t69 -1 x_r2_g158 <= 0 ;
1 p_r2_g60_h158_t69 -1 x_r2_g60 -1 x_r2_g158 >= -1 ;
1 p_r2_g64_h162_t69 -1 x_r2_g64 <= 0 ;
1 p_r2_g64_h162_t69 -1 x_r2_g162 <= 0 ;
1 p_r2_g64_h162_t69 -1 x_r2_g64 -1 x_r2_g162 >= -1 ;
1 p_r2_g66_h164_t69 -1 x_r2_g66 <= 0 ;
1 p_r2_g66_h164_t69 -1 x_r2_g164 <= 0 ;
1 p_r2_g66_h164_t69 -1 x_r2_g66 -1 x_r2_g164 >= -1 ;
1 p_r2_g67_h165_t69 -1 x_r2_g67 <= 0 ;
1 p_r2_g67_h165_t69 -1 x_r2_g165 <= 0 ;
1 p_r2_g67_h165_t69 -1 x_r2_g67 -1 x_r2_g165 >= -1 ;
1 p_r2_g98_h29_t69 -1 x_r2_g98 <= 0 ;
1 p_r2_g98_h29_t69 -1 x_r2_g29 <= 0 ;
1 p_r2_g98_h29_t69 -1 x_r2_g98 -1 x_r2_g29 >= -1 ;
1 p_r2_g135_h66_t69 -1 x_r2_g135 <= 0 ;
1 p_r2_g135_h66_t69 -1 x_r2_g66 <= 0 ;
1 p_r2_g135_h66_t69 -1 x_r2_g135 -1 x_r2_g66 >= -1 ;
1 p_r2_g136_h67_t69 -1 x_r2_g136 <= 0 ;
1 p_r2_g136_h67_t69 -1 x_r2_g67 <= 0 ;
1 p_r2_g136_h67_t69 -1 x_r2_g136 -1 x_r2_g67 >= -1 ;
1 p_r2_g139_h70_t69 -1 x_r2_g139 <= 0 ;
1 p_r2_g139_h70_t69 -1 x_r2_g70 <= 0 ;
1 p_r2_g139_h70_t69 -1 x_r2_g139 -1 x_r2_g70 >= -1 ;
1 p_r2_g142_h73_t69 -1 x_r2_g142 <= 0 ;
1 p_r2_g142_h73_t69 -1 x_r2_g73 <= 0 ;
1 p_r2_g142_h73_t69 -1 x_r2_g142 -1 x_r2_g73 >= -1 ;
1 p_r2_g149_h80_t69 -1 x_r2_g149 <= 0 ;
1 p_r2_g149_h80_t69 -1 x_r2_g80 <= 0 ;
1 p_r2_g149_h80_t69 -1 x_r2_g149 -1 x_r2_g80 >= -1 ;
1 p_r2_g155_h86_t69 -1 x_r2_g155 <= 0 ;
1 p_r2_g155_h86_t69 -1 x_r2_g86 <= 0 ;
1 p_r2_g155_h86_t69 -1 x_r2_g155 -1 x_r2_g86 >= -1 ;
1 p_r2_g164_h95_t69 -1 x_r2_g164 <= 0 ;
1 p_r2_g164_h95_t69 -1 x_r2_g95 <= 0 ;
1 p_r2_g164_h95_t69 -1 x_r2_g164 -1 x_r2_g95 >= -1 ;
1 p_r3_g8_h106_t69 -1 x_r3_g8 <= 0 ;
1 p_r3_g8_h106_t69 -1 x_r3_g106 <= 0 ;
1 p_r3_g8_h106_t69 -1 x_r3_g8 -1 x_r3_g106 >= -1 ;
1 p_r3_g13_h111_t69 -1 x_r3_g13 <= 0 ;
1 p_r3_g13_h111_t69 -1 x_r3_g111 <= 0 ;
1 p_r3_g13_h111_t69 -1 x_r3_g13 -1 x_r3_g111 >= -1 ;
1 p_r3_g15_h113_t69 -1 x_r3_g15 <= 0 ;
1 p_r3_g15_h113_t69 -1 x_r3_g113 <= 0 ;
1 p_r3_g15_h113_t69 -1 x_r3_g15 -1 x_r3_g113 >= -1 ;
1 p_r3_g27_h125_t69 -1 x_r3_g27 <= 0 ;
1 p_r3_g27_h125_t69 -1 x_r3_g125 <= 0 ;
1 p_r3_g27_h125_t69 -1 x_r3_g27 -1 x_r3_g125 >= -1 ;
1 p_r3_g56_h154_t69 -1 x_r3_g56 <= 0 ;
1 p_r3_g56_h154_t69 -1 x_r3_g154 <= 0 ;
1 p_r3_g56_h154_t69 -1 x_r3_g56 -1 x_r3_g154 >= -1 ;
1 p_r3_g72_h3_t69 -1 x_r3_g72 <= 0 ;
1 p_r3_g72_h3_t69 -1 x_r3_g3 <= 0 ;
1 p_r3_g72_h3_t69 -1 x_r3_g72 -1 x_r3_g3 >= -1 ;
1 p_r3_g77_h8_t69 -1 x_r3_g77 <= 0 ;
1 p_r3_g77_h8_t69 -1 x_r3_g8 <= 0 ;
1 p_r3_g77_h8_t69 -1 x_r3_g77 -1 x_r3_g8 >= -1 ;
1 p_r3_g103_h34_t69 -1 x_r3_g103 <= 0 ;
1 p_r3_g103_h34_t69 -1 x_r3_g34 <= 0 ;
1 p_r3_g103_h34_t69 -1 x_r3_g103 -1 x_r3_g34 >= -1 ;
1 p_r3_g125_h56_t69 -1 x_r3_g125 <= 0 ;
1 p_r3_g125_h56_t69 -1 x_r3_g56 <= 0 ;
1 p_r3_g125_h56_t69 -1 x_r3_g125 -1 x_r3_g56 >= -1 ;
1 d_69 -1 x_r0_g22 -1 x_r0_g28 -2 x_r0_g34 -1 x_r0_g37 -1 x_r0_g47 -1 x_r0_g48 -1 x_r0_g54 -1 x_r0_g60 -2 x_r0_g67 -1 x_r0_g68 -1 x_r0_g70 -1 x_r0_g84 -1 x_r0_g101 -1 x_r0_g118 -1 x_r0_g121 -1 x_r0_g131 -2 x_r0_g143 -1 x_r0_g153 -1 x_r1_g11 -1 x_r1_g13 -1 x_r1_g15 -1 x_r1_g17 -1 x_r1_g25 -1 x_r1_g31 -1 x_r1_g62 -1 x_r1_g90 -1 x_r1_g91 -1 x_r1_g96 -2 x_r1_g108 -1 x_r1_g111 -1 x_r1_g113 -1 x_r1_g114 -1 x_r1_g126 -1 x_r1_g154 -1 x_r1_g155 -1 x_r1_g157 -2 x_r2_g18 -1 x_r2_g34 -1 x_r2_g48 -1 x_r2_g60 -1 x_r2_g62 -1 x_r2_g70 -1 x_r2_g73 -1 x_r2_g77 -1 x_r2_g82 -1 x_r2_g91 -1 x_r2_g95 -1 x_r2_g98 -1 x_r2_g100 -1 x_r2_g110 -1 x_r2_g139 -1 x_r2_g152 -2 x_r2_g159 -1 x_r2_g162 -2 x_r2_g163 -1 x_r3_g7 -1 x_r3_g11 -1 x_r3_g34 -1 x_r3_g36 -1 x_r3_g51 -2 x_r3_g53 -2 x_r3_g65 -1 x_r3_g79 -2 x_r3_g91 -1 x_r3_g94 -1 x_r3_g103 -1 x_r3_g106 -2 x_r3_g124 -2 x_r3_g128 -1 x_r3_g138 -2 x_r3_g144 -2 x_r3_g145 -2 x_r3_g147 -1 x_r3_g159 -1 p_r0_g4_h102_t69 -1 p_r0_g20_h118_t69 -1 p_r0_g23_h121_t69 -1 p_r0_g25_h123_t69 -1 p_r0_g32_h130_t69 -1 p_r0_g70_h1_t69 -1 p_r0_g97_h28_t69 -1 p_r0_g101_h32_t69 -1 p_r0_g123_h54_t69 -1 p_r0_g153_h84_t69 -1 p_r1_g13_h111_t69 -1 p_r1_g15_h113_t69 -1 p_r1_g30_h128_t69 -1 p_r1_g59_h157_t69 -1 p_r1_g80_h11_t69 -1 p_r1_g107_h38_t69 -1 p_r1_g128_h59_t69 -1 p_r2_g2_h100_t69 -1 p_r2_g30_h128_t69 -1 p_r2_g60_h158_t69 -1 p_r2_g64_h162_t69 -1 p_r2_g66_h164_t69 -1 p_r2_g67_h165_t69 -1 p_r2_g98_h29_t69 -1 p_r2_g135_h66_t69 -1 p_r2_g136_h67_t69 -1 p_r2_g139_h70_t69 -1 p_r2_g142_h73_t69 -1 p_r2_g149_h80_t69 -1 p_r2_g155_h86_t69 -1 p_r2_g164_h95_t69 -1 p_r3_g8_h106_t69 -1 p_r3_g13_h111_t69 -1 p_r3_g15_h113_t69 -1 p_r3_g27_h125_t69 -1 p_r3_g56_h154_t69 -1 p_r3_g72_h3_t69 -1 p_r3_g77_h8_t69 -1 p_r3_g103_h34_t69 -1 p_r3_g125_h56_t69 = -69 ;
1 d_69 -1 u_69 <= 0 ;
-1 d_69 -1 u_69 <= 0 ;
1 u_69 -1 M <= 0 ;
1 u_69 <= 2 ;
1 p_r0_g7_h101_t73 -1 x_r0_g7 <= 0 ;
1 p_r0_g7_h101_t73 -1 x_r0_g101 <= 0 ;
1 p_r0_g7_h101_t73 -1 x_r0_g7 -1 x_r0_g101 >= -1 ;
1 p_r0_g36_h130_t73 -1 x_r0_g36 <= 0 ;
1 p_r0_g36_h130_t73 -1 x_r0_g130 <= 0 ;
1 p_r0_g36_h130_t73 -1 x_r0_g36 -1 x_r0_g130 >= -1 ;
1 p_r0_g37_h131_t73 -1 x_r0_g37 <= 0 ;
1 p_r0_g37_h131_t73 -1 x_r0_g131 <= 0 ;
1 p_r0_g37_h131_t73 -1 x_r0_g37 -1 x_r0_g131 >= -1 ;
1 p_r0_g68_h162_t73 -1 x_r0_g68 <= 0 ;
1 p_r0_g68_h162_t73 -1 x_r0_g162 <= 0 ;
1 p_r0_g68_h162_t73 -1 x_r0_g68 -1 x_r0_g162 >= -1 ;
1 p_r0_g87_h14_t73 -1 x_r0_g87 <= 0 ;
1 p_r0_g87_h14_t73 -1 x_r0_g14 <= 0 ;
1 p_r0_g87_h14_t73 -1 x_r0_g87 -1 x_r0_g14 >= -1 ;
1 p_r0_g101_h28_t73 -1 x_r0_g101 <= 0 ;
1 p_r0_g101_h28_t73 -1 x_r0_g28 <= 0 ;
1 p_r0_g101_h28_t73 -1 x_r0_g101 -1 x_r0_g28 >= -1 ;
1 p_r0_g121_h48_t73 -1 x_r0_g121 <= 0 ;
1 p_r0_g121_h48_t73 -1 x_r0_g48 <= 0 ;
1 p_r0_g121_h48_t73 -1 x_r0_g121 -1 x_r0_g48 >= -1 ;
1 p_r0_g143_h70_t73 -1 x_r0_g143 <= 0 ;
1 p_r0_g143_h70_t73 -1 x_r0_g70 <= 0 ;
1 p_r0_g143_h70_t73 -1 x_r0_g143 -1 x_r0_g70 >= -1 ;
1 p_r1_g13_h107_t73 -1 x_r1_g13 <= 0 ;
1 p_r1_g13_h107_t73 -1 x_r1_g107 <= 0 ;
1 p_r1_g13_h107_t73 -1 x_r1_g13 -1 x_r1_g107 >= -1 ;
1 p_r1_g17_h111_t73 -1 x_r1_g17 <= 0 ;
1 p_r1_g17_h111_t73 -1 x_r1_g111 <= 0 ;
1 p_r1_g17_h111_t73 -1 x_r1_g17 -1 x_r1_g111 >= -1 ;
1 p_r1_g38_h132_t73 -1 x_r1_g38 <= 0 ;
1 p_r1_g38_h132_t73 -1 x_r1_g132 <= 0 ;
1 p_r1_g38_h132_t73 -1 x_r1_g38 -1 x_r1_g132 >= -1 ;
1 p_r1_g67_h161_t73 -1 x_r1_g67 <= 0 ;
1 p_r1_g67_h161_t73 -1 x_r1_g161 <= 0 ;
1 p_r1_g67_h161_t73 -1 x_r1_g67 -1 x_r1_g161 >= -1 ;
1 p_r1_g90_h17_t73 -1 x_r1_g90 <= 0 ;
1 p_r1_g90_h17_t73 -1 x_r1_g17 <= 0 ;
1 p_r1_g90_h17_t73 -1 x_r1_g90 -1 x_r1_g17 >= -1 ;
1 p_r1_g108_h35_t73 -1 x_r1_g108 <= 0 ;
1 p_r1_g108_h35_t73 -1 x_r1_g35 <= 0 ;
1 p_r1_g108_h35_t73 -1 x_r1_g108 -1 x_r1_g35 >= -1 ;
1 p_r1_g111_h38_t73 -1 x_r1_g111 <= 0 ;
1 p_r1_g111_h38_t73 -1 x_r1_g38 <= 0 ;
1 p_r1_g111_h38_t73 -1 x_r1_g111 -1 x_r1_g38 >= -1 ;
1 p_r1_g126_h53_t73 -1 x_r1_g126 <= 0 ;
1 p_r1_g126_h53_t73 -1 x_r1_g53 <= 0 ;
1 p_r1_g126_h53_t73 -1 x_r1_g126 -1 x_r1_g53 >= -1 ;
1 p_r1_g132_h59_t73 -1 x_r1_g132 <= 0 ;
1 p_r1_g132_h59_t73 -1 x_r1_g59 <= 0 ;
1 p_r1_g132_h59_t73 -1 x_r1_g132 -1 x_r1_g59 >= -1 ;
1 p_r2_g34_h128_t73 -1 x_r2_g34 <= 0 ;
1 p_r2_g34_h128_t73 -1 x_r2_g128 <= 0 ;
1 p_r2_g34_h128_t73 -1 x_r2_g34 -1 x_r2_g128 >= -1 ;
1 p_r2_g48_h142_t73 -1 x_r2_g48 <= 0 ;
1 p_r2_g48_h142_t73 -1 x_r2_g142 <= 0 ;
1 p_r2_g48_h142_t73 -1 x_r2_g48 -1 x_r2_g142 >= -1 ;
1 p_r2_g64_h158_t73 -1 x_r2_g64 <= 0 ;
1 p_r2_g64_h158_t73 -1 x_r2_g158 <= 0 ;
1 p_r2_g64_h158_t73 -1 x_r2_g64 -1 x_r2_g158 >= -1 ;
1 p_r2_g70_h164_t73 -1 x_r2_g70 <= 0 ;
1 p_r2_g70_h164_t73 -1 x_r2_g164 <= 0 ;
1 p_r2_g70_h164_t73 -1 x_r2_g70 -1 x_r2_g164 >= -1 ;
1 p_r2_g91_h18_t73 -1 x_r2_g91 <= 0 ;
1 p_r2_g91_h18_t73 -1 x_r2_g18 <= 0 ;
1 p_r2_g91_h18_t73 -1 x_r2_g91 -1 x_r2_g18 >= -1 ;
1 p_r2_g107_h34_t73 -1 x_r2_g107 <= 0 ;
1 p_r2_g107_h34_t73 -1 x_r2_g34 <= 0 ;
1 p_r2_g107_h34_t73 -1 x_r2_g107 -1 x_r2_g34 >= -1 ;
1 p_r2_g135_h62_t73 -1 x_r2_g135 <= 0 ;
1 p_r2_g135_h62_t73 -1 x_r2_g62 <= 0 ;
1 p_r2_g135_h62_t73 -1 x_r2_g135 -1 x_r2_g62 >= -1 ;
1 p_r2_g139_h66_t73 -1 x_r2_g139 <= 0 ;
1 p_r2_g139_h66_t73 -1 x_r2_g66 <= 0 ;
1 p_r2_g139_h66_t73 -1 x_r2_g139 -1 x_r2_g66 >= -1 ;
1 p_r2_g155_h82_t73 -1 x_r2_g155 <= 0 ;
1 p_r2_g155_h82_t73 -1 x_r2_g82 <= 0 ;
1 p_r2_g155_h82_t73 -1 x_r2_g155 -1 x_r2_g82 >= -1 ;
1 p_r2_g159_h86_t73 -1 x_r2_g159 <= 0 ;
1 p_r2_g159_h86_t73 -1 x_r2_g86 <= 0 ;
1 p_r2_g159_h86_t73 -1 x_r2_g159 -1 x_r2_g86 >= -1 ;
1 p_r2_g164_h91_t73 -1 x_r2_g164 <= 0 ;
1 p_r2_g164_h91_t73 -1 x_r2_g91 <= 0 ;
1 p_r2_g164_h91_t73 -1 x_r2_g164 -1 x_r2_g91 >= -1 ;
1 p_r3_g19_h113_t73 -1 x_r3_g19 <= 0 ;
1 p_r3_g19_h113_t73 -1 x_r3_g113 <= 0 ;
1 p_r3_g19_h113_t73 -1 x_r3_g19 -1 x_r3_g113 >= -1 ;
1 p_r3_g27_h121_t73 -1 x_r3_g27 <= 0 ;
1 p_r3_g27_h121_t73 -1 x_r3_g121 <= 0 ;
1 p_r3_g27_h121_t73 -1 x_r3_g27 -1 x_r3_g121 >= -1 ;
1 p_r3_g34_h128_t73 -1 x_r3_g34 <= 0 ;
1 p_r3_g34_h128_t73 -1 x_r3_g128 <= 0 ;
1 p_r3_g34_h128_t73 -1 x_r3_g34 -1 x_r3_g128 >= -1 ;
1 p_r3_g51_h145_t73 -1 x_r3_g51 <= 0 ;
1 p_r3_g51_h145_t73 -1 x_r3_g145 <= 0 ;
1 p_r3_g51_h145_t73 -1 x_r3_g51 -1 x_r3_g145 >= -1 ;
1 p_r3_g53_h147_t73 -1 x_r3_g53 <= 0 ;
1 p_r3_g53_h147_t73 -1 x_r3_g147 <= 0 ;
1 p_r3_g53_h147_t73 -1 x_r3_g53 -1 x_r3_g147 >= -1 ;
1 p_r3_g65_h159_t73 -1 x_r3_g65 <= 0 ;
1 p_r3_g65_h159_t73 -1 x_r3_g159 <= 0 ;
1 p_r3_g65_h159_t73 -1 x_r3_g65 -1 x_r3_g159 >= -1 ;
1 p_r3_g91_h18_t73 -1 x_r3_g91 <= 0 ;
1 p_r3_g91_h18_t73 -1 x_r3_g18 <= 0 ;
1 p_r3_g91_h18_t73 -1 x_r3_g91 -1 x_r3_g18 >= -1 ;
1 p_r3_g106_h33_t73 -1 x_r3_g106 <= 0 ;
1 p_r3_g106_h33_t73 -1 x_r3_g33 <= 0 ;
1 p_r3_g106_h33_t73 -1 x_r3_g106 -1 x_r3_g33 >= -1 ;
1 p_r3_g124_h51_t73 -1 x_r3_g124 <= 0 ;
1 p_r3_g124_h51_t73 -1 x_r3_g51 <= 0 ;
1 p_r3_g124_h51_t73 -1 x_r3_g124 -1 x_r3_g51 >= -1 ;
1 p_r3_g138_h65_t73 -1 x_r3_g138 <= 0 ;
1 p_r3_g138_h65_t73 -1 x_r3_g65 <= 0 ;
1 p_r3_g138_h65_t73 -1 x_r3_g138 -1 x_r3_g65 >= -1 ;
1 p_r3_g145_h72_t73 -1 x_r3_g145 <= 0 ;
1 p_r3_g145_h72_t73 -1 x_r3_g72 <= 0 ;
1 p_r3_g145_h72_t73 -1 x_r3_g145 -1 x_r3_g72 >= -1 ;
1 d_73 -1 x_r0_g1 -2 x_r0_g4 -1 x_r0_g9 -1 x_r0_g17 -1 x_r0_g22 -2 x_r0_g25 -1 x_r0_g26 -1 x_r0_g28 -1 x_r0_g32 -1 x_r0_g47 -1 x_r0_g48 -1 x_r0_g54 -2 x_r0_g69 -2 x_r0_g79 -2 x_r0_g84 -1 x_r0_g87 -1 x_r0_g97 -1 x_r0_g118 -1 x_r0_g131 -1 x_r0_g143 -1 x_r0_g153 -1 x_r1_g8 -1 x_r1_g11 -2 x_r1_g15 -2 x_r1_g25 -2 x_r1_g30 -1 x_r1_g62 -1 x_r1_g67 -1 x_r1_g76 -2 x_r1_g83 -1 x_r1_g90 -2 x_r1_g91 -2 x_r1_g93 -2 x_r1_g110 -1 x_r1_g113 -1 x_r1_g114 -1 x_r1_g117 -1 x_r1_g121 -1 x_r1_g126 -2 x_r1_g143 -1 x_r1_g154 -1 x_r1_g155 -1 x_r1_g157 -1 x_r1_g161 -1 x_r2_g2 -1 x_r2_g18 -1 x_r2_g29 -1 x_r2_g48 -1 x_r2_g64 -1 x_r2_g66 -2 x_r2_g67 -2 x_r2_g73 -1 x_r2_g74 -2 x_r2_g77 -2 x_r2_g80 -1 x_r2_g95 -2 x_r2_g98 -1 x_r2_g100 -1 x_r2_g120 -1 x_r2_g135 -1 x_r2_g136 -1 x_r2_g152 -1 x_r2_g155 -1 x_r2_g158 -1 x_r2_g159 -1 x_r2_g162 -1 x_r2_g163 -1 x_r3_g3 -1 x_r3_g7 -1 x_r3_g8 -1 x_r3_g13 -2 x_r3_g16 -1 x_r3_g18 -1 x_r3_g33 -1 x_r3_g56 -1 x_r3_g57 -1 x_r3_g72 -1 x_r3_g77 -1 x_r3_g79 -2 x_r3_g103 -1 x_r3_g106 -2 x_r3_g111 -1 x_r3_g113 -1 x_r3_g124 -1 x_r3_g128 -1 x_r3_g147 -1 x_r3_g154 -1 x_r3_g159 -2 x_r3_g162 -1 p_r0_g7_h101_t73 -1 p_r0_g36_h130_t73 -1 p_r0_g37_h131_t73 -1 p_r0_g68_h162_t73 -1 p_r0_g87_h14_t73 -1 p_r0_g101_h28_t73 -1 p_r0_g121_h48_t73 -1 p_r0_g143_h70_t73 -1 p_r1_g13_h107_t73 -1 p_r1_g17_h111_t73 -1 p_r1_g38_h132_t73 -1 p_r1_g67_h161_t73 -1 p_r1_g90_h17_t73 -1 p_r1_g108_h35_t73 -1 p_r1_g111_h38_t73 -1 p_r1_g126_h53_t73 -1 p_r1_g132_h59_t73 -1 p_r2_g34_h128_t73 -1 p_r2_g48_h142_t73 -1 p_r2_g64_h158_t73 -1 p_r2_g70_h164_t73 -1 p_r2_g91_h18_t73 -1 p_r2_g107_h34_t73 -1 p_r2_g135_h62_t73 -1 p_r2_g139_h66_t73 -1 p_r2_g155_h82_t73 -1 p_r2_g159_h86_t73 -1 p_r2_g164_h91_t73 -1 p_r3_g19_h113_t73 -1 p_r3_g27_h121_t73 -1 p_r3_g34_h128_t73 -1 p_r3_g51_h145_t73 -1 p_r3_g53_h147_t73 -1 p_r3_g65_h159_t73 -1 p_r3_g91_h18_t73 -1 p_r3_g106_h33_t73 -1 p_r3_g124_h51_t73 -1 p_r3_g138_h65_t73 -1 p_r3_g145_h72_t73 = -51 ;
1 d_73 -1 u_73 <= 0 ;
-1 d_73 -1 u_73 <= 0 ;
1 u_73 -1 M <= 0 ;
1 u_73 <= 2 ;
1 p_r0_g9_h101_t75 -1 x_r0_g9 <= 0 ;
1 p_r0_g9_h101_t75 -1 x_r0_g101 <= 0 ;
1 p_r0_g9_h101_t75 -1 x_r0_g9 -1 x_r0_g101 >= -1 ;
1 p_r0_g26_h118_t75 -1 x_r0_g26 <= 0 ;
1 p_r0_g26_h118_t75 -1 x_r0_g118 <= 0 ;
1 p_r0_g26_h118_t75 -1 x_r0_g26 -1 x_r0_g118 >= -1 ;
1 p_r0_g70_h162_t75 -1 x_r0_g70 <= 0 ;
1 p_r0_g70_h162_t75 -1 x_r0_g162 <= 0 ;
1 p_r0_g70_h162_t75 -1 x_r0_g70 -1 x_r0_g162 >= -1 ;
1 p_r0_g79_h4_t75 -1 x_r0_g79 <= 0 ;
1 p_r0_g79_h4_t75 -1 x_r0_g4 <= 0 ;
1 p_r0_g79_h4_t75 -1 x_r0_g79 -1 x_r0_g4 >= -1 ;
1 p_r0_g84_h9_t75 -1 x_r0_g84 <= 0 ;
1 p_r0_g84_h9_t75 -1 x_r0_g9 <= 0 ;
1 p_r0_g84_h9_t75 -1 x_r0_g84 -1 x_r0_g9 >= -1 ;
1 p_r0_g97_h22_t75 -1 x_r0_g97 <= 0 ;
1 p_r0_g97_h22_t75 -1 x_r0_g22 <= 0 ;
1 p_r0_g97_h22_t75 -1 x_r0_g97 -1 x_r0_g22 >= -1 ;
1 p_r0_g101_h26_t75 -1 x_r0_g101 <= 0 ;
1 p_r0_g101_h26_t75 -1 x_r0_g26 <= 0 ;
1 p_r0_g101_h26_t75 -1 x_r0_g101 -1 x_r0_g26 >= -1 ;
1 p_r0_g123_h48_t75 -1 x_r0_g123 <= 0 ;
1 p_r0_g123_h48_t75 -1 x_r0_g48 <= 0 ;
1 p_r0_g123_h48_t75 -1 x_r0_g123 -1 x_r0_g48 >= -1 ;
1 p_r0_g143_h68_t75 -1 x_r0_g143 <= 0 ;
1 p_r0_g143_h68_t75 -1 x_r0_g68 <= 0 ;
1 p_r0_g143_h68_t75 -1 x_r0_g143 -1 x_r0_g68 >= -1 ;
1 p_r0_g144_h69_t75 -1 x_r0_g144 <= 0 ;
1 p_r0_g144_h69_t75 -1 x_r0_g69 <= 0 ;
1 p_r0_g144_h69_t75 -1 x_r0_g144 -1 x_r0_g69 >= -1 ;
1 p_r0_g162_h87_t75 -1 x_r0_g162 <= 0 ;
1 p_r0_g162_h87_t75 -1 x_r0_g87 <= 0 ;
1 p_r0_g162_h87_t75 -1 x_r0_g162 -1 x_r0_g87 >= -1 ;
1 p_r1_g15_h107_t75 -1 x_r1_g15 <= 0 ;
1 p_r1_g15_h107_t75 -1 x_r1_g107 <= 0 ;
1 p_r1_g15_h107_t75 -1 x_r1_g15 -1 x_r1_g107 >= -1 ;
1 p_r1_g25_h117_t75 -1 x_r1_g25 <= 0 ;
1 p_r1_g25_h117_t75 -1 x_r1_g117 <= 0 ;
1 p_r1_g25_h117_t75 -1 x_r1_g25 -1 x_r1_g117 >= -1 ;
1 p_r1_g62_h154_t75 -1 x_r1_g62 <= 0 ;
1 p_r1_g62_h154_t75 -1 x_r1_g154 <= 0 ;
1 p_r1_g62_h154_t75 -1 x_r1_g62 -1 x_r1_g154 >= -1 ;
1 p_r1_g83_h8_t75 -1 x_r1_g83 <= 0 ;
1 p_r1_g83_h8_t75 -1 x_r1_g8 <= 0 ;
1 p_r1_g83_h8_t75 -1 x_r1_g83 -1 x_r1_g8 >= -1 ;
1 p_r1_g90_h15_t75 -1 x_r1_g90 <= 0 ;
1 p_r1_g90_h15_t75 -1 x_r1_g15 <= 0 ;
1 p_r1_g90_h15_t75 -1 x_r1_g90 -1 x_r1_g15 >= -1 ;
1 p_r1_g110_h35_t75 -1 x_r1_g110 <= 0 ;
1 p_r1_g110_h35_t75 -1 x_r1_g35 <= 0 ;
1 p_r1_g110_h35_t75 -1 x_r1_g110 -1 x_r1_g35 >= -1 ;
1 p_r1_g113_h38_t75 -1 x_r1_g113 <= 0 ;
1 p_r1_g113_h38_t75 -1 x_r1_g38 <= 0 ;
1 p_r1_g113_h38_t75 -1 x_r1_g113 -1 x_r1_g38 >= -1 ;
1 p_r1_g128_h53_t75 -1 x_r1_g128 <= 0 ;
1 p_r1_g128_h53_t75 -1 x_r1_g53 <= 0 ;
1 p_r1_g128_h53_t75 -1 x_r1_g128 -1 x_r1_g53 >= -1 ;
1 p_r1_g155_h80_t75 -1 x_r1_g155 <= 0 ;
1 p_r1_g155_h80_t75 -1 x_r1_g80 <= 0 ;
1 p_r1_g155_h80_t75 -1 x_r1_g155 -1 x_r1_g80 >= -1 ;
1 p_r2_g18_h110_t75 -1 x_r2_g18 <= 0 ;
1 p_r2_g18_h110_t75 -1 x_r2_g110 <= 0 ;
1 p_r2_g18_h110_t75 -1 x_r2_g18 -1 x_r2_g110 >= -1 ;
1 p_r2_g60_h152_t75 -1 x_r2_g60 <= 0 ;
1 p_r2_g60_h152_t75 -1 x_r2_g152 <= 0 ;
1 p_r2_g60_h152_t75 -1 x_r2_g60 -1 x_r2_g152 >= -1 ;
1 p_r2_g66_h158_t75 -1 x_r2_g66 <= 0 ;
1 p_r2_g66_h158_t75 -1 x_r2_g158 <= 0 ;
1 p_r2_g66_h158_t75 -1 x_r2_g66 -1 x_r2_g158 >= -1 ;
1 p_r2_g67_h159_t75 -1 x_r2_g67 <= 0 ;
1 p_r2_g67_h159_t75 -1 x_r2_g159 <= 0 ;
1 p_r2_g67_h159_t75 -1 x_r2_g67 -1 x_r2_g159 >= -1 ;
1 p_r2_g70_h162_t75 -1 x_r2_g70 <= 0 ;
1 p_r2_g70_h162_t75 -1 x_r2_g162 <= 0 ;
1 p_r2_g70_h162_t75 -1 x_r2_g70 -1 x_r2_g162 >= -1 ;
1 p_r2_g73_h165_t75 -1 x_r2_g73 <= 0 ;
1 p_r2_g73_h165_t75 -1 x_r2_g165 <= 0 ;
1 p_r2_g73_h165_t75 -1 x_r2_g73 -1 x_r2_g165 >= -1 ;
1 p_r2_g77_h2_t75 -1 x_r2_g77 <= 0 ;
1 p_r2_g77_h2_t75 -1 x_r2_g2 <= 0 ;
1 p_r2_g77_h2_t75 -1 x_r2_g77 -1 x_r2_g2 >= -1 ;
1 p_r2_g135_h60_t75 -1 x_r2_g135 <= 0 ;
1 p_r2_g135_h60_t75 -1 x_r2_g60 <= 0 ;
1 p_r2_g135_h60_t75 -1 x_r2_g135 -1 x_r2_g60 >= -1 ;
1 p_r2_g139_h64_t75 -1 x_r2_g139 <= 0 ;
1 p_r2_g139_h64_t75 -1 x_r2_g64 <= 0 ;
1 p_r2_g139_h64_t75 -1 x_r2_g139 -1 x_r2_g64 >= -1 ;
1 p_r2_g142_h67_t75 -1 x_r2_g142 <= 0 ;
1 p_r2_g142_h67_t75 -1 x_r2_g67 <= 0 ;
1 p_r2_g142_h67_t75 -1 x_r2_g142 -1 x_r2_g67 >= -1 ;
1 p_r2_g149_h74_t75 -1 x_r2_g149 <= 0 ;
1 p_r2_g149_h74_t75 -1 x_r2_g74 <= 0 ;
1 p_r2_g149_h74_t75 -1 x_r2_g149 -1 x_r2_g74 >= -1 ;
1 p_r2_g152_h77_t75 -1 x_r2_g152 <= 0 ;
1 p_r2_g152_h77_t75 -1 x_r2_g77 <= 0 ;
1 p_r2_g152_h77_t75 -1 x_r2_g152 -1 x_r2_g77 >= -1 ;
1 p_r2_g155_h80_t75 -1 x_r2_g155 <= 0 ;
1 p_r2_g155_h80_t75 -1 x_r2_g80 <= 0 ;
1 p_r2_g155_h80_t75 -1 x_r2_g155 -1 x_r2_g80 >= -1 ;
1 p_r3_g11_h103_t75 -1 x_r3_g11 <= 0 ;
1 p_r3_g11_h103_t75 -1 x_r3_g103 <= 0 ;
1 p_r3_g11_h103_t75 -1 x_r3_g11 -1 x_r3_g103 >= -1 ;
1 p_r3_g19_h111_t75 -1 x_r3_g19 <= 0 ;
1 p_r3_g19_h111_t75 -1 x_r3_g111 <= 0 ;
1 p_r3_g19_h111_t75 -1 x_r3_g19 -1 x_r3_g111 >= -1 ;
1 p_r3_g33_h125_t75 -1 x_r3_g33 <= 0 ;
1 p_r3_g33_h125_t75 -1 x_r3_g125 <= 0 ;
1 p_r3_g33_h125_t75 -1 x_r3_g33 -1 x_r3_g125 >= -1 ;
1 p_r3_g36_h128_t75 -1 x_r3_g36 <= 0 ;
1 p_r3_g36_h128_t75 -1 x_r3_g128 <= 0 ;
1 p_r3_g36_h128_t75 -1 x_r3_g36 -1 x_r3_g128 >= -1 ;
1 p_r3_g53_h145_t75 -1 x_r3_g53 <= 0 ;
1 p_r3_g53_h145_t75 -1 x_r3_g145 <= 0 ;
1 p_r3_g53_h145_t75 -1 x_r3_g53 -1 x_r3_g145 >= -1 ;
1 p_r3_g91_h16_t75 -1 x_r3_g91 <= 0 ;
1 p_r3_g91_h16_t75 -1 x_r3_g16 <= 0 ;
1 p_r3_g91_h16_t75 -1 x_r3_g91 -1 x_r3_g16 >= -1 ;
1 p_r3_g94_h19_t75 -1 x_r3_g94 <= 0 ;
1 p_r3_g94_h19_t75 -1 x_r3_g19 <= 0 ;
1 p_r3_g94_h19_t75 -1 x_r3_g94 -1 x_r3_g19 >= -1 ;
1 p_r3_g111_h36_t75 -1 x_r3_g111 <= 0 ;
1 p_r3_g111_h36_t75 -1 x_r3_g36 <= 0 ;
1 p_r3_g111_h36_t75 -1 x_r3_g111 -1 x_r3_g36 >= -1 ;
1 p_r3_g128_h53_t75 -1 x_r3_g128 <= 0 ;
1 p_r3_g128_h53_t75 -1 x_r3_g53 <= 0 ;
1 p_r3_g128_h53_t75 -1 x_r3_g128 -1 x_r3_g53 >= -1 ;
1 p_r3_g147_h72_t75 -1 x_r3_g147 <= 0 ;
1 p_r3_g147_h72_t75 -1 x_r3_g72 <= 0 ;
1 p_r3_g147_h72_t75 -1 x_r3_g147 -1 x_r3_g72 >= -1 ;
1 p_r3_g154_h79_t75 -1 x_r3_g154 <= 0 ;
1 p_r3_g154_h79_t75 -1 x_r3_g79 <= 0 ;
1 p_r3_g154_h79_t75 -1 x_r3_g154 -1 x_r3_g79 >= -1 ;
1 d_75 -1 x_r0_g14 -1 x_r0_g23 -1 x_r0_g25 -2 x_r0_g28 -1 x_r0_g34 -1 x_r0_g35 -2 x_r0_g47 -1 x_r0_g54 -1 x_r0_g60 -2 x_r0_g67 -1 x_r0_g68 -1 x_r0_g84 -1 x_r0_g87 -1 x_r0_g97 -1 x_r0_g118 -2 x_r0_g130 -1 x_r0_g143 -1 x_r0_g144 -1 x_r1_g8 -1 x_r1_g11 -1 x_r1_g13 -1 x_r1_g17 -1 x_r1_g25 -1 x_r1_g31 -1 x_r1_g35 -1 x_r1_g38 -1 x_r1_g64 -1 x_r1_g67 -1 x_r1_g76 -2 x_r1_g91 -2 x_r1_g93 -1 x_r1_g107 -1 x_r1_g108 -1 x_r1_g110 -1 x_r1_g111 -1 x_r1_g114 -1 x_r1_g117 -2 x_r1_g121 -1 x_r1_g128 -2 x_r1_g132 -1 x_r1_g143 -1 x_r1_g154 -2 x_r1_g157 -1 x_r1_g161 -1 x_r2_g2 -1 x_r2_g18 -2 x_r2_g29 -2 x_r2_g30 -1 x_r2_g34 -1 x_r2_g48 -1 x_r2_g62 -1 x_r2_g73 -2 x_r2_g82 -1 x_r2_g86 -1 x_r2_g95 -1 x_r2_g100 -1 x_r2_g120 -1 x_r2_g135 -1 x_r2_g136 -1 x_r2_g155 -1 x_r2_g158 -1 x_r2_g162 -1 x_r2_g165 -1 x_r3_g3 -1 x_r3_g7 -1 x_r3_g8 -1 x_r3_g11 -1 x_r3_g16 -1 x_r3_g18 -1 x_r3_g27 -1 x_r3_g33 -1 x_r3_g51 -1 x_r3_g56 -2 x_r3_g57 -1 x_r3_g65 -1 x_r3_g77 -1 x_r3_g79 -1 x_r3_g91 -1 x_r3_g94 -1 x_r3_g103 -1 x_r3_g113 -1 x_r3_g121 -2 x_r3_g124 -1 x_r3_g138 -1 x_r3_g147 -1 x_r3_g154 -1 p_r0_g9_h101_t75 -1 p_r0_g26_h118_t75 -1 p_r0_g70_h162_t75 -1 p_r0_g79_h4_t75 -1 p_r0_g84_h9_t75 -1 p_r0_g97_h22_t75 -1 p_r0_g101_h26_t75 -1 p_r0_g123_h48_t75 -1 p_r0_g143_h68_t75 -1 p_r0_g144_h69_t75 -1 p_r0_g162_h87_t75 -1 p_r1_g15_h107_t75 -1 p_r1_g25_h117_t75 -1 p_r1_g62_h154_t75 -1 p_r1_g83_h8_t75 -1 p_r1_g90_h15_t75 -1 p_r1_g110_h35_t75 -1 p_r1_g113_h38_t75 -1 p_r1_g128_h53_t75 -1 p_r1_g155_h80_t75 -1 p_r2_g18_h110_t75 -1 p_r2_g60_h152_t75 -1 p_r2_g66_h158_t75 -1 p_r2_g67_h159_t75 -1 p_r2_g70_h162_t75 -1 p_r2_g73_h165_t75 -1 p_r2_g77_h2_t75 -1 p_r2_g135_h60_t75 -1 p_r2_g139_h64_t75 -1 p_r2_g142_h67_t75 -1 p_r2_g149_h74_t75 -1 p_r2_g152_h77_t75 -1 p_r2_g155_h80_t75 -1 p_r3_g11_h103_t75 -1 p_r3_g19_h111_t75 -1 p_r3_g33_h125_t75 -1 p_r3_g36_h128_t75 -1 p_r3_g53_h145_t75 -1 p_r3_g91_h16_t75 -1 p_r3_g94_h19_t75 -1 p_r3_g111_h36_t75 -1 p_r3_g128_h53_t75 -1 p_r3_g147_h72_t75 -1 p_r3_g154_h79_t75 = -65 ;
1 d_75 -1 u_75 <= 0 ;
-1 d_75 -1 u_75 <= 0 ;
1 u_75 -1 M <= 0 ;
1 u_75 <= 1 ;
1 p_r0_g17_h101_t83 -1 x_r0_g17 <= 0 ;
1 p_r0_g17_h101_t83 -1 x_r0_g101 <= 0 ;
1 p_r0_g17_h101_t83 -1 x_r0_g17 -1 x_r0_g101 >= -1 ;
1 p_r0_g34_h118_t83 -1 x_r0_g34 <= 0 ;
1 p_r0_g34_h118_t83 -1 x_r0_g118 <= 0 ;
1 p_r0_g34_h118_t83 -1 x_r0_g34 -1 x_r0_g118 >= -1 ;
1 p_r0_g37_h121_t83 -1 x_r0_g37 <= 0 ;
1 p_r0_g37_h121_t83 -1 x_r0_g121 <= 0 ;
1 p_r0_g37_h121_t83 -1 x_r0_g37 -1 x_r0_g121 >= -1 ;
1 p_r0_g47_h131_t83 -1 x_r0_g47 <= 0 ;
1 p_r0_g47_h131_t83 -1 x_r0_g131 <= 0 ;
1 p_r0_g47_h131_t83 -1 x_r0_g47 -1 x_r0_g131 >= -1 ;
1 p_r0_g60_h144_t83 -1 x_r0_g60 <= 0 ;
1 p_r0_g60_h144_t83 -1 x_r0_g144 <= 0 ;
1 p_r0_g60_h144_t83 -1 x_r0_g60 -1 x_r0_g144 >= -1 ;
1 p_r0_g69_h153_t83 -1 x_r0_g69 <= 0 ;
1 p_r0_g69_h153_t83 -1 x_r0_g153 <= 0 ;
1 p_r0_g69_h153_t83 -1 x_r0_g69 -1 x_r0_g153 >= -1 ;
1 p_r0_g84_h1_t83 -1 x_r0_g84 <= 0 ;
1 p_r0_g84_h1_t83 -1 x_r0_g1 <= 0 ;
1 p_r0_g84_h1_t83 -1 x_r0_g84 -1 x_r0_g1 >= -1 ;
1 p_r0_g87_h4_t83 -1 x_r0_g87 <= 0 ;
1 p_r0_g87_h4_t83 -1 x_r0_g4 <= 0 ;
1 p_r0_g87_h4_t83 -1 x_r0_g87 -1 x_r0_g4 >= -1 ;
1 p_r0_g97_h14_t83 -1 x_r0_g97 <= 0 ;
1 p_r0_g97_h14_t83 -1 x_r0_g14 <= 0 ;
1 p_r0_g97_h14_t83 -1 x_r0_g97 -1 x_r0_g14 >= -1 ;
1 p_r0_g118_h35_t83 -1 x_r0_g118 <= 0 ;
1 p_r0_g118_h35_t83 -1 x_r0_g35 <= 0 ;
1 p_r0_g118_h35_t83 -1 x_r0_g118 -1 x_r0_g35 >= -1 ;
1 p_r0_g130_h47_t83 -1 x_r0_g130 <= 0 ;
1 p_r0_g130_h47_t83 -1 x_r0_g47 <= 0 ;
1 p_r0_g130_h47_t83 -1 x_r0_g130 -1 x_r0_g47 >= -1 ;
1 p_r0_g131_h48_t83 -1 x_r0_g131 <= 0 ;
1 p_r0_g131_h48_t83 -1 x_r0_g48 <= 0 ;
1 p_r0_g131_h48_t83 -1 x_r0_g131 -1 x_r0_g48 >= -1 ;
1 p_r0_g143_h60_t83 -1 x_r0_g143 <= 0 ;
1 p_r0_g143_h60_t83 -1 x_r0_g60 <= 0 ;
1 p_r0_g143_h60_t83 -1 x_r0_g143 -1 x_r0_g60 >= -1 ;
1 p_r0_g153_h70_t83 -1 x_r0_g153 <= 0 ;
1 p_r0_g153_h70_t83 -1 x_r0_g70 <= 0 ;
1 p_r0_g153_h70_t83 -1 x_r0_g153 -1 x_r0_g70 >= -1 ;
1 p_r0_g162_h79_t83 -1 x_r0_g162 <= 0 ;
1 p_r0_g162_h79_t83 -1 x_r0_g79 <= 0 ;
1 p_r0_g162_h79_t83 -1 x_r0_g162 -1 x_r0_g79 >= -1 ;
1 p_r1_g30_h114_t83 -1 x_r1_g30 <= 0 ;
1 p_r1_g30_h114_t83 -1 x_r1_g114 <= 0 ;
1 p_r1_g30_h114_t83 -1 x_r1_g30 -1 x_r1_g114 >= -1 ;
1 p_r1_g59_h143_t83 -1 x_r1_g59 <= 0 ;
1 p_r1_g59_h143_t83 -1 x_r1_g143 <= 0 ;
1 p_r1_g59_h143_t83 -1 x_r1_g59 -1 x_r1_g143 >= -1 ;
1 p_r1_g62_h146_t83 -1 x_r1_g62 <= 0 ;
1 p_r1_g62_h146_t83 -1 x_r1_g146 <= 0 ;
1 p_r1_g62_h146_t83 -1 x_r1_g62 -1 x_r1_g146 >= -1 ;
1 p_r1_g91_h8_t83 -1 x_r1_g91 <= 0 ;
1 p_r1_g91_h8_t83 -1 x_r1_g8 <= 0 ;
1 p_r1_g91_h8_t83 -1 x_r1_g91 -1 x_r1_g8 >= -1 ;
1 p_r1_g96_h13_t83 -1 x_r1_g96 <= 0 ;
1 p_r1_g96_h13_t83 -1 x_r1_g13 <= 0 ;
1 p_r1_g96_h13_t83 -1 x_r1_g96 -1 x_r1_g13 >= -1 ;
1 p_r1_g108_h25_t83 -1 x_r1_g108 <= 0 ;
1 p_r1_g108_h25_t83 -1 x_r1_g25 <= 0 ;
1 p_r1_g108_h25_t83 -1 x_r1_g108 -1 x_r1_g25 >= -1 ;
1 p_r1_g113_h30_t83 -1 x_r1_g113 <= 0 ;
1 p_r1_g113_h30_t83 -1 x_r1_g30 <= 0 ;
1 p_r1_g113_h30_t83 -1 x_r1_g113 -1 x_r1_g30 >= -1 ;
1 p_r1_g114_h31_t83 -1 x_r1_g114 <= 0 ;
1 p_r1_g114_h31_t83 -1 x_r1_g31 <= 0 ;
1 p_r1_g114_h31_t83 -1 x_r1_g114 -1 x_r1_g31 >= -1 ;
1 p_r1_g121_h38_t83 -1 x_r1_g121 <= 0 ;
1 p_r1_g121_h38_t83 -1 x_r1_g38 <= 0 ;
1 p_r1_g121_h38_t83 -1 x_r1_g121 -1 x_r1_g38 >= -1 ;
1 p_r2_g2_h86_t83 -1 x_r2_g2 <= 0 ;
1 p_r2_g2_h86_t83 -1 x_r2_g86 <= 0 ;
1 p_r2_g2_h86_t83 -1 x_r2_g2 -1 x_r2_g86 >= -1 ;
1 p_r2_g74_h158_t83 -1 x_r2_g74 <= 0 ;
1 p_r2_g74_h158_t83 -1 x_r2_g158 <= 0 ;
1 p_r2_g74_h158_t83 -1 x_r2_g74 -1 x_r2_g158 >= -1 ;
1 p_r2_g80_h164_t83 -1 x_r2_g80 <= 0 ;
1 p_r2_g80_h164_t83 -1 x_r2_g164 <= 0 ;
1 p_r2_g80_h164_t83 -1 x_r2_g80 -1 x_r2_g164 >= -1 ;
1 p_r2_g149_h66_t83 -1 x_r2_g149 <= 0 ;
1 p_r2_g149_h66_t83 -1 x_r2_g66 <= 0 ;
1 p_r2_g149_h66_t83 -1 x_r2_g149 -1 x_r2_g66 >= -1 ;
1 p_r2_g163_h80_t83 -1 x_r2_g163 <= 0 ;
1 p_r2_g163_h80_t83 -1 x_r2_g80 <= 0 ;
1 p_r2_g163_h80_t83 -1 x_r2_g163 -1 x_r2_g80 >= -1 ;
1 p_r2_g165_h82_t83 -1 x_r2_g165 <= 0 ;
1 p_r2_g165_h82_t83 -1 x_r2_g82 <= 0 ;
1 p_r2_g165_h82_t83 -1 x_r2_g165 -1 x_r2_g82 >= -1 ;
1 p_r3_g7_h91_t83 -1 x_r3_g7 <= 0 ;
1 p_r3_g7_h91_t83 -1 x_r3_g91 <= 0 ;
1 p_r3_g7_h91_t83 -1 x_r3_g7 -1 x_r3_g91 >= -1 ;
1 p_r3_g19_h103_t83 -1 x_r3_g19 <= 0 ;
1 p_r3_g19_h103_t83 -1 x_r3_g103 <= 0 ;
1 p_r3_g19_h103_t83 -1 x_r3_g19 -1 x_r3_g103 >= -1 ;
1 p_r3_g27_h111_t83 -1 x_r3_g27 <= 0 ;
1 p_r3_g27_h111_t83 -1 x_r3_g111 <= 0 ;
1 p_r3_g27_h111_t83 -1 x_r3_g27 -1 x_r3_g111 >= -1 ;
1 p_r3_g91_h8_t83 -1 x_r3_g91 <= 0 ;
1 p_r3_g91_h8_t83 -1 x_r3_g8 <= 0 ;
1 p_r3_g91_h8_t83 -1 x_r3_g91 -1 x_r3_g8 >= -1 ;
1 p_r3_g94_h11_t83 -1 x_r3_g94 <= 0 ;
1 p_r3_g94_h11_t83 -1 x_r3_g11 <= 0 ;
1 p_r3_g94_h11_t83 -1 x_r3_g94 -1 x_r3_g11 >= -1 ;
1 p_r3_g162_h79_t83 -1 x_r3_g162 <= 0 ;
1 p_r3_g162_h79_t83 -1 x_r3_g79 <= 0 ;
1 p_r3_g162_h79_t83 -1 x_r3_g162 -1 x_r3_g79 >= -1 ;
1 d_83 -1 x_r0_g4 -1 x_r0_g7 -1 x_r0_g14 -1 x_r0_g17 -1 x_r0_g20 -1 x_r0_g22 -1 x_r0_g23 -1 x_r0_g32 -1 x_r0_g35 -2 x_r0_g36 -1 x_r0_g37 -1 x_r0_g48 -1 x_r0_g54 -1 x_r0_g67 -2 x_r0_g68 -1 x_r0_g69 -1 x_r0_g79 -1 x_r0_g87 -1 x_r0_g97 -1 x_r0_g102 -1 x_r0_g121 -1 x_r0_g123 -1 x_r0_g143 -1 x_r1_g11 -1 x_r1_g15 -1 x_r1_g17 -1 x_r1_g25 -1 x_r1_g31 -1 x_r1_g35 -1 x_r1_g75 -2 x_r1_g76 -2 x_r1_g80 -1 x_r1_g83 -1 x_r1_g93 -2 x_r1_g110 -1 x_r1_g111 -1 x_r1_g113 -1 x_r1_g121 -1 x_r1_g126 -1 x_r1_g128 -1 x_r1_g132 -1 x_r1_g154 -1 x_r1_g161 -1 x_r2_g2 -2 x_r2_g18 -2 x_r2_g29 -2 x_r2_g30 -1 x_r2_g48 -1 x_r2_g62 -1 x_r2_g64 -1 x_r2_g66 -2 x_r2_g67 -1 x_r2_g70 -1 x_r2_g73 -1 x_r2_g74 -2 x_r2_g77 -1 x_r2_g91 -1 x_r2_g98 -2 x_r2_g110 -2 x_r2_g111 -1 x_r2_g139 -1 x_r2_g142 -1 x_r2_g149 -1 x_r2_g152 -1 x_r2_g158 -1 x_r2_g159 -1 x_r2_g162 -1 x_r3_g3 -2 x_r3_g15 -1 x_r3_g16 -1 x_r3_g27 -1 x_r3_g34 -1 x_r3_g36 -1 x_r3_g51 -1 x_r3_g53 -2 x_r3_g56 -1 x_r3_g57 -2 x_r3_g65 -1 x_r3_g77 -1 x_r3_g79 -1 x_r3_g103 -1 x_r3_g106 -1 x_r3_g111 -1 x_r3_g113 -2 x_r3_g121 -2 x_r3_g123 -2 x_r3_g124 -1 x_r3_g125 -1 x_r3_g128 -1 x_r3_g138 -1 x_r3_g144 -2 x_r3_g145 -2 x_r3_g159 -1 x_r3_g162 -1 x_r3_g165 -1 p_r0_g17_h101_t83 -1 p_r0_g34_h118_t83 -1 p_r0_g37_h121_t83 -1 p_r0_g47_h131_t83 -1 p_r0_g60_h144_t83 -1 p_r0_g69_h153_t83 -1 p_r0_g84_h1_t83 -1 p_r0_g87_h4_t83 -1 p_r0_g97_h14_t83 -1 p_r0_g118_h35_t83 -1 p_r0_g130_h47_t83 -1 p_r0_g131_h48_t83 -1 p_r0_g143_h60_t83 -1 p_r0_g153_h70_t83 -1 p_r0_g162_h79_t83 -1 p_r1_g30_h114_t83 -1 p_r1_g59_h143_t83 -1 p_r1_g62_h146_t83 -1 p_r1_g91_h8_t83 -1 p_r1_g96_h13_t83 -1 p_r1_g108_h25_t83 -1 p_r1_g113_h30_t83 -1 p_r1_g114_h31_t83 -1 p_r1_g121_h38_t83 -1 p_r2_g2_h86_t83 -1 p_r2_g74_h158_t83 -1 p_r2_g80_h164_t83 -1 p_r2_g149_h66_t83 -1 p_r2_g163_h80_t83 -1 p_r2_g165_h82_t83 -1 p_r3_g7_h91_t83 -1 p_r3_g19_h103_t83 -1 p_r3_g27_h111_t83 -1 p_r3_g91_h8_t83 -1 p_r3_g94_h11_t83 -1 p_r3_g162_h79_t83 = -63 ;
1 d_83 -1 u_83 <= 0 ;
-1 d_83 -1 u_83 <= 0 ;
1 u_83 -1 M <= 0 ;
1 u_83 <= 1 ;
1 M <= 3 ;
1 u_1 10 u_2 10 u_3 1 u_4 1 u_7 1 u_9 1 u_10 1 u_12 1 u_13 1 u_16 1 u_18 1 u_19 1 u_20 1 u_21 1 u_22 1 u_23 1 u_26 1 u_29 1 u_36 1 u_37 1 u_38 1 u_39 1 u_44 1 u_50 1 u_58 1 u_62 1 u_64 1 u_69 1 u_73 1 u_75 1 u_83 <= 71 ;
1 F -1 x_r0_g1 -1 x_r0_g4 -1 x_r0_g9 -1 x_r0_g17 -1 x_r0_g22 -1 x_r0_g23 -1 x_r0_g26 -1 x_r0_g28 -1 x_r0_g32 -1 x_r0_g35 -1 x_r0_g69 -1 x_r0_g79 -1 x_r0_g84 -1 x_r0_g87 -1 x_r0_g97 -1 x_r0_g121 -1 x_r0_g130 -1 x_r0_g144 -1 x_r0_g153 -1 x_r0_g162 -1 x_r1_g8 -1 x_r1_g13 -1 x_r1_g17 -1 x_r1_g25 -1 x_r1_g30 -1 x_r1_g35 -1 x_r1_g59 -1 x_r1_g67 -1 x_r1_g75 -1 x_r1_g76 -1 x_r1_g83 -1 x_r1_g93 -1 x_r1_g110 -1 x_r1_g111 -1 x_r1_g117 -1 x_r1_g121 -1 x_r1_g126 -1 x_r1_g143 -1 x_r1_g157 -1 x_r1_g161 -1 x_r2_g2 -1 x_r2_g29 -1 x_r2_g62 -1 x_r2_g66 -1 x_r2_g67 -1 x_r2_g73 -1 x_r2_g77 -1 x_r2_g80 -1 x_r2_g91 -1 x_r2_g95 -1 x_r2_g100 -1 x_r2_g107 -1 x_r2_g111 -1 x_r2_g142 -1 x_r2_g149 -1 x_r2_g155 -1 x_r2_g158 -1 x_r2_g159 -1 x_r2_g164 -1 x_r2_g165 -1 x_r3_g3 -1 x_r3_g7 -1 x_r3_g11 -1 x_r3_g15 -1 x_r3_g16 -1 x_r3_g33 -1 x_r3_g34 -1 x_r3_g51 -1 x_r3_g56 -1 x_r3_g57 -1 x_r3_g72 -1 x_r3_g79 -1 x_r3_g91 -1 x_r3_g103 -1 x_r3_g113 -1 x_r3_g121 -1 x_r3_g125 -1 x_r3_g147 -1 x_r3_g159 -1 x_r3_g165 1 x_r0_g7 1 x_r0_g14 1 x_r0_g20 1 x_r0_g25 1 x_r0_g34 1 x_r0_g36 1 x_r0_g37 1 x_r0_g47 1 x_r0_g48 1 x_r0_g54 1 x_r0_g60 1 x_r0_g67 1 x_r0_g68 1 x_r0_g70 1 x_r0_g101 1 x_r0_g102 1 x_r0_g118 1 x_r0_g123 1 x_r0_g131 1 x_r0_g143 1 x_r1_g11 1 x_r1_g15 1 x_r1_g31 1 x_r1_g38 1 x_r1_g53 1 x_r1_g62 1 x_r1_g64 1 x_r1_g80 1 x_r1_g90 1 x_r1_g91 1 x_r1_g96 1 x_r1_g107 1 x_r1_g108 1 x_r1_g113 1 x_r1_g114 1 x_r1_g128 1 x_r1_g132 1 x_r1_g146 1 x_r1_g154 1 x_r1_g155 1 x_r2_g18 1 x_r2_g30 1 x_r2_g34 1 x_r2_g48 1 x_r2_g60 1 x_r2_g64 1 x_r2_g70 1 x_r2_g74 1 x_r2_g82 1 x_r2_g86 1 x_r2_g98 1 x_r2_g110 1 x_r2_g120 1 x_r2_g128 1 x_r2_g135 1 x_r2_g136 1 x_r2_g139 1 x_r2_g152 1 x_r2_g162 1 x_r2_g163 1 x_r3_g8 1 x_r3_g13 1 x_r3_g18 1 x_r3_g19 1 x_r3_g27 1 x_r3_g36 1 x_r3_g53 1 x_r3_g65 1 x_r3_g77 1 x_r3_g94 1 x_r3_g106 1 x_r3_g111 1 x_r3_g123 1 x_r3_g124 1 x_r3_g128 1 x_r3_g138 1 x_r3_g144 1 x_r3_g145 1 x_r3_g154 1 x_r3_g162 = 80 ;
1 F <= 8 ;
