Minimize
 obj: M
Subject To
 block_size_0: 1 x_r0_g4 + 1 x_r0_g7 + 1 x_r0_g9 + 1 x_r0_g17 + 1 x_r0_g20 + 1 x_r0_g22 + 1 x_r0_g25 + 1 x_r0_g26 + 1 x_r0_g27 + 1 x_r0_g28 + 1 x_r0_g34 + 1 x_r0_g35 + 1 x_r0_g37 + 1 x_r0_g46 + 1 x_r0_g47 + 1 x_r0_g54 + 1 x_r0_g60 + 1 x_r0_g62 + 1 x_r0_g68 + 1 x_r0_g69 + 1 x_r0_g70 + 1 x_r0_g79 + 1 x_r0_g84 + 1 x_r0_g87 + 1 x_r0_g88 + 1 x_r0_g93 + 1 x_r0_g97 + 1 x_r0_g102 + 1 x_r0_g118 + 1 x_r0_g126 + 1 x_r0_g129 + 1 x_r0_g130 + 1 x_r0_g131 + 1 x_r0_g136 + 1 x_r0_g137 + 1 x_r0_g143 + 1 x_r0_g144 + 1 x_r0_g153 + 1 x_r0_g159 + 1 x_r0_g162 = 20
 block_size_1: 1 x_r1_g8 + 1 x_r1_g11 + 1 x_r1_g13 + 1 x_r1_g15 + 1 x_r1_g17 + 1 x_r1_g23 + 1 x_r1_g26 + 1 x_r1_g31 + 1 x_r1_g38 + 1 x_r1_g41 + 1 x_r1_g44 + 1 x_r1_g51 + 1 x_r1_g56 + 1 x_r1_g59 + 1 x_r1_g62 + 1 x_r1_g64 + 1 x_r1_g67 + 1 x_r1_g76 + 1 x_r1_g80 + 1 x_r1_g93 + 1 x_r1_g96 + 1 x_r1_g108 + 1 x_r1_g110 + 1 x_r1_g111 + 1 x_r1_g113 + 1 x_r1_g114 + 1 x_r1_g117 + 1 x_r1_g121 + 1 x_r1_g123 + 1 x_r1_g128 + 1 x_r1_g135 + 1 x_r1_g143 + 1 x_r1_g146 + 1 x_r1_g153 + 1 x_r1_g155 + 1 x_r1_g157 + 1 x_r1_g160 + 1 x_r1_g161 + 1 x_r1_g162 + 1 x_r1_g164 = 20
 block_size_2: 1 x_r2_g2 + 1 x_r2_g18 + 1 x_r2_g21 + 1 x_r2_g29 + 1 x_r2_g30 + 1 x_r2_g48 + 1 x_r2_g54 + 1 x_r2_g60 + 1 x_r2_g62 + 1 x_r2_g64 + 1 x_r2_g66 + 1 x_r2_g70 + 1 x_r2_g73 + 1 x_r2_g74 + 1 x_r2_g77 + 1 x_r2_g80 + 1 x_r2_g86 + 1 x_r2_g91 + 1 x_r2_g102 + 1 x_r2_g105 + 1 x_r2_g107 + 1 x_r2_g110 + 1 x_r2_g120 + 1 x_r2_g128 + 1 x_r2_g130 + 1 x_r2_g131 + 1 x_r2_g133 + 1 x_r2_g139 + 1 x_r2_g141 + 1 x_r2_g142 + 1 x_r2_g143 + 1 x_r2_g146 + 1 x_r2_g149 + 1 x_r2_g152 + 1 x_r2_g155 + 1 x_r2_g158 + 1 x_r2_g159 + 1 x_r2_g162 + 1 x_r2_g163 + 1 x_r2_g165 = 20
 block_size_3: 1 x_r3_g3 + 1 x_r3_g7 + 1 x_r3_g8 + 1 x_r3_g9 + 1 x_r3_g11 + 1 x_r3_g12 + 1 x_r3_g13 + 1 x_r3_g15 + 1 x_r3_g16 + 1 x_r3_g19 + 1 x_r3_g24 + 1 x_r3_g25 + 1 x_r3_g27 + 1 x_r3_g33 + 1 x_r3_g34 + 1 x_r3_g36 + 1 x_r3_g51 + 1 x_r3_g53 + 1 x_r3_g57 + 1 x_r3_g72 + 1 x_r3_g94 + 1 x_r3_g103 + 1 x_r3_g105 + 1 x_r3_g106 + 1 x_r3_g111 + 1 x_r3_g112 + 1 x_r3_g113 + 1 x_r3_g118 + 1 x_r3_g121 + 1 x_r3_g123 + 1 x_r3_g124 + 1 x_r3_g128 + 1 x_r3_g138 + 1 x_r3_g141 + 1 x_r3_g144 + 1 x_r3_g145 + 1 x_r3_g147 + 1 x_r3_g156 + 1 x_r3_g162 + 1 x_r3_g165 = 20
 lin1_1_0_26: p_r0_g26_h25_t1 - x_r0_g26 <= 0
 lin2_1_0_26: p_r0_g26_h25_t1 - x_r0_g25 <= 0
 lin3_1_0_26: p_r0_g26_h25_t1 - x_r0_g26 - x_r0_g25 >= -1
 lin1_1_0_27: p_r0_g27_h26_t1 - x_r0_g27 <= 0
 lin2_1_0_27: p_r0_g27_h26_t1 - x_r0_g26 <= 0
 lin3_1_0_27: p_r0_g27_h26_t1 - x_r0_g27 - x_r0_g26 >= -1
 lin1_1_0_28: p_r0_g28_h27_t1 - x_r0_g28 <= 0
 lin2_1_0_28: p_r0_g28_h27_t1 - x_r0_g27 <= 0
 lin3_1_0_28: p_r0_g28_h27_t1 - x_r0_g28 - x_r0_g27 >= -1
 lin1_1_0_35: p_r0_g35_h34_t1 - x_r0_g35 <= 0
 lin2_1_0_35: p_r0_g35_h34_t1 - x_r0_g34 <= 0
 lin3_1_0_35: p_r0_g35_h34_t1 - x_r0_g35 - x_r0_g34 >= -1
 lin1_1_0_47: p_r0_g47_h46_t1 - x_r0_g47 <= 0
 lin2_1_0_47: p_r0_g47_h46_t1 - x_r0_g46 <= 0
 lin3_1_0_47: p_r0_g47_h46_t1 - x_r0_g47 - x_r0_g46 >= -1
 lin1_1_0_69: p_r0_g69_h68_t1 - x_r0_g69 <= 0
 lin2_1_0_69: p_r0_g69_h68_t1 - x_r0_g68 <= 0
 lin3_1_0_69: p_r0_g69_h68_t1 - x_r0_g69 - x_r0_g68 >= -1
 lin1_1_0_70: p_r0_g70_h69_t1 - x_r0_g70 <= 0
 lin2_1_0_70: p_r0_g70_h69_t1 - x_r0_g69 <= 0
 lin3_1_0_70: p_r0_g70_h69_t1 - x_r0_g70 - x_r0_g69 >= -1
 lin1_1_0_88: p_r0_g88_h87_t1 - x_r0_g88 <= 0
 lin2_1_0_88: p_r0_g88_h87_t1 - x_r0_g87 <= 0
 lin3_1_0_88: p_r0_g88_h87_t1 - x_r0_g88 - x_r0_g87 >= -1
 lin1_1_0_130: p_r0_g130_h129_t1 - x_r0_g130 <= 0
 lin2_1_0_130: p_r0_g130_h129_t1 - x_r0_g129 <= 0
 lin3_1_0_130: p_r0_g130_h129_t1 - x_r0_g130 - x_r0_g129 >= -1
 lin1_1_0_131: p_r0_g131_h130_t1 - x_r0_g131 <= 0
 lin2_1_0_131: p_r0_g131_h130_t1 - x_r0_g130 <= 0
 lin3_1_0_131: p_r0_g131_h130_t1 - x_r0_g131 - x_r0_g130 >= -1
 lin1_1_0_137: p_r0_g137_h136_t1 - x_r0_g137 <= 0
 lin2_1_0_137: p_r0_g137_h136_t1 - x_r0_g136 <= 0
 lin3_1_0_137: p_r0_g137_h136_t1 - x_r0_g137 - x_r0_g136 >= -1
 lin1_1_0_144: p_r0_g144_h143_t1 - x_r0_g144 <= 0
 lin2_1_0_144: p_r0_g144_h143_t1 - x_r0_g143 <= 0
 lin3_1_0_144: p_r0_g144_h143_t1 - x_r0_g144 - x_r0_g143 >= -1
 lin1_1_1_111: p_r1_g111_h110_t1 - x_r1_g111 <= 0
 lin2_1_1_111: p_r1_g111_h110_t1 - x_r1_g110 <= 0
 lin3_1_1_111: p_r1_g111_h110_t1 - x_r1_g111 - x_r1_g110 >= -1
 lin1_1_1_114: p_r1_g114_h113_t1 - x_r1_g114 <= 0
 lin2_1_1_114: p_r1_g114_h113_t1 - x_r1_g113 <= 0
 lin3_1_1_114: p_r1_g114_h113_t1 - x_r1_g114 - x_r1_g113 >= -1
 lin1_1_1_161: p_r1_g161_h160_t1 - x_r1_g161 <= 0
 lin2_1_1_161: p_r1_g161_h160_t1 - x_r1_g160 <= 0
 lin3_1_1_161: p_r1_g161_h160_t1 - x_r1_g161 - x_r1_g160 >= -1
 lin1_1_1_162: p_r1_g162_h161_t1 - x_r1_g162 <= 0
 lin2_1_1_162: p_r1_g162_h161_t1 - x_r1_g161 <= 0
 lin3_1_1_162: p_r1_g162_h161_t1 - x_r1_g162 - x_r1_g161 >= -1
 lin1_1_2_30: p_r2_g30_h29_t1 - x_r2_g30 <= 0
 lin2_1_2_30: p_r2_g30_h29_t1 - x_r2_g29 <= 0
 lin3_1_2_30: p_r2_g30_h29_t1 - x_r2_g30 - x_r2_g29 >= -1
 lin1_1_2_74: p_r2_g74_h73_t1 - x_r2_g74 <= 0
 lin2_1_2_74: p_r2_g74_h73_t1 - x_r2_g73 <= 0
 lin3_1_2_74: p_r2_g74_h73_t1 - x_r2_g74 - x_r2_g73 >= -1
 lin1_1_2_131: p_r2_g131_h130_t1 - x_r2_g131 <= 0
 lin2_1_2_131: p_r2_g131_h130_t1 - x_r2_g130 <= 0
 lin3_1_2_131: p_r2_g131_h130_t1 - x_r2_g131 - x_r2_g130 >= -1
 lin1_1_2_142: p_r2_g142_h141_t1 - x_r2_g142 <= 0
 lin2_1_2_142: p_r2_g142_h141_t1 - x_r2_g141 <= 0
 lin3_1_2_142: p_r2_g142_h141_t1 - x_r2_g142 - x_r2_g141 >= -1
 lin1_1_2_143: p_r2_g143_h142_t1 - x_r2_g143 <= 0
 lin2_1_2_143: p_r2_g143_h142_t1 - x_r2_g142 <= 0
 lin3_1_2_143: p_r2_g143_h142_t1 - x_r2_g143 - x_r2_g142 >= -1
 lin1_1_2_159: p_r2_g159_h158_t1 - x_r2_g159 <= 0
 lin2_1_2_159: p_r2_g159_h158_t1 - x_r2_g158 <= 0
 lin3_1_2_159: p_r2_g159_h158_t1 - x_r2_g159 - x_r2_g158 >= -1
 lin1_1_2_163: p_r2_g163_h162_t1 - x_r2_g163 <= 0
 lin2_1_2_163: p_r2_g163_h162_t1 - x_r2_g162 <= 0
 lin3_1_2_163: p_r2_g163_h162_t1 - x_r2_g163 - x_r2_g162 >= -1
 lin1_1_3_8: p_r3_g8_h7_t1 - x_r3_g8 <= 0
 lin2_1_3_8: p_r3_g8_h7_t1 - x_r3_g7 <= 0
 lin3_1_3_8: p_r3_g8_h7_t1 - x_r3_g8 - x_r3_g7 >= -1
 lin1_1_3_9: p_r3_g9_h8_t1 - x_r3_g9 <= 0
 lin2_1_3_9: p_r3_g9_h8_t1 - x_r3_g8 <= 0
 lin3_1_3_9: p_r3_g9_h8_t1 - x_r3_g9 - x_r3_g8 >= -1
 lin1_1_3_12: p_r3_g12_h11_t1 - x_r3_g12 <= 0
 lin2_1_3_12: p_r3_g12_h11_t1 - x_r3_g11 <= 0
 lin3_1_3_12: p_r3_g12_h11_t1 - x_r3_g12 - x_r3_g11 >= -1
 lin1_1_3_13: p_r3_g13_h12_t1 - x_r3_g13 <= 0
 lin2_1_3_13: p_r3_g13_h12_t1 - x_r3_g12 <= 0
 lin3_1_3_13: p_r3_g13_h12_t1 - x_r3_g13 - x_r3_g12 >= -1
 lin1_1_3_16: p_r3_g16_h15_t1 - x_r3_g16 <= 0
 lin2_1_3_16: p_r3_g16_h15_t1 - x_r3_g15 <= 0
 lin3_1_3_16: p_r3_g16_h15_t1 - x_r3_g16 - x_r3_g15 >= -1
 lin1_1_3_25: p_r3_g25_h24_t1 - x_r3_g25 <= 0
 lin2_1_3_25: p_r3_g25_h24_t1 - x_r3_g24 <= 0
 lin3_1_3_25: p_r3_g25_h24_t1 - x_r3_g25 - x_r3_g24 >= -1
 lin1_1_3_34: p_r3_g34_h33_t1 - x_r3_g34 <= 0
 lin2_1_3_34: p_r3_g34_h33_t1 - x_r3_g33 <= 0
 lin3_1_3_34: p_r3_g34_h33_t1 - x_r3_g34 - x_r3_g33 >= -1
 lin1_1_3_106: p_r3_g106_h105_t1 - x_r3_g106 <= 0
 lin2_1_3_106: p_r3_g106_h105_t1 - x_r3_g105 <= 0
 lin3_1_3_106: p_r3_g106_h105_t1 - x_r3_g106 - x_r3_g105 >= -1
 lin1_1_3_112: p_r3_g112_h111_t1 - x_r3_g112 <= 0
 lin2_1_3_112: p_r3_g112_h111_t1 - x_r3_g111 <= 0
 lin3_1_3_112: p_r3_g112_h111_t1 - x_r3_g112 - x_r3_g111 >= -1
 lin1_1_3_113: p_r3_g113_h112_t1 - x_r3_g113 <= 0
 lin2_1_3_113: p_r3_g113_h112_t1 - x_r3_g112 <= 0
 lin3_1_3_113: p_r3_g113_h112_t1 - x_r3_g113 - x_r3_g112 >= -1
 lin1_1_3_124: p_r3_g124_h123_t1 - x_r3_g124 <= 0
 lin2_1_3_124: p_r3_g124_h123_t1 - x_r3_g123 <= 0
 lin3_1_3_124: p_r3_g124_h123_t1 - x_r3_g124 - x_r3_g123 >= -1
 lin1_1_3_145: p_r3_g145_h144_t1 - x_r3_g145 <= 0
 lin2_1_3_145: p_r3_g145_h144_t1 - x_r3_g144 <= 0
 lin3_1_3_145: p_r3_g145_h144_t1 - x_r3_g145 - x_r3_g144 >= -1
 defect_1: 1 d_1 - 2 x_r0_g4 - 1 x_r0_g7 - 1 x_r0_g20 - 1 x_r0_g35 - 2 x_r0_g37 - 1 x_r0_g46 - 1 x_r0_g47 - 1 x_r0_g54 - 1 x_r0_g60 - 1 x_r0_g62 - 1 x_r0_g68 - 1 x_r0_g97 - 2 x_r0_g102 - 1 x_r0_g118 - 2 x_r0_g126 - 1 x_r0_g131 - 1 x_r0_g143 - 1 x_r0_g153 - 2 x_r0_g159 - 1 x_r0_g162 - 1 x_r1_g11 - 1 x_r1_g15 - 2 x_r1_g17 - 1 x_r1_g26 - 1 x_r1_g31 - 2 x_r1_g38 - 2 x_r1_g41 - 1 x_r1_g56 - 1 x_r1_g64 - 2 x_r1_g67 - 2 x_r1_g80 - 1 x_r1_g96 - 2 x_r1_g108 - 1 x_r1_g110 - 1 x_r1_g111 - 1 x_r1_g113 - 1 x_r1_g114 - 1 x_r1_g117 - 1 x_r1_g123 - 1 x_r1_g128 - 1 x_r1_g153 - 2 x_r1_g155 - 1 x_r1_g157 - 1 x_r1_g160 - 1 x_r1_g162 - 1 x_r1_g164 - 1 x_r2_g2 - 1 x_r2_g21 - 1 x_r2_g29 - 1 x_r2_g30 - 1 x_r2_g48 - 1 x_r2_g60 - 2 x_r2_g62 - 2 x_r2_g64 - 1 x_r2_g66 - 1 x_r2_g74 - 1 x_r2_g77 - 2 x_r2_g86 - 1 x_r2_g91 - 1 x_r2_g102 - 1 x_r2_g105 - 2 x_r2_g120 - 1 x_r2_g128 - 1 x_r2_g130 - 1 x_r2_g131 - 2 x_r2_g133 - 1 x_r2_g139 - 1 x_r2_g141 - 2 x_r2_g149 - 2 x_r2_g152 - 1 x_r2_g158 - 1 x_r2_g159 - 1 x_r2_g162 - 2 x_r3_g3 - 1 x_r3_g7 - 1 x_r3_g16 - 2 x_r3_g19 - 1 x_r3_g25 - 2 x_r3_g27 - 1 x_r3_g33 - 1 x_r3_g36 - 1 x_r3_g111 - 1 x_r3_g118 - 1 x_r3_g121 - 1 x_r3_g123 - 2 x_r3_g128 - 2 x_r3_g138 - 2 x_r3_g141 - 1 x_r3_g144 - 1 x_r3_g147 - 1 x_r3_g162 - 1 x_r3_g165 - 1 p_r0_g26_h25_t1 - 1 p_r0_g27_h26_t1 - 1 p_r0_g28_h27_t1 - 1 p_r0_g35_h34_t1 - 1 p_r0_g47_h46_t1 - 1 p_r0_g69_h68_t1 - 1 p_r0_g70_h69_t1 - 1 p_r0_g88_h87_t1 - 1 p_r0_g130_h129_t1 - 1 p_r0_g131_h130_t1 - 1 p_r0_g137_h136_t1 - 1 p_r0_g144_h143_t1 - 1 p_r1_g111_h110_t1 - 1 p_r1_g114_h113_t1 - 1 p_r1_g161_h160_t1 - 1 p_r1_g162_h161_t1 - 1 p_r2_g30_h29_t1 - 1 p_r2_g74_h73_t1 - 1 p_r2_g131_h130_t1 - 1 p_r2_g142_h141_t1 - 1 p_r2_g143_h142_t1 - 1 p_r2_g159_h158_t1 - 1 p_r2_g163_h162_t1 - 1 p_r3_g8_h7_t1 - 1 p_r3_g9_h8_t1 - 1 p_r3_g12_h11_t1 - 1 p_r3_g13_h12_t1 - 1 p_r3_g16_h15_t1 - 1 p_r3_g25_h24_t1 - 1 p_r3_g34_h33_t1 - 1 p_r3_g106_h105_t1 - 1 p_r3_g112_h111_t1 - 1 p_r3_g113_h112_t1 - 1 p_r3_g124_h123_t1 - 1 p_r3_g145_h144_t1 = -79
 abs_pos_1: d_1 - u_1 <= 0
 abs_neg_1: - d_1 - u_1 <= 0
 max_def_1: u_1 - M <= 0
 cap_1: u_1 <= 1
 lin1_2_0_9: p_r0_g9_h7_t2 - x_r0_g9 <= 0
 lin2_2_0_9: p_r0_g9_h7_t2 - x_r0_g7 <= 0
 lin3_2_0_9: p_r0_g9_h7_t2 - x_r0_g9 - x_r0_g7 >= -1
 lin1_2_0_22: p_r0_g22_h20_t2 - x_r0_g22 <= 0
 lin2_2_0_22: p_r0_g22_h20_t2 - x_r0_g20 <= 0
 lin3_2_0_22: p_r0_g22_h20_t2 - x_r0_g22 - x_r0_g20 >= -1
 lin1_2_0_27: p_r0_g27_h25_t2 - x_r0_g27 <= 0
 lin2_2_0_27: p_r0_g27_h25_t2 - x_r0_g25 <= 0
 lin3_2_0_27: p_r0_g27_h25_t2 - x_r0_g27 - x_r0_g25 >= -1
 lin1_2_0_28: p_r0_g28_h26_t2 - x_r0_g28 <= 0
 lin2_2_0_28: p_r0_g28_h26_t2 - x_r0_g26 <= 0
 lin3_2_0_28: p_r0_g28_h26_t2 - x_r0_g28 - x_r0_g26 >= -1
 lin1_2_0_37: p_r0_g37_h35_t2 - x_r0_g37 <= 0
 lin2_2_0_37: p_r0_g37_h35_t2 - x_r0_g35 <= 0
 lin3_2_0_37: p_r0_g37_h35_t2 - x_r0_g37 - x_r0_g35 >= -1
 lin1_2_0_62: p_r0_g62_h60_t2 - x_r0_g62 <= 0
 lin2_2_0_62: p_r0_g62_h60_t2 - x_r0_g60 <= 0
 lin3_2_0_62: p_r0_g62_h60_t2 - x_r0_g62 - x_r0_g60 >= -1
 lin1_2_0_70: p_r0_g70_h68_t2 - x_r0_g70 <= 0
 lin2_2_0_70: p_r0_g70_h68_t2 - x_r0_g68 <= 0
 lin3_2_0_70: p_r0_g70_h68_t2 - x_r0_g70 - x_r0_g68 >= -1
 lin1_2_0_131: p_r0_g131_h129_t2 - x_r0_g131 <= 0
 lin2_2_0_131: p_r0_g131_h129_t2 - x_r0_g129 <= 0
 lin3_2_0_131: p_r0_g131_h129_t2 - x_r0_g131 - x_r0_g129 >= -1
 lin1_2_1_13: p_r1_g13_h11_t2 - x_r1_g13 <= 0
 lin2_2_1_13: p_r1_g13_h11_t2 - x_r1_g11 <= 0
 lin3_2_1_13: p_r1_g13_h11_t2 - x_r1_g13 - x_r1_g11 >= -1
 lin1_2_1_15: p_r1_g15_h13_t2 - x_r1_g15 <= 0
 lin2_2_1_15: p_r1_g15_h13_t2 - x_r1_g13 <= 0
 lin3_2_1_15: p_r1_g15_h13_t2 - x_r1_g15 - x_r1_g13 >= -1
 lin1_2_1_17: p_r1_g17_h15_t2 - x_r1_g17 <= 0
 lin2_2_1_17: p_r1_g17_h15_t2 - x_r1_g15 <= 0
 lin3_2_1_17: p_r1_g17_h15_t2 - x_r1_g17 - x_r1_g15 >= -1
 lin1_2_1_64: p_r1_g64_h62_t2 - x_r1_g64 <= 0
 lin2_2_1_64: p_r1_g64_h62_t2 - x_r1_g62 <= 0
 lin3_2_1_64: p_r1_g64_h62_t2 - x_r1_g64 - x_r1_g62 >= -1
 lin1_2_1_110: p_r1_g110_h108_t2 - x_r1_g110 <= 0
 lin2_2_1_110: p_r1_g110_h108_t2 - x_r1_g108 <= 0
 lin3_2_1_110: p_r1_g110_h108_t2 - x_r1_g110 - x_r1_g108 >= -1
 lin1_2_1_113: p_r1_g113_h111_t2 - x_r1_g113 <= 0
 lin2_2_1_113: p_r1_g113_h111_t2 - x_r1_g111 <= 0
 lin3_2_1_113: p_r1_g113_h111_t2 - x_r1_g113 - x_r1_g111 >= -1
 lin1_2_1_123: p_r1_g123_h121_t2 - x_r1_g123 <= 0
 lin2_2_1_123: p_r1_g123_h121_t2 - x_r1_g121 <= 0
 lin3_2_1_123: p_r1_g123_h121_t2 - x_r1_g123 - x_r1_g121 >= -1
 lin1_2_1_155: p_r1_g155_h153_t2 - x_r1_g155 <= 0
 lin2_2_1_155: p_r1_g155_h153_t2 - x_r1_g153 <= 0
 lin3_2_1_155: p_r1_g155_h153_t2 - x_r1_g155 - x_r1_g153 >= -1
 lin1_2_1_157: p_r1_g157_h155_t2 - x_r1_g157 <= 0
 lin2_2_1_157: p_r1_g157_h155_t2 - x_r1_g155 <= 0
 lin3_2_1_157: p_r1_g157_h155_t2 - x_r1_g157 - x_r1_g155 >= -1
 lin1_2_1_162: p_r1_g162_h160_t2 - x_r1_g162 <= 0
 lin2_2_1_162: p_r1_g162_h160_t2 - x_r1_g160 <= 0
 lin3_2_1_162: p_r1_g162_h160_t2 - x_r1_g162 - x_r1_g160 >= -1
 lin1_2_1_164: p_r1_g164_h162_t2 - x_r1_g164 <= 0
 lin2_2_1_164: p_r1_g164_h162_t2 - x_r1_g162 <= 0
 lin3_2_1_164: p_r1_g164_h162_t2 - x_r1_g164 - x_r1_g162 >= -1
 lin1_2_2_62: p_r2_g62_h60_t2 - x_r2_g62 <= 0
 lin2_2_2_62: p_r2_g62_h60_t2 - x_r2_g60 <= 0
 lin3_2_2_62: p_r2_g62_h60_t2 - x_r2_g62 - x_r2_g60 >= -1
 lin1_2_2_64: p_r2_g64_h62_t2 - x_r2_g64 <= 0
 lin2_2_2_64: p_r2_g64_h62_t2 - x_r2_g62 <= 0
 lin3_2_2_64: p_r2_g64_h62_t2 - x_r2_g64 - x_r2_g62 >= -1
 lin1_2_2_66: p_r2_g66_h64_t2 - x_r2_g66 <= 0
 lin2_2_2_66: p_r2_g66_h64_t2 - x_r2_g64 <= 0
 lin3_2_2_66: p_r2_g66_h64_t2 - x_r2_g66 - x_r2_g64 >= -1
 lin1_2_2_107: p_r2_g107_h105_t2 - x_r2_g107 <= 0
 lin2_2_2_107: p_r2_g107_h105_t2 - x_r2_g105 <= 0
 lin3_2_2_107: p_r2_g107_h105_t2 - x_r2_g107 - x_r2_g105 >= -1
 lin1_2_2_130: p_r2_g130_h128_t2 - x_r2_g130 <= 0
 lin2_2_2_130: p_r2_g130_h128_t2 - x_r2_g128 <= 0
 lin3_2_2_130: p_r2_g130_h128_t2 - x_r2_g130 - x_r2_g128 >= -1
 lin1_2_2_133: p_r2_g133_h131_t2 - x_r2_g133 <= 0
 lin2_2_2_133: p_r2_g133_h131_t2 - x_r2_g131 <= 0
 lin3_2_2_133: p_r2_g133_h131_t2 - x_r2_g133 - x_r2_g131 >= -1
 lin1_2_2_141: p_r2_g141_h139_t2 - x_r2_g141 <= 0
 lin2_2_2_141: p_r2_g141_h139_t2 - x_r2_g139 <= 0
 lin3_2_2_141: p_r2_g141_h139_t2 - x_r2_g141 - x_r2_g139 >= -1
 lin1_2_2_143: p_r2_g143_h141_t2 - x_r2_g143 <= 0
 lin2_2_2_143: p_r2_g143_h141_t2 - x_r2_g141 <= 0
 lin3_2_2_143: p_r2_g143_h141_t2 - x_r2_g143 - x_r2_g141 >= -1
 lin1_2_2_165: p_r2_g165_h163_t2 - x_r2_g165 <= 0
 lin2_2_2_165: p_r2_g165_h163_t2 - x_r2_g163 <= 0
 lin3_2_2_165: p_r2_g165_h163_t2 - x_r2_g165 - x_r2_g163 >= -1
 lin1_2_3_9: p_r3_g9_h7_t2 - x_r3_g9 <= 0
 lin2_2_3_9: p_r3_g9_h7_t2 - x_r3_g7 <= 0
 lin3_2_3_9: p_r3_g9_h7_t2 - x_r3_g9 - x_r3_g7 >= -1
 lin1_2_3_11: p_r3_g11_h9_t2 - x_r3_g11 <= 0
 lin2_2_3_11: p_r3_g11_h9_t2 - x_r3_g9 <= 0
 lin3_2_3_11: p_r3_g11_h9_t2 - x_r3_g11 - x_r3_g9 >= -1
 lin1_2_3_13: p_r3_g13_h11_t2 - x_r3_g13 <= 0
 lin2_2_3_13: p_r3_g13_h11_t2 - x_r3_g11 <= 0
 lin3_2_3_13: p_r3_g13_h11_t2 - x_r3_g13 - x_r3_g11 >= -1
 lin1_2_3_15: p_r3_g15_h13_t2 - x_r3_g15 <= 0
 lin2_2_3_15: p_r3_g15_h13_t2 - x_r3_g13 <= 0
 lin3_2_3_15: p_r3_g15_h13_t2 - x_r3_g15 - x_r3_g13 >= -1
 lin1_2_3_27: p_r3_g27_h25_t2 - x_r3_g27 <= 0
 lin2_2_3_27: p_r3_g27_h25_t2 - x_r3_g25 <= 0
 lin3_2_3_27: p_r3_g27_h25_t2 - x_r3_g27 - x_r3_g25 >= -1
 lin1_2_3_36: p_r3_g36_h34_t2 - x_r3_g36 <= 0
 lin2_2_3_36: p_r3_g36_h34_t2 - x_r3_g34 <= 0
 lin3_2_3_36: p_r3_g36_h34_t2 - x_r3_g36 - x_r3_g34 >= -1
 lin1_2_3_53: p_r3_g53_h51_t2 - x_r3_g53 <= 0
 lin2_2_3_53: p_r3_g53_h51_t2 - x_r3_g51 <= 0
 lin3_2_3_53: p_r3_g53_h51_t2 - x_r3_g53 - x_r3_g51 >= -1
 lin1_2_3_105: p_r3_g105_h103_t2 - x_r3_g105 <= 0
 lin2_2_3_105: p_r3_g105_h103_t2 - x_r3_g103 <= 0
 lin3_2_3_105: p_r3_g105_h103_t2 - x_r3_g105 - x_r3_g103 >= -1
 lin1_2_3_113: p_r3_g113_h111_t2 - x_r3_g113 <= 0
 lin2_2_3_113: p_r3_g113_h111_t2 - x_r3_g111 <= 0
 lin3_2_3_113: p_r3_g113_h111_t2 - x_r3_g113 - x_r3_g111 >= -1
 lin1_2_3_123: p_r3_g123_h121_t2 - x_r3_g123 <= 0
 lin2_2_3_123: p_r3_g123_h121_t2 - x_r3_g121 <= 0
 lin3_2_3_123: p_r3_g123_h121_t2 - x_r3_g123 - x_r3_g121 >= -1
 lin1_2_3_147: p_r3_g147_h145_t2 - x_r3_g147 <= 0
 lin2_2_3_147: p_r3_g147_h145_t2 - x_r3_g145 <= 0
 lin3_2_3_147: p_r3_g147_h145_t2 - x_r3_g147 - x_r3_g145 >= -1
 defect_2: 1 d_2 - 1 x_r0_g4 - 1 x_r0_g7 - 1 x_r0_g9 - 2 x_r0_g17 - 1 x_r0_g28 - 1 x_r0_g34 - 1 x_r0_g46 - 2 x_r0_g47 - 1 x_r0_g54 - 1 x_r0_g60 - 1 x_r0_g69 - 1 x_r0_g79 - 1 x_r0_g88 - 1 x_r0_g102 - 2 x_r0_g118 - 1 x_r0_g129 - 1 x_r0_g130 - 1 x_r0_g137 - 2 x_r0_g144 - 2 x_r0_g153 - 1 x_r0_g159 - 1 x_r0_g162 - 1 x_r1_g8 - 1 x_r1_g31 - 2 x_r1_g38 - 1 x_r1_g41 - 2 x_r1_g44 - 2 x_r1_g51 - 1 x_r1_g59 - 1 x_r1_g64 - 2 x_r1_g67 - 1 x_r1_g76 - 2 x_r1_g80 - 2 x_r1_g93 - 1 x_r1_g96 - 1 x_r1_g110 - 1 x_r1_g111 - 1 x_r1_g113 - 2 x_r1_g114 - 2 x_r1_g117 - 1 x_r1_g121 - 1 x_r1_g128 - 1 x_r1_g143 - 1 x_r1_g157 - 2 x_r1_g161 - 1 x_r1_g164 - 2 x_r2_g2 - 1 x_r2_g18 - 2 x_r2_g29 - 1 x_r2_g30 - 1 x_r2_g48 - 1 x_r2_g54 - 1 x_r2_g60 - 1 x_r2_g66 - 1 x_r2_g70 - 1 x_r2_g73 - 1 x_r2_g77 - 2 x_r2_g80 - 1 x_r2_g91 - 1 x_r2_g102 - 1 x_r2_g110 - 1 x_r2_g120 - 1 x_r2_g128 - 1 x_r2_g130 - 1 x_r2_g131 - 1 x_r2_g133 - 1 x_r2_g139 - 1 x_r2_g142 - 1 x_r2_g146 - 1 x_r2_g149 - 1 x_r2_g152 - 2 x_r2_g155 - 1 x_r2_g158 - 2 x_r2_g159 - 1 x_r2_g162 - 1 x_r2_g163 - 1 x_r2_g165 - 2 x_r3_g3 - 1 x_r3_g7 - 1 x_r3_g8 - 1 x_r3_g15 - 1 x_r3_g16 - 1 x_r3_g19 - 2 x_r3_g24 - 1 x_r3_g34 - 1 x_r3_g36 - 1 x_r3_g51 - 1 x_r3_g53 - 2 x_r3_g57 - 1 x_r3_g72 - 1 x_r3_g106 - 1 x_r3_g112 - 1 x_r3_g121 - 1 x_r3_g124 - 1 x_r3_g138 - 2 x_r3_g141 - 1 x_r3_g144 - 1 x_r3_g145 - 1 x_r3_g147 - 1 x_r3_g156 - 1 x_r3_g162 - 1 x_r3_g165 - 1 p_r0_g9_h7_t2 - 1 p_r0_g22_h20_t2 - 1 p_r0_g27_h25_t2 - 1 p_r0_g28_h26_t2 - 1 p_r0_g37_h35_t2 - 1 p_r0_g62_h60_t2 - 1 p_r0_g70_h68_t2 - 1 p_r0_g131_h129_t2 - 1 p_r1_g13_h11_t2 - 1 p_r1_g15_h13_t2 - 1 p_r1_g17_h15_t2 - 1 p_r1_g64_h62_t2 - 1 p_r1_g110_h108_t2 - 1 p_r1_g113_h111_t2 - 1 p_r1_g123_h121_t2 - 1 p_r1_g155_h153_t2 - 1 p_r1_g157_h155_t2 - 1 p_r1_g162_h160_t2 - 1 p_r1_g164_h162_t2 - 1 p_r2_g62_h60_t2 - 1 p_r2_g64_h62_t2 - 1 p_r2_g66_h64_t2 - 1 p_r2_g107_h105_t2 - 1 p_r2_g130_h128_t2 - 1 p_r2_g133_h131_t2 - 1 p_r2_g141_h139_t2 - 1 p_r2_g143_h141_t2 - 1 p_r2_g165_h163_t2 - 1 p_r3_g9_h7_t2 - 1 p_r3_g11_h9_t2 - 1 p_r3_g13_h11_t2 - 1 p_r3_g15_h13_t2 - 1 p_r3_g27_h25_t2 - 1 p_r3_g36_h34_t2 - 1 p_r3_g53_h51_t2 - 1 p_r3_g105_h103_t2 - 1 p_r3_g113_h111_t2 - 1 p_r3_g123_h121_t2 - 1 p_r3_g147_h145_t2 = -58
 abs_pos_2: d_2 - u_2 <= 0
 abs_neg_2: - d_2 - u_2 <= 0
 max_def_2: u_2 - M <= 0
 cap_2: u_2 <= 2
 lin1_3_0_7: p_r0_g7_h4_t3 - x_r0_g7 <= 0
 lin2_3_0_7: p_r0_g7_h4_t3 - x_r0_g4 <= 0
 lin3_3_0_7: p_r0_g7_h4_t3 - x_r0_g7 - x_r0_g4 >= -1
 lin1_3_0_20: p_r0_g20_h17_t3 - x_r0_g20 <= 0
 lin2_3_0_20: p_r0_g20_h17_t3 - x_r0_g17 <= 0
 lin3_3_0_20: p_r0_g20_h17_t3 - x_r0_g20 - x_r0_g17 >= -1
 lin1_3_0_25: p_r0_g25_h22_t3 - x_r0_g25 <= 0
 lin2_3_0_25: p_r0_g25_h22_t3 - x_r0_g22 <= 0
 lin3_3_0_25: p_r0_g25_h22_t3 - x_r0_g25 - x_r0_g22 >= -1
 lin1_3_0_28: p_r0_g28_h25_t3 - x_r0_g28 <= 0
 lin2_3_0_28: p_r0_g28_h25_t3 - x_r0_g25 <= 0
 lin3_3_0_28: p_r0_g28_h25_t3 - x_r0_g28 - x_r0_g25 >= -1
 lin1_3_0_37: p_r0_g37_h34_t3 - x_r0_g37 <= 0
 lin2_3_0_37: p_r0_g37_h34_t3 - x_r0_g34 <= 0
 lin3_3_0_37: p_r0_g37_h34_t3 - x_r0_g37 - x_r0_g34 >= -1
 lin1_3_0_87: p_r0_g87_h84_t3 - x_r0_g87 <= 0
 lin2_3_0_87: p_r0_g87_h84_t3 - x_r0_g84 <= 0
 lin3_3_0_87: p_r0_g87_h84_t3 - x_r0_g87 - x_r0_g84 >= -1
 lin1_3_0_129: p_r0_g129_h126_t3 - x_r0_g129 <= 0
 lin2_3_0_129: p_r0_g129_h126_t3 - x_r0_g126 <= 0
 lin3_3_0_129: p_r0_g129_h126_t3 - x_r0_g129 - x_r0_g126 >= -1
 lin1_3_0_162: p_r0_g162_h159_t3 - x_r0_g162 <= 0
 lin2_3_0_162: p_r0_g162_h159_t3 - x_r0_g159 <= 0
 lin3_3_0_162: p_r0_g162_h159_t3 - x_r0_g162 - x_r0_g159 >= -1
 lin1_3_1_11: p_r1_g11_h8_t3 - x_r1_g11 <= 0
 lin2_3_1_11: p_r1_g11_h8_t3 - x_r1_g8 <= 0
 lin3_3_1_11: p_r1_g11_h8_t3 - x_r1_g11 - x_r1_g8 >= -1
 lin1_3_1_26: p_r1_g26_h23_t3 - x_r1_g26 <= 0
 lin2_3_1_26: p_r1_g26_h23_t3 - x_r1_g23 <= 0
 lin3_3_1_26: p_r1_g26_h23_t3 - x_r1_g26 - x_r1_g23 >= -1
 lin1_3_1_41: p_r1_g41_h38_t3 - x_r1_g41 <= 0
 lin2_3_1_41: p_r1_g41_h38_t3 - x_r1_g38 <= 0
 lin3_3_1_41: p_r1_g41_h38_t3 - x_r1_g41 - x_r1_g38 >= -1
 lin1_3_1_44: p_r1_g44_h41_t3 - x_r1_g44 <= 0
 lin2_3_1_44: p_r1_g44_h41_t3 - x_r1_g41 <= 0
 lin3_3_1_44: p_r1_g44_h41_t3 - x_r1_g44 - x_r1_g41 >= -1
 lin1_3_1_59: p_r1_g59_h56_t3 - x_r1_g59 <= 0
 lin2_3_1_59: p_r1_g59_h56_t3 - x_r1_g56 <= 0
 lin3_3_1_59: p_r1_g59_h56_t3 - x_r1_g59 - x_r1_g56 >= -1
 lin1_3_1_62: p_r1_g62_h59_t3 - x_r1_g62 <= 0
 lin2_3_1_62: p_r1_g62_h59_t3 - x_r1_g59 <= 0
 lin3_3_1_62: p_r1_g62_h59_t3 - x_r1_g62 - x_r1_g59 >= -1
 lin1_3_1_67: p_r1_g67_h64_t3 - x_r1_g67 <= 0
 lin2_3_1_67: p_r1_g67_h64_t3 - x_r1_g64 <= 0
 lin3_3_1_67: p_r1_g67_h64_t3 - x_r1_g67 - x_r1_g64 >= -1
 lin1_3_1_96: p_r1_g96_h93_t3 - x_r1_g96 <= 0
 lin2_3_1_96: p_r1_g96_h93_t3 - x_r1_g93 <= 0
 lin3_3_1_96: p_r1_g96_h93_t3 - x_r1_g96 - x_r1_g93 >= -1
 lin1_3_1_111: p_r1_g111_h108_t3 - x_r1_g111 <= 0
 lin2_3_1_111: p_r1_g111_h108_t3 - x_r1_g108 <= 0
 lin3_3_1_111: p_r1_g111_h108_t3 - x_r1_g111 - x_r1_g108 >= -1
 lin1_3_1_113: p_r1_g113_h110_t3 - x_r1_g113 <= 0
 lin2_3_1_113: p_r1_g113_h110_t3 - x_r1_g110 <= 0
 lin3_3_1_113: p_r1_g113_h110_t3 - x_r1_g113 - x_r1_g110 >= -1
 lin1_3_1_114: p_r1_g114_h111_t3 - x_r1_g114 <= 0
 lin2_3_1_114: p_r1_g114_h111_t3 - x_r1_g111 <= 0
 lin3_3_1_114: p_r1_g114_h111_t3 - x_r1_g114 - x_r1_g111 >= -1
 lin1_3_1_117: p_r1_g117_h114_t3 - x_r1_g117 <= 0
 lin2_3_1_117: p_r1_g117_h114_t3 - x_r1_g114 <= 0
 lin3_3_1_117: p_r1_g117_h114_t3 - x_r1_g117 - x_r1_g114 >= -1
 lin1_3_1_146: p_r1_g146_h143_t3 - x_r1_g146 <= 0
 lin2_3_1_146: p_r1_g146_h143_t3 - x_r1_g143 <= 0
 lin3_3_1_146: p_r1_g146_h143_t3 - x_r1_g146 - x_r1_g143 >= -1
 lin1_3_1_160: p_r1_g160_h157_t3 - x_r1_g160 <= 0
 lin2_3_1_160: p_r1_g160_h157_t3 - x_r1_g157 <= 0
 lin3_3_1_160: p_r1_g160_h157_t3 - x_r1_g160 - x_r1_g157 >= -1
 lin1_3_1_164: p_r1_g164_h161_t3 - x_r1_g164 <= 0
 lin2_3_1_164: p_r1_g164_h161_t3 - x_r1_g161 <= 0
 lin3_3_1_164: p_r1_g164_h161_t3 - x_r1_g164 - x_r1_g161 >= -1
 lin1_3_2_21: p_r2_g21_h18_t3 - x_r2_g21 <= 0
 lin2_3_2_21: p_r2_g21_h18_t3 - x_r2_g18 <= 0
 lin3_3_2_21: p_r2_g21_h18_t3 - x_r2_g21 - x_r2_g18 >= -1
 lin1_3_2_73: p_r2_g73_h70_t3 - x_r2_g73 <= 0
 lin2_3_2_73: p_r2_g73_h70_t3 - x_r2_g70 <= 0
 lin3_3_2_73: p_r2_g73_h70_t3 - x_r2_g73 - x_r2_g70 >= -1
 lin1_3_2_77: p_r2_g77_h74_t3 - x_r2_g77 <= 0
 lin2_3_2_77: p_r2_g77_h74_t3 - x_r2_g74 <= 0
 lin3_3_2_77: p_r2_g77_h74_t3 - x_r2_g77 - x_r2_g74 >= -1
 lin1_3_2_80: p_r2_g80_h77_t3 - x_r2_g80 <= 0
 lin2_3_2_80: p_r2_g80_h77_t3 - x_r2_g77 <= 0
 lin3_3_2_80: p_r2_g80_h77_t3 - x_r2_g80 - x_r2_g77 >= -1
 lin1_3_2_105: p_r2_g105_h102_t3 - x_r2_g105 <= 0
 lin2_3_2_105: p_r2_g105_h102_t3 - x_r2_g102 <= 0
 lin3_3_2_105: p_r2_g105_h102_t3 - x_r2_g105 - x_r2_g102 >= -1
 lin1_3_2_110: p_r2_g110_h107_t3 - x_r2_g110 <= 0
 lin2_3_2_110: p_r2_g110_h107_t3 - x_r2_g107 <= 0
 lin3_3_2_110: p_r2_g110_h107_t3 - x_r2_g110 - x_r2_g107 >= -1
 lin1_3_2_131: p_r2_g131_h128_t3 - x_r2_g131 <= 0
 lin2_3_2_131: p_r2_g131_h128_t3 - x_r2_g128 <= 0
 lin3_3_2_131: p_r2_g131_h128_t3 - x_r2_g131 - x_r2_g128 >= -1
 lin1_3_2_133: p_r2_g133_h130_t3 - x_r2_g133 <= 0
 lin2_3_2_133: p_r2_g133_h130_t3 - x_r2_g130 <= 0
 lin3_3_2_133: p_r2_g133_h130_t3 - x_r2_g133 - x_r2_g130 >= -1
 lin1_3_2_142: p_r2_g142_h139_t3 - x_r2_g142 <= 0
 lin2_3_2_142: p_r2_g142_h139_t3 - x_r2_g139 <= 0
 lin3_3_2_142: p_r2_g142_h139_t3 - x_r2_g142 - x_r2_g139 >= -1
 lin1_3_2_146: p_r2_g146_h143_t3 - x_r2_g146 <= 0
 lin2_3_2_146: p_r2_g146_h143_t3 - x_r2_g143 <= 0
 lin3_3_2_146: p_r2_g146_h143_t3 - x_r2_g146 - x_r2_g143 >= -1
 lin1_3_2_149: p_r2_g149_h146_t3 - x_r2_g149 <= 0
 lin2_3_2_149: p_r2_g149_h146_t3 - x_r2_g146 <= 0
 lin3_3_2_149: p_r2_g149_h146_t3 - x_r2_g149 - x_r2_g146 >= -1
 lin1_3_2_152: p_r2_g152_h149_t3 - x_r2_g152 <= 0
 lin2_3_2_152: p_r2_g152_h149_t3 - x_r2_g149 <= 0
 lin3_3_2_152: p_r2_g152_h149_t3 - x_r2_g152 - x_r2_g149 >= -1
 lin1_3_2_155: p_r2_g155_h152_t3 - x_r2_g155 <= 0
 lin2_3_2_155: p_r2_g155_h152_t3 - x_r2_g152 <= 0
 lin3_3_2_155: p_r2_g155_h152_t3 - x_r2_g155 - x_r2_g152 >= -1
 lin1_3_2_158: p_r2_g158_h155_t3 - x_r2_g158 <= 0
 lin2_3_2_158: p_r2_g158_h155_t3 - x_r2_g155 <= 0
 lin3_3_2_158: p_r2_g158_h155_t3 - x_r2_g158 - x_r2_g155 >= -1
 lin1_3_2_162: p_r2_g162_h159_t3 - x_r2_g162 <= 0
 lin2_3_2_162: p_r2_g162_h159_t3 - x_r2_g159 <= 0
 lin3_3_2_162: p_r2_g162_h159_t3 - x_r2_g162 - x_r2_g159 >= -1
 lin1_3_2_165: p_r2_g165_h162_t3 - x_r2_g165 <= 0
 lin2_3_2_165: p_r2_g165_h162_t3 - x_r2_g162 <= 0
 lin3_3_2_165: p_r2_g165_h162_t3 - x_r2_g165 - x_r2_g162 >= -1
 lin1_3_3_11: p_r3_g11_h8_t3 - x_r3_g11 <= 0
 lin2_3_3_11: p_r3_g11_h8_t3 - x_r3_g8 <= 0
 lin3_3_3_11: p_r3_g11_h8_t3 - x_r3_g11 - x_r3_g8 >= -1
 lin1_3_3_12: p_r3_g12_h9_t3 - x_r3_g12 <= 0
 lin2_3_3_12: p_r3_g12_h9_t3 - x_r3_g9 <= 0
 lin3_3_3_12: p_r3_g12_h9_t3 - x_r3_g12 - x_r3_g9 >= -1
 lin1_3_3_15: p_r3_g15_h12_t3 - x_r3_g15 <= 0
 lin2_3_3_15: p_r3_g15_h12_t3 - x_r3_g12 <= 0
 lin3_3_3_15: p_r3_g15_h12_t3 - x_r3_g15 - x_r3_g12 >= -1
 lin1_3_3_16: p_r3_g16_h13_t3 - x_r3_g16 <= 0
 lin2_3_3_16: p_r3_g16_h13_t3 - x_r3_g13 <= 0
 lin3_3_3_16: p_r3_g16_h13_t3 - x_r3_g16 - x_r3_g13 >= -1
 lin1_3_3_19: p_r3_g19_h16_t3 - x_r3_g19 <= 0
 lin2_3_3_19: p_r3_g19_h16_t3 - x_r3_g16 <= 0
 lin3_3_3_19: p_r3_g19_h16_t3 - x_r3_g19 - x_r3_g16 >= -1
 lin1_3_3_27: p_r3_g27_h24_t3 - x_r3_g27 <= 0
 lin2_3_3_27: p_r3_g27_h24_t3 - x_r3_g24 <= 0
 lin3_3_3_27: p_r3_g27_h24_t3 - x_r3_g27 - x_r3_g24 >= -1
 lin1_3_3_36: p_r3_g36_h33_t3 - x_r3_g36 <= 0
 lin2_3_3_36: p_r3_g36_h33_t3 - x_r3_g33 <= 0
 lin3_3_3_36: p_r3_g36_h33_t3 - x_r3_g36 - x_r3_g33 >= -1
 lin1_3_3_106: p_r3_g106_h103_t3 - x_r3_g106 <= 0
 lin2_3_3_106: p_r3_g106_h103_t3 - x_r3_g103 <= 0
 lin3_3_3_106: p_r3_g106_h103_t3 - x_r3_g106 - x_r3_g103 >= -1
 lin1_3_3_121: p_r3_g121_h118_t3 - x_r3_g121 <= 0
 lin2_3_3_121: p_r3_g121_h118_t3 - x_r3_g118 <= 0
 lin3_3_3_121: p_r3_g121_h118_t3 - x_r3_g121 - x_r3_g118 >= -1
 lin1_3_3_124: p_r3_g124_h121_t3 - x_r3_g124 <= 0
 lin2_3_3_124: p_r3_g124_h121_t3 - x_r3_g121 <= 0
 lin3_3_3_124: p_r3_g124_h121_t3 - x_r3_g124 - x_r3_g121 >= -1
 lin1_3_3_141: p_r3_g141_h138_t3 - x_r3_g141 <= 0
 lin2_3_3_141: p_r3_g141_h138_t3 - x_r3_g138 <= 0
 lin3_3_3_141: p_r3_g141_h138_t3 - x_r3_g141 - x_r3_g138 >= -1
 lin1_3_3_144: p_r3_g144_h141_t3 - x_r3_g144 <= 0
 lin2_3_3_144: p_r3_g144_h141_t3 - x_r3_g141 <= 0
 lin3_3_3_144: p_r3_g144_h141_t3 - x_r3_g144 - x_r3_g141 >= -1
 lin1_3_3_147: p_r3_g147_h144_t3 - x_r3_g147 <= 0
 lin2_3_3_147: p_r3_g147_h144_t3 - x_r3_g144 <= 0
 lin3_3_3_147: p_r3_g147_h144_t3 - x_r3_g147 - x_r3_g144 >= -1
 lin1_3_3_165: p_r3_g165_h162_t3 - x_r3_g165 <= 0
 lin2_3_3_165: p_r3_g165_h162_t3 - x_r3_g162 <= 0
 lin3_3_3_165: p_r3_g165_h162_t3 - x_r3_g165 - x_r3_g162 >= -1
 defect_3: 1 d_3 - 2 x_r0_g9 - 1 x_r0_g17 - 1 x_r0_g22 - 1 x_r0_g27 - 1 x_r0_g35 - 1 x_r0_g37 - 2 x_r0_g46 - 1 x_r0_g54 - 1 x_r0_g60 - 2 x_r0_g62 - 1 x_r0_g68 - 1 x_r0_g70 - 1 x_r0_g87 - 1 x_r0_g93 - 1 x_r0_g97 - 1 x_r0_g126 - 1 x_r0_g129 - 1 x_r0_g130 - 1 x_r0_g136 - 1 x_r0_g143 - 1 x_r0_g162 - 2 x_r1_g13 - 1 x_r1_g15 - 1 x_r1_g17 - 1 x_r1_g23 - 1 x_r1_g26 - 1 x_r1_g56 - 1 x_r1_g62 - 1 x_r1_g67 - 1 x_r1_g76 - 1 x_r1_g93 - 1 x_r1_g110 - 1 x_r1_g113 - 1 x_r1_g121 - 2 x_r1_g135 - 1 x_r1_g143 - 1 x_r1_g153 - 1 x_r1_g157 - 1 x_r1_g160 - 1 x_r1_g162 - 1 x_r2_g29 - 2 x_r2_g30 - 1 x_r2_g60 - 1 x_r2_g62 - 1 x_r2_g64 - 1 x_r2_g66 - 1 x_r2_g80 - 1 x_r2_g86 - 1 x_r2_g91 - 1 x_r2_g107 - 1 x_r2_g110 - 1 x_r2_g131 - 1 x_r2_g133 - 1 x_r2_g139 - 1 x_r2_g143 - 1 x_r2_g158 - 1 x_r2_g163 - 1 x_r2_g165 - 1 x_r3_g3 - 1 x_r3_g7 - 1 x_r3_g8 - 1 x_r3_g9 - 1 x_r3_g15 - 1 x_r3_g19 - 2 x_r3_g25 - 1 x_r3_g27 - 1 x_r3_g33 - 1 x_r3_g34 - 1 x_r3_g36 - 1 x_r3_g72 - 1 x_r3_g105 - 1 x_r3_g111 - 1 x_r3_g113 - 1 x_r3_g124 - 2 x_r3_g145 - 1 x_r3_g165 - 1 p_r0_g7_h4_t3 - 1 p_r0_g20_h17_t3 - 1 p_r0_g25_h22_t3 - 1 p_r0_g28_h25_t3 - 1 p_r0_g37_h34_t3 - 1 p_r0_g87_h84_t3 - 1 p_r0_g129_h126_t3 - 1 p_r0_g162_h159_t3 - 1 p_r1_g11_h8_t3 - 1 p_r1_g26_h23_t3 - 1 p_r1_g41_h38_t3 - 1 p_r1_g44_h41_t3 - 1 p_r1_g59_h56_t3 - 1 p_r1_g62_h59_t3 - 1 p_r1_g67_h64_t3 - 1 p_r1_g96_h93_t3 - 1 p_r1_g111_h108_t3 - 1 p_r1_g113_h110_t3 - 1 p_r1_g114_h111_t3 - 1 p_r1_g117_h114_t3 - 1 p_r1_g146_h143_t3 - 1 p_r1_g160_h157_t3 - 1 p_r1_g164_h161_t3 - 1 p_r2_g21_h18_t3 - 1 p_r2_g73_h70_t3 - 1 p_r2_g77_h74_t3 - 1 p_r2_g80_h77_t3 - 1 p_r2_g105_h102_t3 - 1 p_r2_g110_h107_t3 - 1 p_r2_g131_h128_t3 - 1 p_r2_g133_h130_t3 - 1 p_r2_g142_h139_t3 - 1 p_r2_g146_h143_t3 - 1 p_r2_g149_h146_t3 - 1 p_r2_g152_h149_t3 - 1 p_r2_g155_h152_t3 - 1 p_r2_g158_h155_t3 - 1 p_r2_g162_h159_t3 - 1 p_r2_g165_h162_t3 - 1 p_r3_g11_h8_t3 - 1 p_r3_g12_h9_t3 - 1 p_r3_g15_h12_t3 - 1 p_r3_g16_h13_t3 - 1 p_r3_g19_h16_t3 - 1 p_r3_g27_h24_t3 - 1 p_r3_g36_h33_t3 - 1 p_r3_g106_h103_t3 - 1 p_r3_g121_h118_t3 - 1 p_r3_g124_h121_t3 - 1 p_r3_g141_h138_t3 - 1 p_r3_g144_h141_t3 - 1 p_r3_g147_h144_t3 - 1 p_r3_g165_h162_t3 = -39
 abs_pos_3: d_3 - u_3 <= 0
 abs_neg_3: - d_3 - u_3 <= 0
 max_def_3: u_3 - M <= 0
 cap_3: u_3 <= 2
 lin1_4_0_26: p_r0_g26_h22_t4 - x_r0_g26 <= 0
 lin2_4_0_26: p_r0_g26_h22_t4 - x_r0_g22 <= 0
 lin3_4_0_26: p_r0_g26_h22_t4 - x_r0_g26 - x_r0_g22 >= -1
 lin1_4_0_88: p_r0_g88_h84_t4 - x_r0_g88 <= 0
 lin2_4_0_88: p_r0_g88_h84_t4 - x_r0_g84 <= 0
 lin3_4_0_88: p_r0_g88_h84_t4 - x_r0_g88 - x_r0_g84 >= -1
 lin1_4_0_97: p_r0_g97_h93_t4 - x_r0_g97 <= 0
 lin2_4_0_97: p_r0_g97_h93_t4 - x_r0_g93 <= 0
 lin3_4_0_97: p_r0_g97_h93_t4 - x_r0_g97 - x_r0_g93 >= -1
 lin1_4_0_130: p_r0_g130_h126_t4 - x_r0_g130 <= 0
 lin2_4_0_130: p_r0_g130_h126_t4 - x_r0_g126 <= 0
 lin3_4_0_130: p_r0_g130_h126_t4 - x_r0_g130 - x_r0_g126 >= -1
 lin1_4_1_15: p_r1_g15_h11_t4 - x_r1_g15 <= 0
 lin2_4_1_15: p_r1_g15_h11_t4 - x_r1_g11 <= 0
 lin3_4_1_15: p_r1_g15_h11_t4 - x_r1_g15 - x_r1_g11 >= -1
 lin1_4_1_17: p_r1_g17_h13_t4 - x_r1_g17 <= 0
 lin2_4_1_17: p_r1_g17_h13_t4 - x_r1_g13 <= 0
 lin3_4_1_17: p_r1_g17_h13_t4 - x_r1_g17 - x_r1_g13 >= -1
 lin1_4_1_80: p_r1_g80_h76_t4 - x_r1_g80 <= 0
 lin2_4_1_80: p_r1_g80_h76_t4 - x_r1_g76 <= 0
 lin3_4_1_80: p_r1_g80_h76_t4 - x_r1_g80 - x_r1_g76 >= -1
 lin1_4_1_114: p_r1_g114_h110_t4 - x_r1_g114 <= 0
 lin2_4_1_114: p_r1_g114_h110_t4 - x_r1_g110 <= 0
 lin3_4_1_114: p_r1_g114_h110_t4 - x_r1_g114 - x_r1_g110 >= -1
 lin1_4_1_117: p_r1_g117_h113_t4 - x_r1_g117 <= 0
 lin2_4_1_117: p_r1_g117_h113_t4 - x_r1_g113 <= 0
 lin3_4_1_117: p_r1_g117_h113_t4 - x_r1_g117 - x_r1_g113 >= -1
 lin1_4_1_121: p_r1_g121_h117_t4 - x_r1_g121 <= 0
 lin2_4_1_121: p_r1_g121_h117_t4 - x_r1_g117 <= 0
 lin3_4_1_121: p_r1_g121_h117_t4 - x_r1_g121 - x_r1_g117 >= -1
 lin1_4_1_157: p_r1_g157_h153_t4 - x_r1_g157 <= 0
 lin2_4_1_157: p_r1_g157_h153_t4 - x_r1_g153 <= 0
 lin3_4_1_157: p_r1_g157_h153_t4 - x_r1_g157 - x_r1_g153 >= -1
 lin1_4_1_161: p_r1_g161_h157_t4 - x_r1_g161 <= 0
 lin2_4_1_161: p_r1_g161_h157_t4 - x_r1_g157 <= 0
 lin3_4_1_161: p_r1_g161_h157_t4 - x_r1_g161 - x_r1_g157 >= -1
 lin1_4_1_164: p_r1_g164_h160_t4 - x_r1_g164 <= 0
 lin2_4_1_164: p_r1_g164_h160_t4 - x_r1_g160 <= 0
 lin3_4_1_164: p_r1_g164_h160_t4 - x_r1_g164 - x_r1_g160 >= -1
 lin1_4_2_2: p_r2_g2_h165_t4 - x_r2_g2 <= 0
 lin2_4_2_2: p_r2_g2_h165_t4 - x_r2_g165 <= 0
 lin3_4_2_2: p_r2_g2_h165_t4 - x_r2_g2 - x_r2_g165 >= -1
 lin1_4_2_64: p_r2_g64_h60_t4 - x_r2_g64 <= 0
 lin2_4_2_64: p_r2_g64_h60_t4 - x_r2_g60 <= 0
 lin3_4_2_64: p_r2_g64_h60_t4 - x_r2_g64 - x_r2_g60 >= -1
 lin1_4_2_66: p_r2_g66_h62_t4 - x_r2_g66 <= 0
 lin2_4_2_66: p_r2_g66_h62_t4 - x_r2_g62 <= 0
 lin3_4_2_66: p_r2_g66_h62_t4 - x_r2_g66 - x_r2_g62 >= -1
 lin1_4_2_70: p_r2_g70_h66_t4 - x_r2_g70 <= 0
 lin2_4_2_70: p_r2_g70_h66_t4 - x_r2_g66 <= 0
 lin3_4_2_70: p_r2_g70_h66_t4 - x_r2_g70 - x_r2_g66 >= -1
 lin1_4_2_74: p_r2_g74_h70_t4 - x_r2_g74 <= 0
 lin2_4_2_74: p_r2_g74_h70_t4 - x_r2_g70 <= 0
 lin3_4_2_74: p_r2_g74_h70_t4 - x_r2_g74 - x_r2_g70 >= -1
 lin1_4_2_77: p_r2_g77_h73_t4 - x_r2_g77 <= 0
 lin2_4_2_77: p_r2_g77_h73_t4 - x_r2_g73 <= 0
 lin3_4_2_77: p_r2_g77_h73_t4 - x_r2_g77 - x_r2_g73 >= -1
 lin1_4_2_143: p_r2_g143_h139_t4 - x_r2_g143 <= 0
 lin2_4_2_143: p_r2_g143_h139_t4 - x_r2_g139 <= 0
 lin3_4_2_143: p_r2_g143_h139_t4 - x_r2_g143 - x_r2_g139 >= -1
 lin1_4_2_146: p_r2_g146_h142_t4 - x_r2_g146 <= 0
 lin2_4_2_146: p_r2_g146_h142_t4 - x_r2_g142 <= 0
 lin3_4_2_146: p_r2_g146_h142_t4 - x_r2_g146 - x_r2_g142 >= -1
 lin1_4_2_159: p_r2_g159_h155_t4 - x_r2_g159 <= 0
 lin2_4_2_159: p_r2_g159_h155_t4 - x_r2_g155 <= 0
 lin3_4_2_159: p_r2_g159_h155_t4 - x_r2_g159 - x_r2_g155 >= -1
 lin1_4_2_162: p_r2_g162_h158_t4 - x_r2_g162 <= 0
 lin2_4_2_162: p_r2_g162_h158_t4 - x_r2_g158 <= 0
 lin3_4_2_162: p_r2_g162_h158_t4 - x_r2_g162 - x_r2_g158 >= -1
 lin1_4_2_163: p_r2_g163_h159_t4 - x_r2_g163 <= 0
 lin2_4_2_163: p_r2_g163_h159_t4 - x_r2_g159 <= 0
 lin3_4_2_163: p_r2_g163_h159_t4 - x_r2_g163 - x_r2_g159 >= -1
 lin1_4_3_7: p_r3_g7_h3_t4 - x_r3_g7 <= 0
 lin2_4_3_7: p_r3_g7_h3_t4 - x_r3_g3 <= 0
 lin3_4_3_7: p_r3_g7_h3_t4 - x_r3_g7 - x_r3_g3 >= -1
 lin1_4_3_11: p_r3_g11_h7_t4 - x_r3_g11 <= 0
 lin2_4_3_11: p_r3_g11_h7_t4 - x_r3_g7 <= 0
 lin3_4_3_11: p_r3_g11_h7_t4 - x_r3_g11 - x_r3_g7 >= -1
 lin1_4_3_12: p_r3_g12_h8_t4 - x_r3_g12 <= 0
 lin2_4_3_12: p_r3_g12_h8_t4 - x_r3_g8 <= 0
 lin3_4_3_12: p_r3_g12_h8_t4 - x_r3_g12 - x_r3_g8 >= -1
 lin1_4_3_13: p_r3_g13_h9_t4 - x_r3_g13 <= 0
 lin2_4_3_13: p_r3_g13_h9_t4 - x_r3_g9 <= 0
 lin3_4_3_13: p_r3_g13_h9_t4 - x_r3_g13 - x_r3_g9 >= -1
 lin1_4_3_15: p_r3_g15_h11_t4 - x_r3_g15 <= 0
 lin2_4_3_15: p_r3_g15_h11_t4 - x_r3_g11 <= 0
 lin3_4_3_15: p_r3_g15_h11_t4 - x_r3_g15 - x_r3_g11 >= -1
 lin1_4_3_16: p_r3_g16_h12_t4 - x_r3_g16 <= 0
 lin2_4_3_16: p_r3_g16_h12_t4 - x_r3_g12 <= 0
 lin3_4_3_16: p_r3_g16_h12_t4 - x_r3_g16 - x_r3_g12 >= -1
 lin1_4_3_19: p_r3_g19_h15_t4 - x_r3_g19 <= 0
 lin2_4_3_19: p_r3_g19_h15_t4 - x_r3_g15 <= 0
 lin3_4_3_19: p_r3_g19_h15_t4 - x_r3_g19 - x_r3_g15 >= -1
 lin1_4_3_57: p_r3_g57_h53_t4 - x_r3_g57 <= 0
 lin2_4_3_57: p_r3_g57_h53_t4 - x_r3_g53 <= 0
 lin3_4_3_57: p_r3_g57_h53_t4 - x_r3_g57 - x_r3_g53 >= -1
 lin1_4_3_128: p_r3_g128_h124_t4 - x_r3_g128 <= 0
 lin2_4_3_128: p_r3_g128_h124_t4 - x_r3_g124 <= 0
 lin3_4_3_128: p_r3_g128_h124_t4 - x_r3_g128 - x_r3_g124 >= -1
 lin1_4_3_145: p_r3_g145_h141_t4 - x_r3_g145 <= 0
 lin2_4_3_145: p_r3_g145_h141_t4 - x_r3_g141 <= 0
 lin3_4_3_145: p_r3_g145_h141_t4 - x_r3_g145 - x_r3_g141 >= -1
 defect_4: 1 d_4 - 2 x_r0_g7 - 2 x_r0_g9 - 1 x_r0_g17 - 1 x_r0_g26 - 2 x_r0_g34 - 1 x_r0_g46 - 2 x_r0_g47 - 1 x_r0_g54 - 1 x_r0_g62 - 1 x_r0_g69 - 1 x_r0_g70 - 1 x_r0_g97 - 2 x_r0_g102 - 1 x_r0_g118 - 1 x_r0_g126 - 1 x_r0_g129 - 1 x_r0_g131 - 1 x_r0_g136 - 1 x_r0_g143 - 2 x_r0_g153 - 2 x_r0_g159 - 1 x_r0_g162 - 1 x_r1_g23 - 1 x_r1_g31 - 1 x_r1_g38 - 1 x_r1_g41 - 1 x_r1_g44 - 1 x_r1_g62 - 1 x_r1_g64 - 1 x_r1_g80 - 1 x_r1_g93 - 1 x_r1_g96 - 1 x_r1_g108 - 2 x_r1_g111 - 1 x_r1_g113 - 2 x_r1_g123 - 2 x_r1_g128 - 1 x_r1_g155 - 1 x_r1_g160 - 1 x_r1_g162 - 1 x_r1_g164 - 1 x_r2_g18 - 1 x_r2_g21 - 2 x_r2_g29 - 2 x_r2_g30 - 1 x_r2_g54 - 1 x_r2_g60 - 1 x_r2_g62 - 1 x_r2_g64 - 1 x_r2_g74 - 2 x_r2_g86 - 1 x_r2_g91 - 1 x_r2_g102 - 1 x_r2_g105 - 1 x_r2_g110 - 1 x_r2_g120 - 1 x_r2_g128 - 2 x_r2_g130 - 1 x_r2_g131 - 2 x_r2_g133 - 1 x_r2_g139 - 1 x_r2_g141 - 1 x_r2_g146 - 1 x_r2_g149 - 1 x_r2_g152 - 1 x_r2_g155 - 1 x_r2_g163 - 1 x_r2_g165 - 1 x_r3_g3 - 1 x_r3_g8 - 1 x_r3_g9 - 1 x_r3_g13 - 1 x_r3_g16 - 2 x_r3_g24 - 1 x_r3_g33 - 2 x_r3_g34 - 2 x_r3_g36 - 2 x_r3_g51 - 1 x_r3_g53 - 1 x_r3_g57 - 2 x_r3_g72 - 1 x_r3_g94 - 1 x_r3_g103 - 1 x_r3_g106 - 1 x_r3_g112 - 1 x_r3_g118 - 2 x_r3_g123 - 1 x_r3_g128 - 2 x_r3_g138 - 1 x_r3_g141 - 2 x_r3_g144 - 1 x_r3_g145 - 2 x_r3_g147 - 1 x_r3_g156 - 1 x_r3_g162 - 1 x_r3_g165 - 1 p_r0_g26_h22_t4 - 1 p_r0_g88_h84_t4 - 1 p_r0_g97_h93_t4 - 1 p_r0_g130_h126_t4 - 1 p_r1_g15_h11_t4 - 1 p_r1_g17_h13_t4 - 1 p_r1_g80_h76_t4 - 1 p_r1_g114_h110_t4 - 1 p_r1_g117_h113_t4 - 1 p_r1_g121_h117_t4 - 1 p_r1_g157_h153_t4 - 1 p_r1_g161_h157_t4 - 1 p_r1_g164_h160_t4 - 1 p_r2_g2_h165_t4 - 1 p_r2_g64_h60_t4 - 1 p_r2_g66_h62_t4 - 1 p_r2_g70_h66_t4 - 1 p_r2_g74_h70_t4 - 1 p_r2_g77_h73_t4 - 1 p_r2_g143_h139_t4 - 1 p_r2_g146_h142_t4 - 1 p_r2_g159_h155_t4 - 1 p_r2_g162_h158_t4 - 1 p_r2_g163_h159_t4 - 1 p_r3_g7_h3_t4 - 1 p_r3_g11_h7_t4 - 1 p_r3_g12_h8_t4 - 1 p_r3_g13_h9_t4 - 1 p_r3_g15_h11_t4 - 1 p_r3_g16_h12_t4 - 1 p_r3_g19_h15_t4 - 1 p_r3_g57_h53_t4 - 1 p_r3_g128_h124_t4 - 1 p_r3_g145_h141_t4 = -79
 abs_pos_4: d_4 - u_4 <= 0
 abs_neg_4: - d_4 - u_4 <= 0
 max_def_4: u_4 - M <= 0
 cap_4: u_4 <= 1
 lin1_7_0_27: p_r0_g27_h20_t7 - x_r0_g27 <= 0
 lin2_7_0_27: p_r0_g27_h20_t7 - x_r0_g20 <= 0
 lin3_7_0_27: p_r0_g27_h20_t7 - x_r0_g27 - x_r0_g20 >= -1
 lin1_7_0_34: p_r0_g34_h27_t7 - x_r0_g34 <= 0
 lin2_7_0_34: p_r0_g34_h27_t7 - x_r0_g27 <= 0
 lin3_7_0_34: p_r0_g34_h27_t7 - x_r0_g34 - x_r0_g27 >= -1
 lin1_7_0_35: p_r0_g35_h28_t7 - x_r0_g35 <= 0
 lin2_7_0_35: p_r0_g35_h28_t7 - x_r0_g28 <= 0
 lin3_7_0_35: p_r0_g35_h28_t7 - x_r0_g35 - x_r0_g28 >= -1
 lin1_7_0_54: p_r0_g54_h47_t7 - x_r0_g54 <= 0
 lin2_7_0_54: p_r0_g54_h47_t7 - x_r0_g47 <= 0
 lin3_7_0_54: p_r0_g54_h47_t7 - x_r0_g54 - x_r0_g47 >= -1
 lin1_7_0_69: p_r0_g69_h62_t7 - x_r0_g69 <= 0
 lin2_7_0_69: p_r0_g69_h62_t7 - x_r0_g62 <= 0
 lin3_7_0_69: p_r0_g69_h62_t7 - x_r0_g69 - x_r0_g62 >= -1
 lin1_7_0_136: p_r0_g136_h129_t7 - x_r0_g136 <= 0
 lin2_7_0_136: p_r0_g136_h129_t7 - x_r0_g129 <= 0
 lin3_7_0_136: p_r0_g136_h129_t7 - x_r0_g136 - x_r0_g129 >= -1
 lin1_7_0_137: p_r0_g137_h130_t7 - x_r0_g137 <= 0
 lin2_7_0_137: p_r0_g137_h130_t7 - x_r0_g130 <= 0
 lin3_7_0_137: p_r0_g137_h130_t7 - x_r0_g137 - x_r0_g130 >= -1
 lin1_7_0_143: p_r0_g143_h136_t7 - x_r0_g143 <= 0
 lin2_7_0_143: p_r0_g143_h136_t7 - x_r0_g136 <= 0
 lin3_7_0_143: p_r0_g143_h136_t7 - x_r0_g143 - x_r0_g136 >= -1
 lin1_7_0_144: p_r0_g144_h137_t7 - x_r0_g144 <= 0
 lin2_7_0_144: p_r0_g144_h137_t7 - x_r0_g137 <= 0
 lin3_7_0_144: p_r0_g144_h137_t7 - x_r0_g144 - x_r0_g137 >= -1
 lin1_7_1_15: p_r1_g15_h8_t7 - x_r1_g15 <= 0
 lin2_7_1_15: p_r1_g15_h8_t7 - x_r1_g8 <= 0
 lin3_7_1_15: p_r1_g15_h8_t7 - x_r1_g15 - x_r1_g8 >= -1
 lin1_7_1_38: p_r1_g38_h31_t7 - x_r1_g38 <= 0
 lin2_7_1_38: p_r1_g38_h31_t7 - x_r1_g31 <= 0
 lin3_7_1_38: p_r1_g38_h31_t7 - x_r1_g38 - x_r1_g31 >= -1
 lin1_7_1_51: p_r1_g51_h44_t7 - x_r1_g51 <= 0
 lin2_7_1_51: p_r1_g51_h44_t7 - x_r1_g44 <= 0
 lin3_7_1_51: p_r1_g51_h44_t7 - x_r1_g51 - x_r1_g44 >= -1
 lin1_7_1_117: p_r1_g117_h110_t7 - x_r1_g117 <= 0
 lin2_7_1_117: p_r1_g117_h110_t7 - x_r1_g110 <= 0
 lin3_7_1_117: p_r1_g117_h110_t7 - x_r1_g117 - x_r1_g110 >= -1
 lin1_7_1_121: p_r1_g121_h114_t7 - x_r1_g121 <= 0
 lin2_7_1_121: p_r1_g121_h114_t7 - x_r1_g114 <= 0
 lin3_7_1_121: p_r1_g121_h114_t7 - x_r1_g121 - x_r1_g114 >= -1
 lin1_7_1_128: p_r1_g128_h121_t7 - x_r1_g128 <= 0
 lin2_7_1_128: p_r1_g128_h121_t7 - x_r1_g121 <= 0
 lin3_7_1_128: p_r1_g128_h121_t7 - x_r1_g128 - x_r1_g121 >= -1
 lin1_7_1_135: p_r1_g135_h128_t7 - x_r1_g135 <= 0
 lin2_7_1_135: p_r1_g135_h128_t7 - x_r1_g128 <= 0
 lin3_7_1_135: p_r1_g135_h128_t7 - x_r1_g135 - x_r1_g128 >= -1
 lin1_7_1_153: p_r1_g153_h146_t7 - x_r1_g153 <= 0
 lin2_7_1_153: p_r1_g153_h146_t7 - x_r1_g146 <= 0
 lin3_7_1_153: p_r1_g153_h146_t7 - x_r1_g153 - x_r1_g146 >= -1
 lin1_7_1_160: p_r1_g160_h153_t7 - x_r1_g160 <= 0
 lin2_7_1_160: p_r1_g160_h153_t7 - x_r1_g153 <= 0
 lin3_7_1_160: p_r1_g160_h153_t7 - x_r1_g160 - x_r1_g153 >= -1
 lin1_7_1_162: p_r1_g162_h155_t7 - x_r1_g162 <= 0
 lin2_7_1_162: p_r1_g162_h155_t7 - x_r1_g155 <= 0
 lin3_7_1_162: p_r1_g162_h155_t7 - x_r1_g162 - x_r1_g155 >= -1
 lin1_7_1_164: p_r1_g164_h157_t7 - x_r1_g164 <= 0
 lin2_7_1_164: p_r1_g164_h157_t7 - x_r1_g157 <= 0
 lin3_7_1_164: p_r1_g164_h157_t7 - x_r1_g164 - x_r1_g157 >= -1
 lin1_7_2_2: p_r2_g2_h162_t7 - x_r2_g2 <= 0
 lin2_7_2_2: p_r2_g2_h162_t7 - x_r2_g162 <= 0
 lin3_7_2_2: p_r2_g2_h162_t7 - x_r2_g2 - x_r2_g162 >= -1
 lin1_7_2_73: p_r2_g73_h66_t7 - x_r2_g73 <= 0
 lin2_7_2_73: p_r2_g73_h66_t7 - x_r2_g66 <= 0
 lin3_7_2_73: p_r2_g73_h66_t7 - x_r2_g73 - x_r2_g66 >= -1
 lin1_7_2_77: p_r2_g77_h70_t7 - x_r2_g77 <= 0
 lin2_7_2_77: p_r2_g77_h70_t7 - x_r2_g70 <= 0
 lin3_7_2_77: p_r2_g77_h70_t7 - x_r2_g77 - x_r2_g70 >= -1
 lin1_7_2_80: p_r2_g80_h73_t7 - x_r2_g80 <= 0
 lin2_7_2_80: p_r2_g80_h73_t7 - x_r2_g73 <= 0
 lin3_7_2_80: p_r2_g80_h73_t7 - x_r2_g80 - x_r2_g73 >= -1
 lin1_7_2_146: p_r2_g146_h139_t7 - x_r2_g146 <= 0
 lin2_7_2_146: p_r2_g146_h139_t7 - x_r2_g139 <= 0
 lin3_7_2_146: p_r2_g146_h139_t7 - x_r2_g146 - x_r2_g139 >= -1
 lin1_7_2_149: p_r2_g149_h142_t7 - x_r2_g149 <= 0
 lin2_7_2_149: p_r2_g149_h142_t7 - x_r2_g142 <= 0
 lin3_7_2_149: p_r2_g149_h142_t7 - x_r2_g149 - x_r2_g142 >= -1
 lin1_7_2_159: p_r2_g159_h152_t7 - x_r2_g159 <= 0
 lin2_7_2_159: p_r2_g159_h152_t7 - x_r2_g152 <= 0
 lin3_7_2_159: p_r2_g159_h152_t7 - x_r2_g159 - x_r2_g152 >= -1
 lin1_7_2_162: p_r2_g162_h155_t7 - x_r2_g162 <= 0
 lin2_7_2_162: p_r2_g162_h155_t7 - x_r2_g155 <= 0
 lin3_7_2_162: p_r2_g162_h155_t7 - x_r2_g162 - x_r2_g155 >= -1
 lin1_7_2_165: p_r2_g165_h158_t7 - x_r2_g165 <= 0
 lin2_7_2_165: p_r2_g165_h158_t7 - x_r2_g158 <= 0
 lin3_7_2_165: p_r2_g165_h158_t7 - x_r2_g165 - x_r2_g158 >= -1
 lin1_7_3_15: p_r3_g15_h8_t7 - x_r3_g15 <= 0
 lin2_7_3_15: p_r3_g15_h8_t7 - x_r3_g8 <= 0
 lin3_7_3_15: p_r3_g15_h8_t7 - x_r3_g15 - x_r3_g8 >= -1
 lin1_7_3_16: p_r3_g16_h9_t7 - x_r3_g16 <= 0
 lin2_7_3_16: p_r3_g16_h9_t7 - x_r3_g9 <= 0
 lin3_7_3_16: p_r3_g16_h9_t7 - x_r3_g16 - x_r3_g9 >= -1
 lin1_7_3_19: p_r3_g19_h12_t7 - x_r3_g19 <= 0
 lin2_7_3_19: p_r3_g19_h12_t7 - x_r3_g12 <= 0
 lin3_7_3_19: p_r3_g19_h12_t7 - x_r3_g19 - x_r3_g12 >= -1
 lin1_7_3_34: p_r3_g34_h27_t7 - x_r3_g34 <= 0
 lin2_7_3_34: p_r3_g34_h27_t7 - x_r3_g27 <= 0
 lin3_7_3_34: p_r3_g34_h27_t7 - x_r3_g34 - x_r3_g27 >= -1
 lin1_7_3_112: p_r3_g112_h105_t7 - x_r3_g112 <= 0
 lin2_7_3_112: p_r3_g112_h105_t7 - x_r3_g105 <= 0
 lin3_7_3_112: p_r3_g112_h105_t7 - x_r3_g112 - x_r3_g105 >= -1
 lin1_7_3_113: p_r3_g113_h106_t7 - x_r3_g113 <= 0
 lin2_7_3_113: p_r3_g113_h106_t7 - x_r3_g106 <= 0
 lin3_7_3_113: p_r3_g113_h106_t7 - x_r3_g113 - x_r3_g106 >= -1
 lin1_7_3_118: p_r3_g118_h111_t7 - x_r3_g118 <= 0
 lin2_7_3_118: p_r3_g118_h111_t7 - x_r3_g111 <= 0
 lin3_7_3_118: p_r3_g118_h111_t7 - x_r3_g118 - x_r3_g111 >= -1
 lin1_7_3_128: p_r3_g128_h121_t7 - x_r3_g128 <= 0
 lin2_7_3_128: p_r3_g128_h121_t7 - x_r3_g121 <= 0
 lin3_7_3_128: p_r3_g128_h121_t7 - x_r3_g128 - x_r3_g121 >= -1
 lin1_7_3_145: p_r3_g145_h138_t7 - x_r3_g145 <= 0
 lin2_7_3_145: p_r3_g145_h138_t7 - x_r3_g138 <= 0
 lin3_7_3_145: p_r3_g145_h138_t7 - x_r3_g145 - x_r3_g138 >= -1
 defect_7: 1 d_7 - 1 x_r0_g4 - 1 x_r0_g7 - 1 x_r0_g20 - 1 x_r0_g22 - 1 x_r0_g26 - 1 x_r0_g35 - 1 x_r0_g37 - 1 x_r0_g47 - 1 x_r0_g60 - 1 x_r0_g62 - 2 x_r0_g70 - 1 x_r0_g84 - 1 x_r0_g93 - 1 x_r0_g97 - 1 x_r0_g118 - 1 x_r0_g126 - 1 x_r0_g129 - 1 x_r0_g130 - 1 x_r0_g144 - 2 x_r0_g153 - 1 x_r0_g159 - 1 x_r0_g162 - 1 x_r1_g8 - 1 x_r1_g11 - 1 x_r1_g13 - 1 x_r1_g17 - 1 x_r1_g23 - 1 x_r1_g44 - 1 x_r1_g56 - 1 x_r1_g59 - 1 x_r1_g62 - 1 x_r1_g64 - 1 x_r1_g76 - 1 x_r1_g80 - 1 x_r1_g93 - 2 x_r1_g96 - 1 x_r1_g108 - 1 x_r1_g110 - 1 x_r1_g114 - 1 x_r1_g117 - 2 x_r1_g123 - 2 x_r1_g161 - 1 x_r2_g18 - 2 x_r2_g21 - 1 x_r2_g48 - 1 x_r2_g54 - 1 x_r2_g70 - 1 x_r2_g80 - 1 x_r2_g86 - 1 x_r2_g91 - 2 x_r2_g105 - 1 x_r2_g107 - 1 x_r2_g120 - 2 x_r2_g128 - 1 x_r2_g130 - 2 x_r2_g133 - 1 x_r2_g139 - 2 x_r2_g141 - 1 x_r2_g142 - 2 x_r2_g143 - 1 x_r2_g146 - 1 x_r2_g155 - 1 x_r2_g158 - 1 x_r3_g3 - 1 x_r3_g8 - 1 x_r3_g9 - 2 x_r3_g11 - 1 x_r3_g12 - 2 x_r3_g13 - 1 x_r3_g15 - 1 x_r3_g19 - 1 x_r3_g24 - 2 x_r3_g25 - 1 x_r3_g27 - 2 x_r3_g33 - 1 x_r3_g34 - 1 x_r3_g36 - 1 x_r3_g53 - 1 x_r3_g72 - 1 x_r3_g103 - 1 x_r3_g105 - 1 x_r3_g106 - 1 x_r3_g112 - 2 x_r3_g141 - 2 x_r3_g144 - 2 x_r3_g147 - 2 x_r3_g156 - 1 x_r3_g162 - 1 x_r3_g165 - 1 p_r0_g27_h20_t7 - 1 p_r0_g34_h27_t7 - 1 p_r0_g35_h28_t7 - 1 p_r0_g54_h47_t7 - 1 p_r0_g69_h62_t7 - 1 p_r0_g136_h129_t7 - 1 p_r0_g137_h130_t7 - 1 p_r0_g143_h136_t7 - 1 p_r0_g144_h137_t7 - 1 p_r1_g15_h8_t7 - 1 p_r1_g38_h31_t7 - 1 p_r1_g51_h44_t7 - 1 p_r1_g117_h110_t7 - 1 p_r1_g121_h114_t7 - 1 p_r1_g128_h121_t7 - 1 p_r1_g135_h128_t7 - 1 p_r1_g153_h146_t7 - 1 p_r1_g160_h153_t7 - 1 p_r1_g162_h155_t7 - 1 p_r1_g164_h157_t7 - 1 p_r2_g2_h162_t7 - 1 p_r2_g73_h66_t7 - 1 p_r2_g77_h70_t7 - 1 p_r2_g80_h73_t7 - 1 p_r2_g146_h139_t7 - 1 p_r2_g149_h142_t7 - 1 p_r2_g159_h152_t7 - 1 p_r2_g162_h155_t7 - 1 p_r2_g165_h158_t7 - 1 p_r3_g15_h8_t7 - 1 p_r3_g16_h9_t7 - 1 p_r3_g19_h12_t7 - 1 p_r3_g34_h27_t7 - 1 p_r3_g112_h105_t7 - 1 p_r3_g113_h106_t7 - 1 p_r3_g118_h111_t7 - 1 p_r3_g128_h121_t7 - 1 p_r3_g145_h138_t7 = -59
 abs_pos_7: d_7 - u_7 <= 0
 abs_neg_7: - d_7 - u_7 <= 0
 max_def_7: u_7 - M <= 0
 cap_7: u_7 <= 1
 lin1_18_0_4: p_r0_g4_h153_t18 - x_r0_g4 <= 0
 lin2_18_0_4: p_r0_g4_h153_t18 - x_r0_g153 <= 0
 lin3_18_0_4: p_r0_g4_h153_t18 - x_r0_g4 - x_r0_g153 >= -1
 lin1_18_0_22: p_r0_g22_h4_t18 - x_r0_g22 <= 0
 lin2_18_0_22: p_r0_g22_h4_t18 - x_r0_g4 <= 0
 lin3_18_0_22: p_r0_g22_h4_t18 - x_r0_g22 - x_r0_g4 >= -1
 lin1_18_0_25: p_r0_g25_h7_t18 - x_r0_g25 <= 0
 lin2_18_0_25: p_r0_g25_h7_t18 - x_r0_g7 <= 0
 lin3_18_0_25: p_r0_g25_h7_t18 - x_r0_g25 - x_r0_g7 >= -1
 lin1_18_0_27: p_r0_g27_h9_t18 - x_r0_g27 <= 0
 lin2_18_0_27: p_r0_g27_h9_t18 - x_r0_g9 <= 0
 lin3_18_0_27: p_r0_g27_h9_t18 - x_r0_g27 - x_r0_g9 >= -1
 lin1_18_0_35: p_r0_g35_h17_t18 - x_r0_g35 <= 0
 lin2_18_0_35: p_r0_g35_h17_t18 - x_r0_g17 <= 0
 lin3_18_0_35: p_r0_g35_h17_t18 - x_r0_g35 - x_r0_g17 >= -1
 lin1_18_0_46: p_r0_g46_h28_t18 - x_r0_g46 <= 0
 lin2_18_0_46: p_r0_g46_h28_t18 - x_r0_g28 <= 0
 lin3_18_0_46: p_r0_g46_h28_t18 - x_r0_g46 - x_r0_g28 >= -1
 lin1_18_0_87: p_r0_g87_h69_t18 - x_r0_g87 <= 0
 lin2_18_0_87: p_r0_g87_h69_t18 - x_r0_g69 <= 0
 lin3_18_0_87: p_r0_g87_h69_t18 - x_r0_g87 - x_r0_g69 >= -1
 lin1_18_0_88: p_r0_g88_h70_t18 - x_r0_g88 <= 0
 lin2_18_0_88: p_r0_g88_h70_t18 - x_r0_g70 <= 0
 lin3_18_0_88: p_r0_g88_h70_t18 - x_r0_g88 - x_r0_g70 >= -1
 lin1_18_0_97: p_r0_g97_h79_t18 - x_r0_g97 <= 0
 lin2_18_0_97: p_r0_g97_h79_t18 - x_r0_g79 <= 0
 lin3_18_0_97: p_r0_g97_h79_t18 - x_r0_g97 - x_r0_g79 >= -1
 lin1_18_0_102: p_r0_g102_h84_t18 - x_r0_g102 <= 0
 lin2_18_0_102: p_r0_g102_h84_t18 - x_r0_g84 <= 0
 lin3_18_0_102: p_r0_g102_h84_t18 - x_r0_g102 - x_r0_g84 >= -1
 lin1_18_0_136: p_r0_g136_h118_t18 - x_r0_g136 <= 0
 lin2_18_0_136: p_r0_g136_h118_t18 - x_r0_g118 <= 0
 lin3_18_0_136: p_r0_g136_h118_t18 - x_r0_g136 - x_r0_g118 >= -1
 lin1_18_0_144: p_r0_g144_h126_t18 - x_r0_g144 <= 0
 lin2_18_0_144: p_r0_g144_h126_t18 - x_r0_g126 <= 0
 lin3_18_0_144: p_r0_g144_h126_t18 - x_r0_g144 - x_r0_g126 >= -1
 lin1_18_0_162: p_r0_g162_h144_t18 - x_r0_g162 <= 0
 lin2_18_0_162: p_r0_g162_h144_t18 - x_r0_g144 <= 0
 lin3_18_0_162: p_r0_g162_h144_t18 - x_r0_g162 - x_r0_g144 >= -1
 lin1_18_1_8: p_r1_g8_h157_t18 - x_r1_g8 <= 0
 lin2_18_1_8: p_r1_g8_h157_t18 - x_r1_g157 <= 0
 lin3_18_1_8: p_r1_g8_h157_t18 - x_r1_g8 - x_r1_g157 >= -1
 lin1_18_1_11: p_r1_g11_h160_t18 - x_r1_g11 <= 0
 lin2_18_1_11: p_r1_g11_h160_t18 - x_r1_g160 <= 0
 lin3_18_1_11: p_r1_g11_h160_t18 - x_r1_g11 - x_r1_g160 >= -1
 lin1_18_1_13: p_r1_g13_h162_t18 - x_r1_g13 <= 0
 lin2_18_1_13: p_r1_g13_h162_t18 - x_r1_g162 <= 0
 lin3_18_1_13: p_r1_g13_h162_t18 - x_r1_g13 - x_r1_g162 >= -1
 lin1_18_1_15: p_r1_g15_h164_t18 - x_r1_g15 <= 0
 lin2_18_1_15: p_r1_g15_h164_t18 - x_r1_g164 <= 0
 lin3_18_1_15: p_r1_g15_h164_t18 - x_r1_g15 - x_r1_g164 >= -1
 lin1_18_1_26: p_r1_g26_h8_t18 - x_r1_g26 <= 0
 lin2_18_1_26: p_r1_g26_h8_t18 - x_r1_g8 <= 0
 lin3_18_1_26: p_r1_g26_h8_t18 - x_r1_g26 - x_r1_g8 >= -1
 lin1_18_1_31: p_r1_g31_h13_t18 - x_r1_g31 <= 0
 lin2_18_1_31: p_r1_g31_h13_t18 - x_r1_g13 <= 0
 lin3_18_1_31: p_r1_g31_h13_t18 - x_r1_g31 - x_r1_g13 >= -1
 lin1_18_1_41: p_r1_g41_h23_t18 - x_r1_g41 <= 0
 lin2_18_1_41: p_r1_g41_h23_t18 - x_r1_g23 <= 0
 lin3_18_1_41: p_r1_g41_h23_t18 - x_r1_g41 - x_r1_g23 >= -1
 lin1_18_1_44: p_r1_g44_h26_t18 - x_r1_g44 <= 0
 lin2_18_1_44: p_r1_g44_h26_t18 - x_r1_g26 <= 0
 lin3_18_1_44: p_r1_g44_h26_t18 - x_r1_g44 - x_r1_g26 >= -1
 lin1_18_1_56: p_r1_g56_h38_t18 - x_r1_g56 <= 0
 lin2_18_1_56: p_r1_g56_h38_t18 - x_r1_g38 <= 0
 lin3_18_1_56: p_r1_g56_h38_t18 - x_r1_g56 - x_r1_g38 >= -1
 lin1_18_1_59: p_r1_g59_h41_t18 - x_r1_g59 <= 0
 lin2_18_1_59: p_r1_g59_h41_t18 - x_r1_g41 <= 0
 lin3_18_1_59: p_r1_g59_h41_t18 - x_r1_g59 - x_r1_g41 >= -1
 lin1_18_1_62: p_r1_g62_h44_t18 - x_r1_g62 <= 0
 lin2_18_1_62: p_r1_g62_h44_t18 - x_r1_g44 <= 0
 lin3_18_1_62: p_r1_g62_h44_t18 - x_r1_g62 - x_r1_g44 >= -1
 lin1_18_1_80: p_r1_g80_h62_t18 - x_r1_g80 <= 0
 lin2_18_1_80: p_r1_g80_h62_t18 - x_r1_g62 <= 0
 lin3_18_1_80: p_r1_g80_h62_t18 - x_r1_g80 - x_r1_g62 >= -1
 lin1_18_1_111: p_r1_g111_h93_t18 - x_r1_g111 <= 0
 lin2_18_1_111: p_r1_g111_h93_t18 - x_r1_g93 <= 0
 lin3_18_1_111: p_r1_g111_h93_t18 - x_r1_g111 - x_r1_g93 >= -1
 lin1_18_1_114: p_r1_g114_h96_t18 - x_r1_g114 <= 0
 lin2_18_1_114: p_r1_g114_h96_t18 - x_r1_g96 <= 0
 lin3_18_1_114: p_r1_g114_h96_t18 - x_r1_g114 - x_r1_g96 >= -1
 lin1_18_1_128: p_r1_g128_h110_t18 - x_r1_g128 <= 0
 lin2_18_1_128: p_r1_g128_h110_t18 - x_r1_g110 <= 0
 lin3_18_1_128: p_r1_g128_h110_t18 - x_r1_g128 - x_r1_g110 >= -1
 lin1_18_1_135: p_r1_g135_h117_t18 - x_r1_g135 <= 0
 lin2_18_1_135: p_r1_g135_h117_t18 - x_r1_g117 <= 0
 lin3_18_1_135: p_r1_g135_h117_t18 - x_r1_g135 - x_r1_g117 >= -1
 lin1_18_1_146: p_r1_g146_h128_t18 - x_r1_g146 <= 0
 lin2_18_1_146: p_r1_g146_h128_t18 - x_r1_g128 <= 0
 lin3_18_1_146: p_r1_g146_h128_t18 - x_r1_g146 - x_r1_g128 >= -1
 lin1_18_1_153: p_r1_g153_h135_t18 - x_r1_g153 <= 0
 lin2_18_1_153: p_r1_g153_h135_t18 - x_r1_g135 <= 0
 lin3_18_1_153: p_r1_g153_h135_t18 - x_r1_g153 - x_r1_g135 >= -1
 lin1_18_1_161: p_r1_g161_h143_t18 - x_r1_g161 <= 0
 lin2_18_1_161: p_r1_g161_h143_t18 - x_r1_g143 <= 0
 lin3_18_1_161: p_r1_g161_h143_t18 - x_r1_g161 - x_r1_g143 >= -1
 lin1_18_1_164: p_r1_g164_h146_t18 - x_r1_g164 <= 0
 lin2_18_1_164: p_r1_g164_h146_t18 - x_r1_g146 <= 0
 lin3_18_1_164: p_r1_g164_h146_t18 - x_r1_g164 - x_r1_g146 >= -1
 lin1_18_2_48: p_r2_g48_h30_t18 - x_r2_g48 <= 0
 lin2_18_2_48: p_r2_g48_h30_t18 - x_r2_g30 <= 0
 lin3_18_2_48: p_r2_g48_h30_t18 - x_r2_g48 - x_r2_g30 >= -1
 lin1_18_2_66: p_r2_g66_h48_t18 - x_r2_g66 <= 0
 lin2_18_2_66: p_r2_g66_h48_t18 - x_r2_g48 <= 0
 lin3_18_2_66: p_r2_g66_h48_t18 - x_r2_g66 - x_r2_g48 >= -1
 lin1_18_2_80: p_r2_g80_h62_t18 - x_r2_g80 <= 0
 lin2_18_2_80: p_r2_g80_h62_t18 - x_r2_g62 <= 0
 lin3_18_2_80: p_r2_g80_h62_t18 - x_r2_g80 - x_r2_g62 >= -1
 lin1_18_2_91: p_r2_g91_h73_t18 - x_r2_g91 <= 0
 lin2_18_2_91: p_r2_g91_h73_t18 - x_r2_g73 <= 0
 lin3_18_2_91: p_r2_g91_h73_t18 - x_r2_g91 - x_r2_g73 >= -1
 lin1_18_2_120: p_r2_g120_h102_t18 - x_r2_g120 <= 0
 lin2_18_2_120: p_r2_g120_h102_t18 - x_r2_g102 <= 0
 lin3_18_2_120: p_r2_g120_h102_t18 - x_r2_g120 - x_r2_g102 >= -1
 lin1_18_2_128: p_r2_g128_h110_t18 - x_r2_g128 <= 0
 lin2_18_2_128: p_r2_g128_h110_t18 - x_r2_g110 <= 0
 lin3_18_2_128: p_r2_g128_h110_t18 - x_r2_g128 - x_r2_g110 >= -1
 lin1_18_2_146: p_r2_g146_h128_t18 - x_r2_g146 <= 0
 lin2_18_2_146: p_r2_g146_h128_t18 - x_r2_g128 <= 0
 lin3_18_2_146: p_r2_g146_h128_t18 - x_r2_g146 - x_r2_g128 >= -1
 lin1_18_2_149: p_r2_g149_h131_t18 - x_r2_g149 <= 0
 lin2_18_2_149: p_r2_g149_h131_t18 - x_r2_g131 <= 0
 lin3_18_2_149: p_r2_g149_h131_t18 - x_r2_g149 - x_r2_g131 >= -1
 lin1_18_2_159: p_r2_g159_h141_t18 - x_r2_g159 <= 0
 lin2_18_2_159: p_r2_g159_h141_t18 - x_r2_g141 <= 0
 lin3_18_2_159: p_r2_g159_h141_t18 - x_r2_g159 - x_r2_g141 >= -1
 lin1_18_3_7: p_r3_g7_h156_t18 - x_r3_g7 <= 0
 lin2_18_3_7: p_r3_g7_h156_t18 - x_r3_g156 <= 0
 lin3_18_3_7: p_r3_g7_h156_t18 - x_r3_g7 - x_r3_g156 >= -1
 lin1_18_3_13: p_r3_g13_h162_t18 - x_r3_g13 <= 0
 lin2_18_3_13: p_r3_g13_h162_t18 - x_r3_g162 <= 0
 lin3_18_3_13: p_r3_g13_h162_t18 - x_r3_g13 - x_r3_g162 >= -1
 lin1_18_3_16: p_r3_g16_h165_t18 - x_r3_g16 <= 0
 lin2_18_3_16: p_r3_g16_h165_t18 - x_r3_g165 <= 0
 lin3_18_3_16: p_r3_g16_h165_t18 - x_r3_g16 - x_r3_g165 >= -1
 lin1_18_3_25: p_r3_g25_h7_t18 - x_r3_g25 <= 0
 lin2_18_3_25: p_r3_g25_h7_t18 - x_r3_g7 <= 0
 lin3_18_3_25: p_r3_g25_h7_t18 - x_r3_g25 - x_r3_g7 >= -1
 lin1_18_3_27: p_r3_g27_h9_t18 - x_r3_g27 <= 0
 lin2_18_3_27: p_r3_g27_h9_t18 - x_r3_g9 <= 0
 lin3_18_3_27: p_r3_g27_h9_t18 - x_r3_g27 - x_r3_g9 >= -1
 lin1_18_3_33: p_r3_g33_h15_t18 - x_r3_g33 <= 0
 lin2_18_3_33: p_r3_g33_h15_t18 - x_r3_g15 <= 0
 lin3_18_3_33: p_r3_g33_h15_t18 - x_r3_g33 - x_r3_g15 >= -1
 lin1_18_3_34: p_r3_g34_h16_t18 - x_r3_g34 <= 0
 lin2_18_3_34: p_r3_g34_h16_t18 - x_r3_g16 <= 0
 lin3_18_3_34: p_r3_g34_h16_t18 - x_r3_g34 - x_r3_g16 >= -1
 lin1_18_3_51: p_r3_g51_h33_t18 - x_r3_g51 <= 0
 lin2_18_3_51: p_r3_g51_h33_t18 - x_r3_g33 <= 0
 lin3_18_3_51: p_r3_g51_h33_t18 - x_r3_g51 - x_r3_g33 >= -1
 lin1_18_3_112: p_r3_g112_h94_t18 - x_r3_g112 <= 0
 lin2_18_3_112: p_r3_g112_h94_t18 - x_r3_g94 <= 0
 lin3_18_3_112: p_r3_g112_h94_t18 - x_r3_g112 - x_r3_g94 >= -1
 lin1_18_3_121: p_r3_g121_h103_t18 - x_r3_g121 <= 0
 lin2_18_3_121: p_r3_g121_h103_t18 - x_r3_g103 <= 0
 lin3_18_3_121: p_r3_g121_h103_t18 - x_r3_g121 - x_r3_g103 >= -1
 lin1_18_3_123: p_r3_g123_h105_t18 - x_r3_g123 <= 0
 lin2_18_3_123: p_r3_g123_h105_t18 - x_r3_g105 <= 0
 lin3_18_3_123: p_r3_g123_h105_t18 - x_r3_g123 - x_r3_g105 >= -1
 lin1_18_3_124: p_r3_g124_h106_t18 - x_r3_g124 <= 0
 lin2_18_3_124: p_r3_g124_h106_t18 - x_r3_g106 <= 0
 lin3_18_3_124: p_r3_g124_h106_t18 - x_r3_g124 - x_r3_g106 >= -1
 lin1_18_3_141: p_r3_g141_h123_t18 - x_r3_g141 <= 0
 lin2_18_3_141: p_r3_g141_h123_t18 - x_r3_g123 <= 0
 lin3_18_3_141: p_r3_g141_h123_t18 - x_r3_g141 - x_r3_g123 >= -1
 lin1_18_3_156: p_r3_g156_h138_t18 - x_r3_g156 <= 0
 lin2_18_3_156: p_r3_g156_h138_t18 - x_r3_g138 <= 0
 lin3_18_3_156: p_r3_g156_h138_t18 - x_r3_g156 - x_r3_g138 >= -1
 lin1_18_3_162: p_r3_g162_h144_t18 - x_r3_g162 <= 0
 lin2_18_3_162: p_r3_g162_h144_t18 - x_r3_g144 <= 0
 lin3_18_3_162: p_r3_g162_h144_t18 - x_r3_g162 - x_r3_g144 >= -1
 lin1_18_3_165: p_r3_g165_h147_t18 - x_r3_g165 <= 0
 lin2_18_3_165: p_r3_g165_h147_t18 - x_r3_g147 <= 0
 lin3_18_3_165: p_r3_g165_h147_t18 - x_r3_g165 - x_r3_g147 >= -1
 defect_18: 1 d_18 - 1 x_r0_g9 - 1 x_r0_g20 - 1 x_r0_g22 - 1 x_r0_g25 - 1 x_r0_g27 - 1 x_r0_g34 - 2 x_r0_g37 - 1 x_r0_g47 - 1 x_r0_g54 - 1 x_r0_g60 - 1 x_r0_g69 - 1 x_r0_g70 - 1 x_r0_g88 - 1 x_r0_g102 - 1 x_r0_g118 - 2 x_r0_g131 - 2 x_r0_g137 - 1 x_r0_g143 - 1 x_r0_g162 - 1 x_r1_g11 - 1 x_r1_g17 - 1 x_r1_g31 - 1 x_r1_g38 - 1 x_r1_g51 - 2 x_r1_g64 - 1 x_r1_g67 - 1 x_r1_g80 - 1 x_r1_g96 - 1 x_r1_g108 - 1 x_r1_g113 - 1 x_r1_g114 - 1 x_r1_g121 - 1 x_r1_g123 - 2 x_r2_g2 - 1 x_r2_g18 - 1 x_r2_g21 - 1 x_r2_g60 - 2 x_r2_g64 - 1 x_r2_g74 - 1 x_r2_g80 - 2 x_r2_g86 - 1 x_r2_g105 - 2 x_r2_g130 - 1 x_r2_g131 - 2 x_r2_g133 - 2 x_r2_g139 - 1 x_r2_g142 - 1 x_r2_g143 - 1 x_r2_g149 - 1 x_r2_g152 - 1 x_r2_g155 - 1 x_r2_g158 - 1 x_r2_g163 - 1 x_r3_g8 - 1 x_r3_g11 - 1 x_r3_g12 - 2 x_r3_g19 - 1 x_r3_g24 - 1 x_r3_g25 - 1 x_r3_g27 - 1 x_r3_g36 - 2 x_r3_g57 - 1 x_r3_g94 - 1 x_r3_g111 - 1 x_r3_g121 - 1 x_r3_g124 - 1 x_r3_g128 - 2 x_r3_g145 - 1 x_r3_g147 - 1 p_r0_g4_h153_t18 - 1 p_r0_g22_h4_t18 - 1 p_r0_g25_h7_t18 - 1 p_r0_g27_h9_t18 - 1 p_r0_g35_h17_t18 - 1 p_r0_g46_h28_t18 - 1 p_r0_g87_h69_t18 - 1 p_r0_g88_h70_t18 - 1 p_r0_g97_h79_t18 - 1 p_r0_g102_h84_t18 - 1 p_r0_g136_h118_t18 - 1 p_r0_g144_h126_t18 - 1 p_r0_g162_h144_t18 - 1 p_r1_g8_h157_t18 - 1 p_r1_g11_h160_t18 - 1 p_r1_g13_h162_t18 - 1 p_r1_g15_h164_t18 - 1 p_r1_g26_h8_t18 - 1 p_r1_g31_h13_t18 - 1 p_r1_g41_h23_t18 - 1 p_r1_g44_h26_t18 - 1 p_r1_g56_h38_t18 - 1 p_r1_g59_h41_t18 - 1 p_r1_g62_h44_t18 - 1 p_r1_g80_h62_t18 - 1 p_r1_g111_h93_t18 - 1 p_r1_g114_h96_t18 - 1 p_r1_g128_h110_t18 - 1 p_r1_g135_h117_t18 - 1 p_r1_g146_h128_t18 - 1 p_r1_g153_h135_t18 - 1 p_r1_g161_h143_t18 - 1 p_r1_g164_h146_t18 - 1 p_r2_g48_h30_t18 - 1 p_r2_g66_h48_t18 - 1 p_r2_g80_h62_t18 - 1 p_r2_g91_h73_t18 - 1 p_r2_g120_h102_t18 - 1 p_r2_g128_h110_t18 - 1 p_r2_g146_h128_t18 - 1 p_r2_g149_h131_t18 - 1 p_r2_g159_h141_t18 - 1 p_r3_g7_h156_t18 - 1 p_r3_g13_h162_t18 - 1 p_r3_g16_h165_t18 - 1 p_r3_g25_h7_t18 - 1 p_r3_g27_h9_t18 - 1 p_r3_g33_h15_t18 - 1 p_r3_g34_h16_t18 - 1 p_r3_g51_h33_t18 - 1 p_r3_g112_h94_t18 - 1 p_r3_g121_h103_t18 - 1 p_r3_g123_h105_t18 - 1 p_r3_g124_h106_t18 - 1 p_r3_g141_h123_t18 - 1 p_r3_g156_h138_t18 - 1 p_r3_g162_h144_t18 - 1 p_r3_g165_h147_t18 = -74
 abs_pos_18: d_18 - u_18 <= 0
 abs_neg_18: - d_18 - u_18 <= 0
 max_def_18: u_18 - M <= 0
 cap_18: u_18 <= 2
 lin1_19_0_26: p_r0_g26_h7_t19 - x_r0_g26 <= 0
 lin2_19_0_26: p_r0_g26_h7_t19 - x_r0_g7 <= 0
 lin3_19_0_26: p_r0_g26_h7_t19 - x_r0_g26 - x_r0_g7 >= -1
 lin1_19_0_28: p_r0_g28_h9_t19 - x_r0_g28 <= 0
 lin2_19_0_28: p_r0_g28_h9_t19 - x_r0_g9 <= 0
 lin3_19_0_28: p_r0_g28_h9_t19 - x_r0_g28 - x_r0_g9 >= -1
 lin1_19_0_46: p_r0_g46_h27_t19 - x_r0_g46 <= 0
 lin2_19_0_46: p_r0_g46_h27_t19 - x_r0_g27 <= 0
 lin3_19_0_46: p_r0_g46_h27_t19 - x_r0_g46 - x_r0_g27 >= -1
 lin1_19_0_47: p_r0_g47_h28_t19 - x_r0_g47 <= 0
 lin2_19_0_47: p_r0_g47_h28_t19 - x_r0_g28 <= 0
 lin3_19_0_47: p_r0_g47_h28_t19 - x_r0_g47 - x_r0_g28 >= -1
 lin1_19_0_54: p_r0_g54_h35_t19 - x_r0_g54 <= 0
 lin2_19_0_54: p_r0_g54_h35_t19 - x_r0_g35 <= 0
 lin3_19_0_54: p_r0_g54_h35_t19 - x_r0_g54 - x_r0_g35 >= -1
 lin1_19_0_79: p_r0_g79_h60_t19 - x_r0_g79 <= 0
 lin2_19_0_79: p_r0_g79_h60_t19 - x_r0_g60 <= 0
 lin3_19_0_79: p_r0_g79_h60_t19 - x_r0_g79 - x_r0_g60 >= -1
 lin1_19_0_87: p_r0_g87_h68_t19 - x_r0_g87 <= 0
 lin2_19_0_87: p_r0_g87_h68_t19 - x_r0_g68 <= 0
 lin3_19_0_87: p_r0_g87_h68_t19 - x_r0_g87 - x_r0_g68 >= -1
 lin1_19_0_88: p_r0_g88_h69_t19 - x_r0_g88 <= 0
 lin2_19_0_88: p_r0_g88_h69_t19 - x_r0_g69 <= 0
 lin3_19_0_88: p_r0_g88_h69_t19 - x_r0_g88 - x_r0_g69 >= -1
 lin1_19_0_137: p_r0_g137_h118_t19 - x_r0_g137 <= 0
 lin2_19_0_137: p_r0_g137_h118_t19 - x_r0_g118 <= 0
 lin3_19_0_137: p_r0_g137_h118_t19 - x_r0_g137 - x_r0_g118 >= -1
 lin1_19_0_162: p_r0_g162_h143_t19 - x_r0_g162 <= 0
 lin2_19_0_162: p_r0_g162_h143_t19 - x_r0_g143 <= 0
 lin3_19_0_162: p_r0_g162_h143_t19 - x_r0_g162 - x_r0_g143 >= -1
 lin1_19_1_13: p_r1_g13_h161_t19 - x_r1_g13 <= 0
 lin2_19_1_13: p_r1_g13_h161_t19 - x_r1_g161 <= 0
 lin3_19_1_13: p_r1_g13_h161_t19 - x_r1_g13 - x_r1_g161 >= -1
 lin1_19_1_162: p_r1_g162_h143_t19 - x_r1_g162 <= 0
 lin2_19_1_162: p_r1_g162_h143_t19 - x_r1_g143 <= 0
 lin3_19_1_162: p_r1_g162_h143_t19 - x_r1_g162 - x_r1_g143 >= -1
 lin1_19_2_21: p_r2_g21_h2_t19 - x_r2_g21 <= 0
 lin2_19_2_21: p_r2_g21_h2_t19 - x_r2_g2 <= 0
 lin3_19_2_21: p_r2_g21_h2_t19 - x_r2_g21 - x_r2_g2 >= -1
 lin1_19_2_48: p_r2_g48_h29_t19 - x_r2_g48 <= 0
 lin2_19_2_48: p_r2_g48_h29_t19 - x_r2_g29 <= 0
 lin3_19_2_48: p_r2_g48_h29_t19 - x_r2_g48 - x_r2_g29 >= -1
 lin1_19_2_73: p_r2_g73_h54_t19 - x_r2_g73 <= 0
 lin2_19_2_73: p_r2_g73_h54_t19 - x_r2_g54 <= 0
 lin3_19_2_73: p_r2_g73_h54_t19 - x_r2_g73 - x_r2_g54 >= -1
 lin1_19_2_105: p_r2_g105_h86_t19 - x_r2_g105 <= 0
 lin2_19_2_105: p_r2_g105_h86_t19 - x_r2_g86 <= 0
 lin3_19_2_105: p_r2_g105_h86_t19 - x_r2_g105 - x_r2_g86 >= -1
 lin1_19_2_110: p_r2_g110_h91_t19 - x_r2_g110 <= 0
 lin2_19_2_110: p_r2_g110_h91_t19 - x_r2_g91 <= 0
 lin3_19_2_110: p_r2_g110_h91_t19 - x_r2_g110 - x_r2_g91 >= -1
 lin1_19_2_139: p_r2_g139_h120_t19 - x_r2_g139 <= 0
 lin2_19_2_139: p_r2_g139_h120_t19 - x_r2_g120 <= 0
 lin3_19_2_139: p_r2_g139_h120_t19 - x_r2_g139 - x_r2_g120 >= -1
 lin1_19_2_149: p_r2_g149_h130_t19 - x_r2_g149 <= 0
 lin2_19_2_149: p_r2_g149_h130_t19 - x_r2_g130 <= 0
 lin3_19_2_149: p_r2_g149_h130_t19 - x_r2_g149 - x_r2_g130 >= -1
 lin1_19_2_152: p_r2_g152_h133_t19 - x_r2_g152 <= 0
 lin2_19_2_152: p_r2_g152_h133_t19 - x_r2_g133 <= 0
 lin3_19_2_152: p_r2_g152_h133_t19 - x_r2_g152 - x_r2_g133 >= -1
 lin1_19_2_158: p_r2_g158_h139_t19 - x_r2_g158 <= 0
 lin2_19_2_158: p_r2_g158_h139_t19 - x_r2_g139 <= 0
 lin3_19_2_158: p_r2_g158_h139_t19 - x_r2_g158 - x_r2_g139 >= -1
 lin1_19_2_162: p_r2_g162_h143_t19 - x_r2_g162 <= 0
 lin2_19_2_162: p_r2_g162_h143_t19 - x_r2_g143 <= 0
 lin3_19_2_162: p_r2_g162_h143_t19 - x_r2_g162 - x_r2_g143 >= -1
 lin1_19_2_165: p_r2_g165_h146_t19 - x_r2_g165 <= 0
 lin2_19_2_165: p_r2_g165_h146_t19 - x_r2_g146 <= 0
 lin3_19_2_165: p_r2_g165_h146_t19 - x_r2_g165 - x_r2_g146 >= -1
 lin1_19_3_8: p_r3_g8_h156_t19 - x_r3_g8 <= 0
 lin2_19_3_8: p_r3_g8_h156_t19 - x_r3_g156 <= 0
 lin3_19_3_8: p_r3_g8_h156_t19 - x_r3_g8 - x_r3_g156 >= -1
 lin1_19_3_27: p_r3_g27_h8_t19 - x_r3_g27 <= 0
 lin2_19_3_27: p_r3_g27_h8_t19 - x_r3_g8 <= 0
 lin3_19_3_27: p_r3_g27_h8_t19 - x_r3_g27 - x_r3_g8 >= -1
 lin1_19_3_34: p_r3_g34_h15_t19 - x_r3_g34 <= 0
 lin2_19_3_34: p_r3_g34_h15_t19 - x_r3_g15 <= 0
 lin3_19_3_34: p_r3_g34_h15_t19 - x_r3_g34 - x_r3_g15 >= -1
 lin1_19_3_53: p_r3_g53_h34_t19 - x_r3_g53 <= 0
 lin2_19_3_53: p_r3_g53_h34_t19 - x_r3_g34 <= 0
 lin3_19_3_53: p_r3_g53_h34_t19 - x_r3_g53 - x_r3_g34 >= -1
 lin1_19_3_72: p_r3_g72_h53_t19 - x_r3_g72 <= 0
 lin2_19_3_72: p_r3_g72_h53_t19 - x_r3_g53 <= 0
 lin3_19_3_72: p_r3_g72_h53_t19 - x_r3_g72 - x_r3_g53 >= -1
 lin1_19_3_113: p_r3_g113_h94_t19 - x_r3_g113 <= 0
 lin2_19_3_113: p_r3_g113_h94_t19 - x_r3_g94 <= 0
 lin3_19_3_113: p_r3_g113_h94_t19 - x_r3_g113 - x_r3_g94 >= -1
 lin1_19_3_124: p_r3_g124_h105_t19 - x_r3_g124 <= 0
 lin2_19_3_124: p_r3_g124_h105_t19 - x_r3_g105 <= 0
 lin3_19_3_124: p_r3_g124_h105_t19 - x_r3_g124 - x_r3_g105 >= -1
 lin1_19_3_147: p_r3_g147_h128_t19 - x_r3_g147 <= 0
 lin2_19_3_147: p_r3_g147_h128_t19 - x_r3_g128 <= 0
 lin3_19_3_147: p_r3_g147_h128_t19 - x_r3_g147 - x_r3_g128 >= -1
 defect_19: 1 d_19 - 1 x_r0_g4 - 1 x_r0_g7 - 1 x_r0_g9 - 2 x_r0_g17 - 1 x_r0_g22 - 1 x_r0_g25 - 1 x_r0_g26 - 1 x_r0_g34 - 1 x_r0_g46 - 1 x_r0_g62 - 1 x_r0_g68 - 1 x_r0_g70 - 1 x_r0_g79 - 2 x_r0_g84 - 1 x_r0_g87 - 1 x_r0_g93 - 1 x_r0_g97 - 1 x_r0_g130 - 1 x_r0_g136 - 2 x_r0_g144 - 1 x_r0_g153 - 1 x_r0_g159 - 1 x_r0_g162 - 2 x_r1_g8 - 1 x_r1_g11 - 1 x_r1_g13 - 1 x_r1_g15 - 1 x_r1_g17 - 1 x_r1_g23 - 1 x_r1_g38 - 2 x_r1_g51 - 1 x_r1_g56 - 2 x_r1_g59 - 1 x_r1_g62 - 2 x_r1_g76 - 1 x_r1_g93 - 1 x_r1_g96 - 2 x_r1_g108 - 1 x_r1_g110 - 1 x_r1_g111 - 1 x_r1_g113 - 1 x_r1_g114 - 1 x_r1_g117 - 1 x_r1_g121 - 1 x_r1_g128 - 2 x_r1_g135 - 1 x_r1_g143 - 1 x_r1_g146 - 1 x_r1_g157 - 1 x_r1_g160 - 1 x_r1_g164 - 1 x_r2_g2 - 1 x_r2_g30 - 1 x_r2_g60 - 1 x_r2_g62 - 1 x_r2_g64 - 1 x_r2_g66 - 1 x_r2_g74 - 1 x_r2_g77 - 1 x_r2_g80 - 2 x_r2_g102 - 1 x_r2_g107 - 1 x_r2_g110 - 1 x_r2_g120 - 2 x_r2_g131 - 1 x_r2_g133 - 2 x_r2_g141 - 1 x_r2_g142 - 1 x_r2_g149 - 1 x_r2_g152 - 2 x_r2_g155 - 1 x_r2_g159 - 1 x_r2_g162 - 2 x_r3_g3 - 1 x_r3_g7 - 1 x_r3_g9 - 1 x_r3_g11 - 1 x_r3_g12 - 1 x_r3_g13 - 1 x_r3_g15 - 1 x_r3_g19 - 2 x_r3_g24 - 1 x_r3_g25 - 1 x_r3_g27 - 2 x_r3_g36 - 1 x_r3_g51 - 2 x_r3_g57 - 1 x_r3_g94 - 1 x_r3_g103 - 1 x_r3_g105 - 1 x_r3_g113 - 2 x_r3_g118 - 1 x_r3_g121 - 1 x_r3_g123 - 1 x_r3_g124 - 1 x_r3_g138 - 2 x_r3_g141 - 1 x_r3_g144 - 1 x_r3_g147 - 1 x_r3_g156 - 1 x_r3_g162 - 1 x_r3_g165 - 1 p_r0_g26_h7_t19 - 1 p_r0_g28_h9_t19 - 1 p_r0_g46_h27_t19 - 1 p_r0_g47_h28_t19 - 1 p_r0_g54_h35_t19 - 1 p_r0_g79_h60_t19 - 1 p_r0_g87_h68_t19 - 1 p_r0_g88_h69_t19 - 1 p_r0_g137_h118_t19 - 1 p_r0_g162_h143_t19 - 1 p_r1_g13_h161_t19 - 1 p_r1_g162_h143_t19 - 1 p_r2_g21_h2_t19 - 1 p_r2_g48_h29_t19 - 1 p_r2_g73_h54_t19 - 1 p_r2_g105_h86_t19 - 1 p_r2_g110_h91_t19 - 1 p_r2_g139_h120_t19 - 1 p_r2_g149_h130_t19 - 1 p_r2_g152_h133_t19 - 1 p_r2_g158_h139_t19 - 1 p_r2_g162_h143_t19 - 1 p_r2_g165_h146_t19 - 1 p_r3_g8_h156_t19 - 1 p_r3_g27_h8_t19 - 1 p_r3_g34_h15_t19 - 1 p_r3_g53_h34_t19 - 1 p_r3_g72_h53_t19 - 1 p_r3_g113_h94_t19 - 1 p_r3_g124_h105_t19 - 1 p_r3_g147_h128_t19 = -53
 abs_pos_19: d_19 - u_19 <= 0
 abs_neg_19: - d_19 - u_19 <= 0
 max_def_19: u_19 - M <= 0
 cap_19: u_19 <= 2
 lin1_21_0_7: p_r0_g7_h153_t21 - x_r0_g7 <= 0
 lin2_21_0_7: p_r0_g7_h153_t21 - x_r0_g153 <= 0
 lin3_21_0_7: p_r0_g7_h153_t21 - x_r0_g7 - x_r0_g153 >= -1
 lin1_21_0_25: p_r0_g25_h4_t21 - x_r0_g25 <= 0
 lin2_21_0_25: p_r0_g25_h4_t21 - x_r0_g4 <= 0
 lin3_21_0_25: p_r0_g25_h4_t21 - x_r0_g25 - x_r0_g4 >= -1
 lin1_21_0_28: p_r0_g28_h7_t21 - x_r0_g28 <= 0
 lin2_21_0_28: p_r0_g28_h7_t21 - x_r0_g7 <= 0
 lin3_21_0_28: p_r0_g28_h7_t21 - x_r0_g28 - x_r0_g7 >= -1
 lin1_21_0_46: p_r0_g46_h25_t21 - x_r0_g46 <= 0
 lin2_21_0_46: p_r0_g46_h25_t21 - x_r0_g25 <= 0
 lin3_21_0_46: p_r0_g46_h25_t21 - x_r0_g46 - x_r0_g25 >= -1
 lin1_21_0_47: p_r0_g47_h26_t21 - x_r0_g47 <= 0
 lin2_21_0_47: p_r0_g47_h26_t21 - x_r0_g26 <= 0
 lin3_21_0_47: p_r0_g47_h26_t21 - x_r0_g47 - x_r0_g26 >= -1
 lin1_21_0_68: p_r0_g68_h47_t21 - x_r0_g68 <= 0
 lin2_21_0_68: p_r0_g68_h47_t21 - x_r0_g47 <= 0
 lin3_21_0_68: p_r0_g68_h47_t21 - x_r0_g68 - x_r0_g47 >= -1
 lin1_21_0_118: p_r0_g118_h97_t21 - x_r0_g118 <= 0
 lin2_21_0_118: p_r0_g118_h97_t21 - x_r0_g97 <= 0
 lin3_21_0_118: p_r0_g118_h97_t21 - x_r0_g118 - x_r0_g97 >= -1
 lin1_21_1_11: p_r1_g11_h157_t21 - x_r1_g11 <= 0
 lin2_21_1_11: p_r1_g11_h157_t21 - x_r1_g157 <= 0
 lin3_21_1_11: p_r1_g11_h157_t21 - x_r1_g11 - x_r1_g157 >= -1
 lin1_21_1_15: p_r1_g15_h161_t21 - x_r1_g15 <= 0
 lin2_21_1_15: p_r1_g15_h161_t21 - x_r1_g161 <= 0
 lin3_21_1_15: p_r1_g15_h161_t21 - x_r1_g15 - x_r1_g161 >= -1
 lin1_21_1_38: p_r1_g38_h17_t21 - x_r1_g38 <= 0
 lin2_21_1_38: p_r1_g38_h17_t21 - x_r1_g17 <= 0
 lin3_21_1_38: p_r1_g38_h17_t21 - x_r1_g38 - x_r1_g17 >= -1
 lin1_21_1_44: p_r1_g44_h23_t21 - x_r1_g44 <= 0
 lin2_21_1_44: p_r1_g44_h23_t21 - x_r1_g23 <= 0
 lin3_21_1_44: p_r1_g44_h23_t21 - x_r1_g44 - x_r1_g23 >= -1
 lin1_21_1_59: p_r1_g59_h38_t21 - x_r1_g59 <= 0
 lin2_21_1_59: p_r1_g59_h38_t21 - x_r1_g38 <= 0
 lin3_21_1_59: p_r1_g59_h38_t21 - x_r1_g59 - x_r1_g38 >= -1
 lin1_21_1_62: p_r1_g62_h41_t21 - x_r1_g62 <= 0
 lin2_21_1_62: p_r1_g62_h41_t21 - x_r1_g41 <= 0
 lin3_21_1_62: p_r1_g62_h41_t21 - x_r1_g62 - x_r1_g41 >= -1
 lin1_21_1_80: p_r1_g80_h59_t21 - x_r1_g80 <= 0
 lin2_21_1_80: p_r1_g80_h59_t21 - x_r1_g59 <= 0
 lin3_21_1_80: p_r1_g80_h59_t21 - x_r1_g80 - x_r1_g59 >= -1
 lin1_21_1_114: p_r1_g114_h93_t21 - x_r1_g114 <= 0
 lin2_21_1_114: p_r1_g114_h93_t21 - x_r1_g93 <= 0
 lin3_21_1_114: p_r1_g114_h93_t21 - x_r1_g114 - x_r1_g93 >= -1
 lin1_21_1_117: p_r1_g117_h96_t21 - x_r1_g117 <= 0
 lin2_21_1_117: p_r1_g117_h96_t21 - x_r1_g96 <= 0
 lin3_21_1_117: p_r1_g117_h96_t21 - x_r1_g117 - x_r1_g96 >= -1
 lin1_21_1_135: p_r1_g135_h114_t21 - x_r1_g135 <= 0
 lin2_21_1_135: p_r1_g135_h114_t21 - x_r1_g114 <= 0
 lin3_21_1_135: p_r1_g135_h114_t21 - x_r1_g135 - x_r1_g114 >= -1
 lin1_21_1_164: p_r1_g164_h143_t21 - x_r1_g164 <= 0
 lin2_21_1_164: p_r1_g164_h143_t21 - x_r1_g143 <= 0
 lin3_21_1_164: p_r1_g164_h143_t21 - x_r1_g164 - x_r1_g143 >= -1
 lin1_21_2_91: p_r2_g91_h70_t21 - x_r2_g91 <= 0
 lin2_21_2_91: p_r2_g91_h70_t21 - x_r2_g70 <= 0
 lin3_21_2_91: p_r2_g91_h70_t21 - x_r2_g91 - x_r2_g70 >= -1
 lin1_21_2_107: p_r2_g107_h86_t21 - x_r2_g107 <= 0
 lin2_21_2_107: p_r2_g107_h86_t21 - x_r2_g86 <= 0
 lin3_21_2_107: p_r2_g107_h86_t21 - x_r2_g107 - x_r2_g86 >= -1
 lin1_21_2_128: p_r2_g128_h107_t21 - x_r2_g128 <= 0
 lin2_21_2_128: p_r2_g128_h107_t21 - x_r2_g107 <= 0
 lin3_21_2_128: p_r2_g128_h107_t21 - x_r2_g128 - x_r2_g107 >= -1
 lin1_21_2_131: p_r2_g131_h110_t21 - x_r2_g131 <= 0
 lin2_21_2_131: p_r2_g131_h110_t21 - x_r2_g110 <= 0
 lin3_21_2_131: p_r2_g131_h110_t21 - x_r2_g131 - x_r2_g110 >= -1
 lin1_21_2_141: p_r2_g141_h120_t21 - x_r2_g141 <= 0
 lin2_21_2_141: p_r2_g141_h120_t21 - x_r2_g120 <= 0
 lin3_21_2_141: p_r2_g141_h120_t21 - x_r2_g141 - x_r2_g120 >= -1
 lin1_21_2_149: p_r2_g149_h128_t21 - x_r2_g149 <= 0
 lin2_21_2_149: p_r2_g149_h128_t21 - x_r2_g128 <= 0
 lin3_21_2_149: p_r2_g149_h128_t21 - x_r2_g149 - x_r2_g128 >= -1
 lin1_21_2_152: p_r2_g152_h131_t21 - x_r2_g152 <= 0
 lin2_21_2_152: p_r2_g152_h131_t21 - x_r2_g131 <= 0
 lin3_21_2_152: p_r2_g152_h131_t21 - x_r2_g152 - x_r2_g131 >= -1
 lin1_21_2_162: p_r2_g162_h141_t21 - x_r2_g162 <= 0
 lin2_21_2_162: p_r2_g162_h141_t21 - x_r2_g141 <= 0
 lin3_21_2_162: p_r2_g162_h141_t21 - x_r2_g162 - x_r2_g141 >= -1
 lin1_21_2_163: p_r2_g163_h142_t21 - x_r2_g163 <= 0
 lin2_21_2_163: p_r2_g163_h142_t21 - x_r2_g142 <= 0
 lin3_21_2_163: p_r2_g163_h142_t21 - x_r2_g163 - x_r2_g142 >= -1
 lin1_21_3_16: p_r3_g16_h162_t21 - x_r3_g16 <= 0
 lin2_21_3_16: p_r3_g16_h162_t21 - x_r3_g162 <= 0
 lin3_21_3_16: p_r3_g16_h162_t21 - x_r3_g16 - x_r3_g162 >= -1
 lin1_21_3_19: p_r3_g19_h165_t21 - x_r3_g19 <= 0
 lin2_21_3_19: p_r3_g19_h165_t21 - x_r3_g165 <= 0
 lin3_21_3_19: p_r3_g19_h165_t21 - x_r3_g19 - x_r3_g165 >= -1
 lin1_21_3_24: p_r3_g24_h3_t21 - x_r3_g24 <= 0
 lin2_21_3_24: p_r3_g24_h3_t21 - x_r3_g3 <= 0
 lin3_21_3_24: p_r3_g24_h3_t21 - x_r3_g24 - x_r3_g3 >= -1
 lin1_21_3_33: p_r3_g33_h12_t21 - x_r3_g33 <= 0
 lin2_21_3_33: p_r3_g33_h12_t21 - x_r3_g12 <= 0
 lin3_21_3_33: p_r3_g33_h12_t21 - x_r3_g33 - x_r3_g12 >= -1
 lin1_21_3_34: p_r3_g34_h13_t21 - x_r3_g34 <= 0
 lin2_21_3_34: p_r3_g34_h13_t21 - x_r3_g13 <= 0
 lin3_21_3_34: p_r3_g34_h13_t21 - x_r3_g34 - x_r3_g13 >= -1
 lin1_21_3_36: p_r3_g36_h15_t21 - x_r3_g36 <= 0
 lin2_21_3_36: p_r3_g36_h15_t21 - x_r3_g15 <= 0
 lin3_21_3_36: p_r3_g36_h15_t21 - x_r3_g36 - x_r3_g15 >= -1
 lin1_21_3_57: p_r3_g57_h36_t21 - x_r3_g57 <= 0
 lin2_21_3_57: p_r3_g57_h36_t21 - x_r3_g36 <= 0
 lin3_21_3_57: p_r3_g57_h36_t21 - x_r3_g57 - x_r3_g36 >= -1
 lin1_21_3_72: p_r3_g72_h51_t21 - x_r3_g72 <= 0
 lin2_21_3_72: p_r3_g72_h51_t21 - x_r3_g51 <= 0
 lin3_21_3_72: p_r3_g72_h51_t21 - x_r3_g72 - x_r3_g51 >= -1
 lin1_21_3_124: p_r3_g124_h103_t21 - x_r3_g124 <= 0
 lin2_21_3_124: p_r3_g124_h103_t21 - x_r3_g103 <= 0
 lin3_21_3_124: p_r3_g124_h103_t21 - x_r3_g124 - x_r3_g103 >= -1
 lin1_21_3_144: p_r3_g144_h123_t21 - x_r3_g144 <= 0
 lin2_21_3_144: p_r3_g144_h123_t21 - x_r3_g123 <= 0
 lin3_21_3_144: p_r3_g144_h123_t21 - x_r3_g144 - x_r3_g123 >= -1
 lin1_21_3_145: p_r3_g145_h124_t21 - x_r3_g145 <= 0
 lin2_21_3_145: p_r3_g145_h124_t21 - x_r3_g124 <= 0
 lin3_21_3_145: p_r3_g145_h124_t21 - x_r3_g145 - x_r3_g124 >= -1
 lin1_21_3_162: p_r3_g162_h141_t21 - x_r3_g162 <= 0
 lin2_21_3_162: p_r3_g162_h141_t21 - x_r3_g141 <= 0
 lin3_21_3_162: p_r3_g162_h141_t21 - x_r3_g162 - x_r3_g141 >= -1
 lin1_21_3_165: p_r3_g165_h144_t21 - x_r3_g165 <= 0
 lin2_21_3_165: p_r3_g165_h144_t21 - x_r3_g144 <= 0
 lin3_21_3_165: p_r3_g165_h144_t21 - x_r3_g165 - x_r3_g144 >= -1
 defect_21: 1 d_21 - 2 x_r0_g9 - 2 x_r0_g17 - 1 x_r0_g22 - 1 x_r0_g26 - 2 x_r0_g27 - 1 x_r0_g28 - 2 x_r0_g34 - 1 x_r0_g35 - 1 x_r0_g37 - 1 x_r0_g46 - 2 x_r0_g69 - 1 x_r0_g70 - 2 x_r0_g79 - 1 x_r0_g84 - 1 x_r0_g88 - 1 x_r0_g102 - 1 x_r0_g118 - 1 x_r0_g130 - 1 x_r0_g131 - 1 x_r0_g136 - 2 x_r0_g137 - 1 x_r0_g143 - 2 x_r0_g144 - 1 x_r0_g153 - 1 x_r0_g159 - 2 x_r1_g8 - 1 x_r1_g11 - 1 x_r1_g13 - 1 x_r1_g15 - 1 x_r1_g17 - 1 x_r1_g31 - 1 x_r1_g41 - 1 x_r1_g44 - 2 x_r1_g67 - 1 x_r1_g108 - 1 x_r1_g110 - 2 x_r1_g111 - 1 x_r1_g117 - 1 x_r1_g121 - 1 x_r1_g128 - 1 x_r1_g135 - 1 x_r1_g153 - 1 x_r1_g161 - 2 x_r1_g162 - 1 x_r1_g164 - 1 x_r2_g2 - 1 x_r2_g18 - 1 x_r2_g21 - 1 x_r2_g48 - 2 x_r2_g54 - 1 x_r2_g60 - 2 x_r2_g62 - 2 x_r2_g64 - 1 x_r2_g66 - 1 x_r2_g70 - 1 x_r2_g73 - 2 x_r2_g77 - 1 x_r2_g80 - 1 x_r2_g86 - 1 x_r2_g91 - 1 x_r2_g105 - 1 x_r2_g130 - 1 x_r2_g133 - 1 x_r2_g139 - 1 x_r2_g142 - 1 x_r2_g143 - 1 x_r2_g146 - 1 x_r2_g155 - 1 x_r2_g158 - 1 x_r3_g3 - 1 x_r3_g7 - 1 x_r3_g8 - 1 x_r3_g9 - 1 x_r3_g11 - 1 x_r3_g16 - 1 x_r3_g19 - 1 x_r3_g24 - 2 x_r3_g25 - 1 x_r3_g27 - 1 x_r3_g34 - 1 x_r3_g51 - 2 x_r3_g53 - 1 x_r3_g57 - 1 x_r3_g106 - 1 x_r3_g111 - 1 x_r3_g113 - 1 x_r3_g118 - 1 x_r3_g121 - 1 x_r3_g128 - 1 x_r3_g145 - 1 x_r3_g147 - 1 p_r0_g7_h153_t21 - 1 p_r0_g25_h4_t21 - 1 p_r0_g28_h7_t21 - 1 p_r0_g46_h25_t21 - 1 p_r0_g47_h26_t21 - 1 p_r0_g68_h47_t21 - 1 p_r0_g118_h97_t21 - 1 p_r1_g11_h157_t21 - 1 p_r1_g15_h161_t21 - 1 p_r1_g38_h17_t21 - 1 p_r1_g44_h23_t21 - 1 p_r1_g59_h38_t21 - 1 p_r1_g62_h41_t21 - 1 p_r1_g80_h59_t21 - 1 p_r1_g114_h93_t21 - 1 p_r1_g117_h96_t21 - 1 p_r1_g135_h114_t21 - 1 p_r1_g164_h143_t21 - 1 p_r2_g91_h70_t21 - 1 p_r2_g107_h86_t21 - 1 p_r2_g128_h107_t21 - 1 p_r2_g131_h110_t21 - 1 p_r2_g141_h120_t21 - 1 p_r2_g149_h128_t21 - 1 p_r2_g152_h131_t21 - 1 p_r2_g162_h141_t21 - 1 p_r2_g163_h142_t21 - 1 p_r3_g16_h162_t21 - 1 p_r3_g19_h165_t21 - 1 p_r3_g24_h3_t21 - 1 p_r3_g33_h12_t21 - 1 p_r3_g34_h13_t21 - 1 p_r3_g36_h15_t21 - 1 p_r3_g57_h36_t21 - 1 p_r3_g72_h51_t21 - 1 p_r3_g124_h103_t21 - 1 p_r3_g144_h123_t21 - 1 p_r3_g145_h124_t21 - 1 p_r3_g162_h141_t21 - 1 p_r3_g165_h144_t21 = -48
 abs_pos_21: d_21 - u_21 <= 0
 abs_neg_21: - d_21 - u_21 <= 0
 max_def_21: u_21 - M <= 0
 cap_21: u_21 <= 2
 lin1_29_0_46: p_r0_g46_h17_t29 - x_r0_g46 <= 0
 lin2_29_0_46: p_r0_g46_h17_t29 - x_r0_g17 <= 0
 lin3_29_0_46: p_r0_g46_h17_t29 - x_r0_g46 - x_r0_g17 >= -1
 lin1_29_0_54: p_r0_g54_h25_t29 - x_r0_g54 <= 0
 lin2_29_0_54: p_r0_g54_h25_t29 - x_r0_g25 <= 0
 lin3_29_0_54: p_r0_g54_h25_t29 - x_r0_g54 - x_r0_g25 >= -1
 lin1_29_0_97: p_r0_g97_h68_t29 - x_r0_g97 <= 0
 lin2_29_0_97: p_r0_g97_h68_t29 - x_r0_g68 <= 0
 lin3_29_0_97: p_r0_g97_h68_t29 - x_r0_g97 - x_r0_g68 >= -1
 lin1_29_0_126: p_r0_g126_h97_t29 - x_r0_g126 <= 0
 lin2_29_0_126: p_r0_g126_h97_t29 - x_r0_g97 <= 0
 lin3_29_0_126: p_r0_g126_h97_t29 - x_r0_g126 - x_r0_g97 >= -1
 lin1_29_0_131: p_r0_g131_h102_t29 - x_r0_g131 <= 0
 lin2_29_0_131: p_r0_g131_h102_t29 - x_r0_g102 <= 0
 lin3_29_0_131: p_r0_g131_h102_t29 - x_r0_g131 - x_r0_g102 >= -1
 lin1_29_0_159: p_r0_g159_h130_t29 - x_r0_g159 <= 0
 lin2_29_0_159: p_r0_g159_h130_t29 - x_r0_g130 <= 0
 lin3_29_0_159: p_r0_g159_h130_t29 - x_r0_g159 - x_r0_g130 >= -1
 lin1_29_1_8: p_r1_g8_h146_t29 - x_r1_g8 <= 0
 lin2_29_1_8: p_r1_g8_h146_t29 - x_r1_g146 <= 0
 lin3_29_1_8: p_r1_g8_h146_t29 - x_r1_g8 - x_r1_g146 >= -1
 lin1_29_1_15: p_r1_g15_h153_t29 - x_r1_g15 <= 0
 lin2_29_1_15: p_r1_g15_h153_t29 - x_r1_g153 <= 0
 lin3_29_1_15: p_r1_g15_h153_t29 - x_r1_g15 - x_r1_g153 >= -1
 lin1_29_1_17: p_r1_g17_h155_t29 - x_r1_g17 <= 0
 lin2_29_1_17: p_r1_g17_h155_t29 - x_r1_g155 <= 0
 lin3_29_1_17: p_r1_g17_h155_t29 - x_r1_g17 - x_r1_g155 >= -1
 lin1_29_1_23: p_r1_g23_h161_t29 - x_r1_g23 <= 0
 lin2_29_1_23: p_r1_g23_h161_t29 - x_r1_g161 <= 0
 lin3_29_1_23: p_r1_g23_h161_t29 - x_r1_g23 - x_r1_g161 >= -1
 lin1_29_1_26: p_r1_g26_h164_t29 - x_r1_g26 <= 0
 lin2_29_1_26: p_r1_g26_h164_t29 - x_r1_g164 <= 0
 lin3_29_1_26: p_r1_g26_h164_t29 - x_r1_g26 - x_r1_g164 >= -1
 lin1_29_1_44: p_r1_g44_h15_t29 - x_r1_g44 <= 0
 lin2_29_1_44: p_r1_g44_h15_t29 - x_r1_g15 <= 0
 lin3_29_1_44: p_r1_g44_h15_t29 - x_r1_g44 - x_r1_g15 >= -1
 lin1_29_1_67: p_r1_g67_h38_t29 - x_r1_g67 <= 0
 lin2_29_1_67: p_r1_g67_h38_t29 - x_r1_g38 <= 0
 lin3_29_1_67: p_r1_g67_h38_t29 - x_r1_g67 - x_r1_g38 >= -1
 lin1_29_1_80: p_r1_g80_h51_t29 - x_r1_g80 <= 0
 lin2_29_1_80: p_r1_g80_h51_t29 - x_r1_g51 <= 0
 lin3_29_1_80: p_r1_g80_h51_t29 - x_r1_g80 - x_r1_g51 >= -1
 lin1_29_1_93: p_r1_g93_h64_t29 - x_r1_g93 <= 0
 lin2_29_1_93: p_r1_g93_h64_t29 - x_r1_g64 <= 0
 lin3_29_1_93: p_r1_g93_h64_t29 - x_r1_g93 - x_r1_g64 >= -1
 lin1_29_1_96: p_r1_g96_h67_t29 - x_r1_g96 <= 0
 lin2_29_1_96: p_r1_g96_h67_t29 - x_r1_g67 <= 0
 lin3_29_1_96: p_r1_g96_h67_t29 - x_r1_g96 - x_r1_g67 >= -1
 lin1_29_1_143: p_r1_g143_h114_t29 - x_r1_g143 <= 0
 lin2_29_1_143: p_r1_g143_h114_t29 - x_r1_g114 <= 0
 lin3_29_1_143: p_r1_g143_h114_t29 - x_r1_g143 - x_r1_g114 >= -1
 lin1_29_1_146: p_r1_g146_h117_t29 - x_r1_g146 <= 0
 lin2_29_1_146: p_r1_g146_h117_t29 - x_r1_g117 <= 0
 lin3_29_1_146: p_r1_g146_h117_t29 - x_r1_g146 - x_r1_g117 >= -1
 lin1_29_1_157: p_r1_g157_h128_t29 - x_r1_g157 <= 0
 lin2_29_1_157: p_r1_g157_h128_t29 - x_r1_g128 <= 0
 lin3_29_1_157: p_r1_g157_h128_t29 - x_r1_g157 - x_r1_g128 >= -1
 lin1_29_1_164: p_r1_g164_h135_t29 - x_r1_g164 <= 0
 lin2_29_1_164: p_r1_g164_h135_t29 - x_r1_g135 <= 0
 lin3_29_1_164: p_r1_g164_h135_t29 - x_r1_g164 - x_r1_g135 >= -1
 lin1_29_2_21: p_r2_g21_h159_t29 - x_r2_g21 <= 0
 lin2_29_2_21: p_r2_g21_h159_t29 - x_r2_g159 <= 0
 lin3_29_2_21: p_r2_g21_h159_t29 - x_r2_g21 - x_r2_g159 >= -1
 lin1_29_2_77: p_r2_g77_h48_t29 - x_r2_g77 <= 0
 lin2_29_2_77: p_r2_g77_h48_t29 - x_r2_g48 <= 0
 lin3_29_2_77: p_r2_g77_h48_t29 - x_r2_g77 - x_r2_g48 >= -1
 lin1_29_2_91: p_r2_g91_h62_t29 - x_r2_g91 <= 0
 lin2_29_2_91: p_r2_g91_h62_t29 - x_r2_g62 <= 0
 lin3_29_2_91: p_r2_g91_h62_t29 - x_r2_g91 - x_r2_g62 >= -1
 lin1_29_2_102: p_r2_g102_h73_t29 - x_r2_g102 <= 0
 lin2_29_2_102: p_r2_g102_h73_t29 - x_r2_g73 <= 0
 lin3_29_2_102: p_r2_g102_h73_t29 - x_r2_g102 - x_r2_g73 >= -1
 lin1_29_2_120: p_r2_g120_h91_t29 - x_r2_g120 <= 0
 lin2_29_2_120: p_r2_g120_h91_t29 - x_r2_g91 <= 0
 lin3_29_2_120: p_r2_g120_h91_t29 - x_r2_g120 - x_r2_g91 >= -1
 lin1_29_2_131: p_r2_g131_h102_t29 - x_r2_g131 <= 0
 lin2_29_2_131: p_r2_g131_h102_t29 - x_r2_g102 <= 0
 lin3_29_2_131: p_r2_g131_h102_t29 - x_r2_g131 - x_r2_g102 >= -1
 lin1_29_2_139: p_r2_g139_h110_t29 - x_r2_g139 <= 0
 lin2_29_2_139: p_r2_g139_h110_t29 - x_r2_g110 <= 0
 lin3_29_2_139: p_r2_g139_h110_t29 - x_r2_g139 - x_r2_g110 >= -1
 lin1_29_2_149: p_r2_g149_h120_t29 - x_r2_g149 <= 0
 lin2_29_2_149: p_r2_g149_h120_t29 - x_r2_g120 <= 0
 lin3_29_2_149: p_r2_g149_h120_t29 - x_r2_g149 - x_r2_g120 >= -1
 lin1_29_2_159: p_r2_g159_h130_t29 - x_r2_g159 <= 0
 lin2_29_2_159: p_r2_g159_h130_t29 - x_r2_g130 <= 0
 lin3_29_2_159: p_r2_g159_h130_t29 - x_r2_g159 - x_r2_g130 >= -1
 lin1_29_2_162: p_r2_g162_h133_t29 - x_r2_g162 <= 0
 lin2_29_2_162: p_r2_g162_h133_t29 - x_r2_g133 <= 0
 lin3_29_2_162: p_r2_g162_h133_t29 - x_r2_g162 - x_r2_g133 >= -1
 lin1_29_3_3: p_r3_g3_h141_t29 - x_r3_g3 <= 0
 lin2_29_3_3: p_r3_g3_h141_t29 - x_r3_g141 <= 0
 lin3_29_3_3: p_r3_g3_h141_t29 - x_r3_g3 - x_r3_g141 >= -1
 lin1_29_3_7: p_r3_g7_h145_t29 - x_r3_g7 <= 0
 lin2_29_3_7: p_r3_g7_h145_t29 - x_r3_g145 <= 0
 lin3_29_3_7: p_r3_g7_h145_t29 - x_r3_g7 - x_r3_g145 >= -1
 lin1_29_3_9: p_r3_g9_h147_t29 - x_r3_g9 <= 0
 lin2_29_3_9: p_r3_g9_h147_t29 - x_r3_g147 <= 0
 lin3_29_3_9: p_r3_g9_h147_t29 - x_r3_g9 - x_r3_g147 >= -1
 lin1_29_3_24: p_r3_g24_h162_t29 - x_r3_g24 <= 0
 lin2_29_3_24: p_r3_g24_h162_t29 - x_r3_g162 <= 0
 lin3_29_3_24: p_r3_g24_h162_t29 - x_r3_g24 - x_r3_g162 >= -1
 lin1_29_3_27: p_r3_g27_h165_t29 - x_r3_g27 <= 0
 lin2_29_3_27: p_r3_g27_h165_t29 - x_r3_g165 <= 0
 lin3_29_3_27: p_r3_g27_h165_t29 - x_r3_g27 - x_r3_g165 >= -1
 lin1_29_3_36: p_r3_g36_h7_t29 - x_r3_g36 <= 0
 lin2_29_3_36: p_r3_g36_h7_t29 - x_r3_g7 <= 0
 lin3_29_3_36: p_r3_g36_h7_t29 - x_r3_g36 - x_r3_g7 >= -1
 lin1_29_3_53: p_r3_g53_h24_t29 - x_r3_g53 <= 0
 lin2_29_3_53: p_r3_g53_h24_t29 - x_r3_g24 <= 0
 lin3_29_3_53: p_r3_g53_h24_t29 - x_r3_g53 - x_r3_g24 >= -1
 lin1_29_3_123: p_r3_g123_h94_t29 - x_r3_g123 <= 0
 lin2_29_3_123: p_r3_g123_h94_t29 - x_r3_g94 <= 0
 lin3_29_3_123: p_r3_g123_h94_t29 - x_r3_g123 - x_r3_g94 >= -1
 lin1_29_3_141: p_r3_g141_h112_t29 - x_r3_g141 <= 0
 lin2_29_3_141: p_r3_g141_h112_t29 - x_r3_g112 <= 0
 lin3_29_3_141: p_r3_g141_h112_t29 - x_r3_g141 - x_r3_g112 >= -1
 lin1_29_3_147: p_r3_g147_h118_t29 - x_r3_g147 <= 0
 lin2_29_3_147: p_r3_g147_h118_t29 - x_r3_g118 <= 0
 lin3_29_3_147: p_r3_g147_h118_t29 - x_r3_g147 - x_r3_g118 >= -1
 defect_29: 1 d_29 - 1 x_r0_g4 - 1 x_r0_g7 - 1 x_r0_g9 - 1 x_r0_g17 - 2 x_r0_g20 - 2 x_r0_g22 - 1 x_r0_g25 - 1 x_r0_g26 - 1 x_r0_g27 - 2 x_r0_g34 - 1 x_r0_g35 - 2 x_r0_g69 - 2 x_r0_g84 - 2 x_r0_g87 - 1 x_r0_g88 - 1 x_r0_g93 - 1 x_r0_g126 - 2 x_r0_g129 - 1 x_r0_g130 - 1 x_r0_g131 - 1 x_r0_g136 - 1 x_r0_g143 - 1 x_r0_g144 - 1 x_r0_g153 - 1 x_r1_g8 - 1 x_r1_g11 - 1 x_r1_g13 - 1 x_r1_g17 - 1 x_r1_g41 - 1 x_r1_g56 - 1 x_r1_g59 - 1 x_r1_g62 - 1 x_r1_g80 - 1 x_r1_g108 - 1 x_r1_g110 - 2 x_r1_g111 - 1 x_r1_g113 - 1 x_r1_g117 - 1 x_r1_g153 - 1 x_r1_g161 - 2 x_r2_g2 - 2 x_r2_g29 - 1 x_r2_g30 - 2 x_r2_g54 - 1 x_r2_g60 - 1 x_r2_g62 - 1 x_r2_g64 - 1 x_r2_g70 - 1 x_r2_g86 - 1 x_r2_g105 - 2 x_r2_g107 - 1 x_r2_g128 - 1 x_r2_g130 - 1 x_r2_g131 - 1 x_r2_g133 - 1 x_r2_g139 - 1 x_r2_g141 - 2 x_r2_g142 - 1 x_r2_g143 - 1 x_r2_g152 - 1 x_r2_g155 - 2 x_r2_g158 - 2 x_r2_g163 - 2 x_r2_g165 - 1 x_r3_g3 - 1 x_r3_g8 - 1 x_r3_g9 - 2 x_r3_g11 - 1 x_r3_g12 - 1 x_r3_g13 - 2 x_r3_g16 - 1 x_r3_g25 - 2 x_r3_g33 - 1 x_r3_g34 - 1 x_r3_g36 - 2 x_r3_g51 - 2 x_r3_g57 - 1 x_r3_g72 - 1 x_r3_g94 - 2 x_r3_g103 - 2 x_r3_g105 - 1 x_r3_g106 - 1 x_r3_g111 - 1 x_r3_g112 - 1 x_r3_g113 - 1 x_r3_g118 - 1 x_r3_g128 - 1 x_r3_g144 - 2 x_r3_g156 - 1 p_r0_g46_h17_t29 - 1 p_r0_g54_h25_t29 - 1 p_r0_g97_h68_t29 - 1 p_r0_g126_h97_t29 - 1 p_r0_g131_h102_t29 - 1 p_r0_g159_h130_t29 - 1 p_r1_g8_h146_t29 - 1 p_r1_g15_h153_t29 - 1 p_r1_g17_h155_t29 - 1 p_r1_g23_h161_t29 - 1 p_r1_g26_h164_t29 - 1 p_r1_g44_h15_t29 - 1 p_r1_g67_h38_t29 - 1 p_r1_g80_h51_t29 - 1 p_r1_g93_h64_t29 - 1 p_r1_g96_h67_t29 - 1 p_r1_g143_h114_t29 - 1 p_r1_g146_h117_t29 - 1 p_r1_g157_h128_t29 - 1 p_r1_g164_h135_t29 - 1 p_r2_g21_h159_t29 - 1 p_r2_g77_h48_t29 - 1 p_r2_g91_h62_t29 - 1 p_r2_g102_h73_t29 - 1 p_r2_g120_h91_t29 - 1 p_r2_g131_h102_t29 - 1 p_r2_g139_h110_t29 - 1 p_r2_g149_h120_t29 - 1 p_r2_g159_h130_t29 - 1 p_r2_g162_h133_t29 - 1 p_r3_g3_h141_t29 - 1 p_r3_g7_h145_t29 - 1 p_r3_g9_h147_t29 - 1 p_r3_g24_h162_t29 - 1 p_r3_g27_h165_t29 - 1 p_r3_g36_h7_t29 - 1 p_r3_g53_h24_t29 - 1 p_r3_g123_h94_t29 - 1 p_r3_g141_h112_t29 - 1 p_r3_g147_h118_t29 = -49
 abs_pos_29: d_29 - u_29 <= 0
 abs_neg_29: - d_29 - u_29 <= 0
 max_def_29: u_29 - M <= 0
 cap_29: u_29 <= 2
 lin1_39_0_9: p_r0_g9_h137_t39 - x_r0_g9 <= 0
 lin2_39_0_9: p_r0_g9_h137_t39 - x_r0_g137 <= 0
 lin3_39_0_9: p_r0_g9_h137_t39 - x_r0_g9 - x_r0_g137 >= -1
 lin1_39_0_25: p_r0_g25_h153_t39 - x_r0_g25 <= 0
 lin2_39_0_25: p_r0_g25_h153_t39 - x_r0_g153 <= 0
 lin3_39_0_25: p_r0_g25_h153_t39 - x_r0_g25 - x_r0_g153 >= -1
 lin1_39_0_34: p_r0_g34_h162_t39 - x_r0_g34 <= 0
 lin2_39_0_34: p_r0_g34_h162_t39 - x_r0_g162 <= 0
 lin3_39_0_34: p_r0_g34_h162_t39 - x_r0_g34 - x_r0_g162 >= -1
 lin1_39_0_46: p_r0_g46_h7_t39 - x_r0_g46 <= 0
 lin2_39_0_46: p_r0_g46_h7_t39 - x_r0_g7 <= 0
 lin3_39_0_46: p_r0_g46_h7_t39 - x_r0_g46 - x_r0_g7 >= -1
 lin1_39_0_93: p_r0_g93_h54_t39 - x_r0_g93 <= 0
 lin2_39_0_93: p_r0_g93_h54_t39 - x_r0_g54 <= 0
 lin3_39_0_93: p_r0_g93_h54_t39 - x_r0_g93 - x_r0_g54 >= -1
 lin1_39_0_118: p_r0_g118_h79_t39 - x_r0_g118 <= 0
 lin2_39_0_118: p_r0_g118_h79_t39 - x_r0_g79 <= 0
 lin3_39_0_118: p_r0_g118_h79_t39 - x_r0_g118 - x_r0_g79 >= -1
 lin1_39_0_126: p_r0_g126_h87_t39 - x_r0_g126 <= 0
 lin2_39_0_126: p_r0_g126_h87_t39 - x_r0_g87 <= 0
 lin3_39_0_126: p_r0_g126_h87_t39 - x_r0_g126 - x_r0_g87 >= -1
 lin1_39_0_136: p_r0_g136_h97_t39 - x_r0_g136 <= 0
 lin2_39_0_136: p_r0_g136_h97_t39 - x_r0_g97 <= 0
 lin3_39_0_136: p_r0_g136_h97_t39 - x_r0_g136 - x_r0_g97 >= -1
 lin1_39_1_15: p_r1_g15_h143_t39 - x_r1_g15 <= 0
 lin2_39_1_15: p_r1_g15_h143_t39 - x_r1_g143 <= 0
 lin3_39_1_15: p_r1_g15_h143_t39 - x_r1_g15 - x_r1_g143 >= -1
 lin1_39_1_56: p_r1_g56_h17_t39 - x_r1_g56 <= 0
 lin2_39_1_56: p_r1_g56_h17_t39 - x_r1_g17 <= 0
 lin3_39_1_56: p_r1_g56_h17_t39 - x_r1_g56 - x_r1_g17 >= -1
 lin1_39_1_62: p_r1_g62_h23_t39 - x_r1_g62 <= 0
 lin2_39_1_62: p_r1_g62_h23_t39 - x_r1_g23 <= 0
 lin3_39_1_62: p_r1_g62_h23_t39 - x_r1_g62 - x_r1_g23 >= -1
 lin1_39_1_80: p_r1_g80_h41_t39 - x_r1_g80 <= 0
 lin2_39_1_80: p_r1_g80_h41_t39 - x_r1_g41 <= 0
 lin3_39_1_80: p_r1_g80_h41_t39 - x_r1_g80 - x_r1_g41 >= -1
 lin1_39_1_135: p_r1_g135_h96_t39 - x_r1_g135 <= 0
 lin2_39_1_135: p_r1_g135_h96_t39 - x_r1_g96 <= 0
 lin3_39_1_135: p_r1_g135_h96_t39 - x_r1_g135 - x_r1_g96 >= -1
 lin1_39_1_153: p_r1_g153_h114_t39 - x_r1_g153 <= 0
 lin2_39_1_153: p_r1_g153_h114_t39 - x_r1_g114 <= 0
 lin3_39_1_153: p_r1_g153_h114_t39 - x_r1_g153 - x_r1_g114 >= -1
 lin1_39_1_160: p_r1_g160_h121_t39 - x_r1_g160 <= 0
 lin2_39_1_160: p_r1_g160_h121_t39 - x_r1_g121 <= 0
 lin3_39_1_160: p_r1_g160_h121_t39 - x_r1_g160 - x_r1_g121 >= -1
 lin1_39_1_162: p_r1_g162_h123_t39 - x_r1_g162 <= 0
 lin2_39_1_162: p_r1_g162_h123_t39 - x_r1_g123 <= 0
 lin3_39_1_162: p_r1_g162_h123_t39 - x_r1_g162 - x_r1_g123 >= -1
 lin1_39_2_2: p_r2_g2_h130_t39 - x_r2_g2 <= 0
 lin2_39_2_2: p_r2_g2_h130_t39 - x_r2_g130 <= 0
 lin3_39_2_2: p_r2_g2_h130_t39 - x_r2_g2 - x_r2_g130 >= -1
 lin1_39_2_18: p_r2_g18_h146_t39 - x_r2_g18 <= 0
 lin2_39_2_18: p_r2_g18_h146_t39 - x_r2_g146 <= 0
 lin3_39_2_18: p_r2_g18_h146_t39 - x_r2_g18 - x_r2_g146 >= -1
 lin1_39_2_21: p_r2_g21_h149_t39 - x_r2_g21 <= 0
 lin2_39_2_21: p_r2_g21_h149_t39 - x_r2_g149 <= 0
 lin3_39_2_21: p_r2_g21_h149_t39 - x_r2_g21 - x_r2_g149 >= -1
 lin1_39_2_30: p_r2_g30_h158_t39 - x_r2_g30 <= 0
 lin2_39_2_30: p_r2_g30_h158_t39 - x_r2_g158 <= 0
 lin3_39_2_30: p_r2_g30_h158_t39 - x_r2_g30 - x_r2_g158 >= -1
 lin1_39_2_60: p_r2_g60_h21_t39 - x_r2_g60 <= 0
 lin2_39_2_60: p_r2_g60_h21_t39 - x_r2_g21 <= 0
 lin3_39_2_60: p_r2_g60_h21_t39 - x_r2_g60 - x_r2_g21 >= -1
 lin1_39_2_105: p_r2_g105_h66_t39 - x_r2_g105 <= 0
 lin2_39_2_105: p_r2_g105_h66_t39 - x_r2_g66 <= 0
 lin3_39_2_105: p_r2_g105_h66_t39 - x_r2_g105 - x_r2_g66 >= -1
 lin1_39_2_130: p_r2_g130_h91_t39 - x_r2_g130 <= 0
 lin2_39_2_130: p_r2_g130_h91_t39 - x_r2_g91 <= 0
 lin3_39_2_130: p_r2_g130_h91_t39 - x_r2_g130 - x_r2_g91 >= -1
 lin1_39_2_141: p_r2_g141_h102_t39 - x_r2_g141 <= 0
 lin2_39_2_141: p_r2_g141_h102_t39 - x_r2_g102 <= 0
 lin3_39_2_141: p_r2_g141_h102_t39 - x_r2_g141 - x_r2_g102 >= -1
 lin1_39_2_146: p_r2_g146_h107_t39 - x_r2_g146 <= 0
 lin2_39_2_146: p_r2_g146_h107_t39 - x_r2_g107 <= 0
 lin3_39_2_146: p_r2_g146_h107_t39 - x_r2_g146 - x_r2_g107 >= -1
 lin1_39_2_149: p_r2_g149_h110_t39 - x_r2_g149 <= 0
 lin2_39_2_149: p_r2_g149_h110_t39 - x_r2_g110 <= 0
 lin3_39_2_149: p_r2_g149_h110_t39 - x_r2_g149 - x_r2_g110 >= -1
 lin1_39_2_159: p_r2_g159_h120_t39 - x_r2_g159 <= 0
 lin2_39_2_159: p_r2_g159_h120_t39 - x_r2_g120 <= 0
 lin3_39_2_159: p_r2_g159_h120_t39 - x_r2_g159 - x_r2_g120 >= -1
 lin1_39_3_13: p_r3_g13_h141_t39 - x_r3_g13 <= 0
 lin2_39_3_13: p_r3_g13_h141_t39 - x_r3_g141 <= 0
 lin3_39_3_13: p_r3_g13_h141_t39 - x_r3_g13 - x_r3_g141 >= -1
 lin1_39_3_16: p_r3_g16_h144_t39 - x_r3_g16 <= 0
 lin2_39_3_16: p_r3_g16_h144_t39 - x_r3_g144 <= 0
 lin3_39_3_16: p_r3_g16_h144_t39 - x_r3_g16 - x_r3_g144 >= -1
 lin1_39_3_19: p_r3_g19_h147_t39 - x_r3_g19 <= 0
 lin2_39_3_19: p_r3_g19_h147_t39 - x_r3_g147 <= 0
 lin3_39_3_19: p_r3_g19_h147_t39 - x_r3_g19 - x_r3_g147 >= -1
 lin1_39_3_34: p_r3_g34_h162_t39 - x_r3_g34 <= 0
 lin2_39_3_34: p_r3_g34_h162_t39 - x_r3_g162 <= 0
 lin3_39_3_34: p_r3_g34_h162_t39 - x_r3_g34 - x_r3_g162 >= -1
 lin1_39_3_51: p_r3_g51_h12_t39 - x_r3_g51 <= 0
 lin2_39_3_51: p_r3_g51_h12_t39 - x_r3_g12 <= 0
 lin3_39_3_51: p_r3_g51_h12_t39 - x_r3_g51 - x_r3_g12 >= -1
 lin1_39_3_72: p_r3_g72_h33_t39 - x_r3_g72 <= 0
 lin2_39_3_72: p_r3_g72_h33_t39 - x_r3_g33 <= 0
 lin3_39_3_72: p_r3_g72_h33_t39 - x_r3_g72 - x_r3_g33 >= -1
 lin1_39_3_111: p_r3_g111_h72_t39 - x_r3_g111 <= 0
 lin2_39_3_111: p_r3_g111_h72_t39 - x_r3_g72 <= 0
 lin3_39_3_111: p_r3_g111_h72_t39 - x_r3_g111 - x_r3_g72 >= -1
 lin1_39_3_144: p_r3_g144_h105_t39 - x_r3_g144 <= 0
 lin2_39_3_144: p_r3_g144_h105_t39 - x_r3_g105 <= 0
 lin3_39_3_144: p_r3_g144_h105_t39 - x_r3_g144 - x_r3_g105 >= -1
 lin1_39_3_145: p_r3_g145_h106_t39 - x_r3_g145 <= 0
 lin2_39_3_145: p_r3_g145_h106_t39 - x_r3_g106 <= 0
 lin3_39_3_145: p_r3_g145_h106_t39 - x_r3_g145 - x_r3_g106 >= -1
 lin1_39_3_162: p_r3_g162_h123_t39 - x_r3_g162 <= 0
 lin2_39_3_162: p_r3_g162_h123_t39 - x_r3_g123 <= 0
 lin3_39_3_162: p_r3_g162_h123_t39 - x_r3_g162 - x_r3_g123 >= -1
 defect_39: 1 d_39 - 2 x_r0_g4 - 1 x_r0_g9 - 1 x_r0_g20 - 1 x_r0_g26 - 1 x_r0_g27 - 1 x_r0_g28 - 2 x_r0_g35 - 1 x_r0_g37 - 1 x_r0_g54 - 1 x_r0_g62 - 1 x_r0_g69 - 1 x_r0_g79 - 2 x_r0_g84 - 1 x_r0_g87 - 2 x_r0_g88 - 1 x_r0_g93 - 1 x_r0_g97 - 1 x_r0_g102 - 1 x_r0_g118 - 1 x_r0_g126 - 1 x_r0_g129 - 1 x_r0_g131 - 1 x_r0_g137 - 1 x_r0_g143 - 1 x_r0_g159 - 1 x_r0_g162 - 1 x_r1_g13 - 2 x_r1_g26 - 2 x_r1_g31 - 1 x_r1_g38 - 1 x_r1_g51 - 1 x_r1_g56 - 2 x_r1_g59 - 1 x_r1_g64 - 2 x_r1_g76 - 1 x_r1_g80 - 1 x_r1_g93 - 1 x_r1_g96 - 1 x_r1_g108 - 2 x_r1_g117 - 1 x_r1_g121 - 1 x_r1_g123 - 1 x_r1_g128 - 2 x_r1_g146 - 2 x_r1_g155 - 1 x_r1_g157 - 1 x_r1_g160 - 1 x_r1_g164 - 1 x_r2_g2 - 2 x_r2_g29 - 1 x_r2_g48 - 1 x_r2_g54 - 1 x_r2_g62 - 1 x_r2_g64 - 1 x_r2_g66 - 1 x_r2_g70 - 2 x_r2_g73 - 1 x_r2_g74 - 1 x_r2_g77 - 2 x_r2_g80 - 1 x_r2_g102 - 1 x_r2_g107 - 1 x_r2_g128 - 1 x_r2_g133 - 1 x_r2_g142 - 1 x_r2_g143 - 1 x_r2_g152 - 2 x_r2_g155 - 1 x_r2_g158 - 1 x_r2_g159 - 1 x_r2_g162 - 1 x_r2_g165 - 1 x_r3_g7 - 1 x_r3_g8 - 1 x_r3_g9 - 1 x_r3_g11 - 1 x_r3_g12 - 1 x_r3_g15 - 1 x_r3_g16 - 1 x_r3_g27 - 1 x_r3_g36 - 1 x_r3_g57 - 1 x_r3_g94 - 1 x_r3_g103 - 1 x_r3_g105 - 1 x_r3_g112 - 1 x_r3_g113 - 1 x_r3_g121 - 1 x_r3_g124 - 1 x_r3_g128 - 1 x_r3_g138 - 1 x_r3_g145 - 1 x_r3_g147 - 1 x_r3_g156 - 1 x_r3_g165 - 1 p_r0_g9_h137_t39 - 1 p_r0_g25_h153_t39 - 1 p_r0_g34_h162_t39 - 1 p_r0_g46_h7_t39 - 1 p_r0_g93_h54_t39 - 1 p_r0_g118_h79_t39 - 1 p_r0_g126_h87_t39 - 1 p_r0_g136_h97_t39 - 1 p_r1_g15_h143_t39 - 1 p_r1_g56_h17_t39 - 1 p_r1_g62_h23_t39 - 1 p_r1_g80_h41_t39 - 1 p_r1_g135_h96_t39 - 1 p_r1_g153_h114_t39 - 1 p_r1_g160_h121_t39 - 1 p_r1_g162_h123_t39 - 1 p_r2_g2_h130_t39 - 1 p_r2_g18_h146_t39 - 1 p_r2_g21_h149_t39 - 1 p_r2_g30_h158_t39 - 1 p_r2_g60_h21_t39 - 1 p_r2_g105_h66_t39 - 1 p_r2_g130_h91_t39 - 1 p_r2_g141_h102_t39 - 1 p_r2_g146_h107_t39 - 1 p_r2_g149_h110_t39 - 1 p_r2_g159_h120_t39 - 1 p_r3_g13_h141_t39 - 1 p_r3_g16_h144_t39 - 1 p_r3_g19_h147_t39 - 1 p_r3_g34_h162_t39 - 1 p_r3_g51_h12_t39 - 1 p_r3_g72_h33_t39 - 1 p_r3_g111_h72_t39 - 1 p_r3_g144_h105_t39 - 1 p_r3_g145_h106_t39 - 1 p_r3_g162_h123_t39 = -56
 abs_pos_39: d_39 - u_39 <= 0
 abs_neg_39: - d_39 - u_39 <= 0
 max_def_39: u_39 - M <= 0
 cap_39: u_39 <= 2
 lin1_69_0_4: p_r0_g4_h102_t69 - x_r0_g4 <= 0
 lin2_69_0_4: p_r0_g4_h102_t69 - x_r0_g102 <= 0
 lin3_69_0_4: p_r0_g4_h102_t69 - x_r0_g4 - x_r0_g102 >= -1
 lin1_69_0_20: p_r0_g20_h118_t69 - x_r0_g20 <= 0
 lin2_69_0_20: p_r0_g20_h118_t69 - x_r0_g118 <= 0
 lin3_69_0_20: p_r0_g20_h118_t69 - x_r0_g20 - x_r0_g118 >= -1
 lin1_69_0_28: p_r0_g28_h126_t69 - x_r0_g28 <= 0
 lin2_69_0_28: p_r0_g28_h126_t69 - x_r0_g126 <= 0
 lin3_69_0_28: p_r0_g28_h126_t69 - x_r0_g28 - x_r0_g126 >= -1
 lin1_69_0_46: p_r0_g46_h144_t69 - x_r0_g46 <= 0
 lin2_69_0_46: p_r0_g46_h144_t69 - x_r0_g144 <= 0
 lin3_69_0_46: p_r0_g46_h144_t69 - x_r0_g46 - x_r0_g144 >= -1
 lin1_69_0_97: p_r0_g97_h28_t69 - x_r0_g97 <= 0
 lin2_69_0_97: p_r0_g97_h28_t69 - x_r0_g28 <= 0
 lin3_69_0_97: p_r0_g97_h28_t69 - x_r0_g97 - x_r0_g28 >= -1
 lin1_69_0_129: p_r0_g129_h60_t69 - x_r0_g129 <= 0
 lin2_69_0_129: p_r0_g129_h60_t69 - x_r0_g60 <= 0
 lin3_69_0_129: p_r0_g129_h60_t69 - x_r0_g129 - x_r0_g60 >= -1
 lin1_69_0_131: p_r0_g131_h62_t69 - x_r0_g131 <= 0
 lin2_69_0_131: p_r0_g131_h62_t69 - x_r0_g62 <= 0
 lin3_69_0_131: p_r0_g131_h62_t69 - x_r0_g131 - x_r0_g62 >= -1
 lin1_69_0_137: p_r0_g137_h68_t69 - x_r0_g137 <= 0
 lin2_69_0_137: p_r0_g137_h68_t69 - x_r0_g68 <= 0
 lin3_69_0_137: p_r0_g137_h68_t69 - x_r0_g137 - x_r0_g68 >= -1
 lin1_69_0_153: p_r0_g153_h84_t69 - x_r0_g153 <= 0
 lin2_69_0_153: p_r0_g153_h84_t69 - x_r0_g84 <= 0
 lin3_69_0_153: p_r0_g153_h84_t69 - x_r0_g153 - x_r0_g84 >= -1
 lin1_69_0_162: p_r0_g162_h93_t69 - x_r0_g162 <= 0
 lin2_69_0_162: p_r0_g162_h93_t69 - x_r0_g93 <= 0
 lin3_69_0_162: p_r0_g162_h93_t69 - x_r0_g162 - x_r0_g93 >= -1
 lin1_69_1_13: p_r1_g13_h111_t69 - x_r1_g13 <= 0
 lin2_69_1_13: p_r1_g13_h111_t69 - x_r1_g111 <= 0
 lin3_69_1_13: p_r1_g13_h111_t69 - x_r1_g13 - x_r1_g111 >= -1
 lin1_69_1_15: p_r1_g15_h113_t69 - x_r1_g15 <= 0
 lin2_69_1_15: p_r1_g15_h113_t69 - x_r1_g113 <= 0
 lin3_69_1_15: p_r1_g15_h113_t69 - x_r1_g15 - x_r1_g113 >= -1
 lin1_69_1_23: p_r1_g23_h121_t69 - x_r1_g23 <= 0
 lin2_69_1_23: p_r1_g23_h121_t69 - x_r1_g121 <= 0
 lin3_69_1_23: p_r1_g23_h121_t69 - x_r1_g23 - x_r1_g121 >= -1
 lin1_69_1_59: p_r1_g59_h157_t69 - x_r1_g59 <= 0
 lin2_69_1_59: p_r1_g59_h157_t69 - x_r1_g157 <= 0
 lin3_69_1_59: p_r1_g59_h157_t69 - x_r1_g59 - x_r1_g157 >= -1
 lin1_69_1_62: p_r1_g62_h160_t69 - x_r1_g62 <= 0
 lin2_69_1_62: p_r1_g62_h160_t69 - x_r1_g160 <= 0
 lin3_69_1_62: p_r1_g62_h160_t69 - x_r1_g62 - x_r1_g160 >= -1
 lin1_69_1_64: p_r1_g64_h162_t69 - x_r1_g64 <= 0
 lin2_69_1_64: p_r1_g64_h162_t69 - x_r1_g162 <= 0
 lin3_69_1_64: p_r1_g64_h162_t69 - x_r1_g64 - x_r1_g162 >= -1
 lin1_69_1_80: p_r1_g80_h11_t69 - x_r1_g80 <= 0
 lin2_69_1_80: p_r1_g80_h11_t69 - x_r1_g11 <= 0
 lin3_69_1_80: p_r1_g80_h11_t69 - x_r1_g80 - x_r1_g11 >= -1
 lin1_69_1_110: p_r1_g110_h41_t69 - x_r1_g110 <= 0
 lin2_69_1_110: p_r1_g110_h41_t69 - x_r1_g41 <= 0
 lin3_69_1_110: p_r1_g110_h41_t69 - x_r1_g110 - x_r1_g41 >= -1
 lin1_69_1_113: p_r1_g113_h44_t69 - x_r1_g113 <= 0
 lin2_69_1_113: p_r1_g113_h44_t69 - x_r1_g44 <= 0
 lin3_69_1_113: p_r1_g113_h44_t69 - x_r1_g113 - x_r1_g44 >= -1
 lin1_69_1_128: p_r1_g128_h59_t69 - x_r1_g128 <= 0
 lin2_69_1_128: p_r1_g128_h59_t69 - x_r1_g59 <= 0
 lin3_69_1_128: p_r1_g128_h59_t69 - x_r1_g128 - x_r1_g59 >= -1
 lin1_69_1_162: p_r1_g162_h93_t69 - x_r1_g162 <= 0
 lin2_69_1_162: p_r1_g162_h93_t69 - x_r1_g93 <= 0
 lin3_69_1_162: p_r1_g162_h93_t69 - x_r1_g162 - x_r1_g93 >= -1
 lin1_69_2_30: p_r2_g30_h128_t69 - x_r2_g30 <= 0
 lin2_69_2_30: p_r2_g30_h128_t69 - x_r2_g128 <= 0
 lin3_69_2_30: p_r2_g30_h128_t69 - x_r2_g30 - x_r2_g128 >= -1
 lin1_69_2_48: p_r2_g48_h146_t69 - x_r2_g48 <= 0
 lin2_69_2_48: p_r2_g48_h146_t69 - x_r2_g146 <= 0
 lin3_69_2_48: p_r2_g48_h146_t69 - x_r2_g48 - x_r2_g146 >= -1
 lin1_69_2_54: p_r2_g54_h152_t69 - x_r2_g54 <= 0
 lin2_69_2_54: p_r2_g54_h152_t69 - x_r2_g152 <= 0
 lin3_69_2_54: p_r2_g54_h152_t69 - x_r2_g54 - x_r2_g152 >= -1
 lin1_69_2_60: p_r2_g60_h158_t69 - x_r2_g60 <= 0
 lin2_69_2_60: p_r2_g60_h158_t69 - x_r2_g158 <= 0
 lin3_69_2_60: p_r2_g60_h158_t69 - x_r2_g60 - x_r2_g158 >= -1
 lin1_69_2_64: p_r2_g64_h162_t69 - x_r2_g64 <= 0
 lin2_69_2_64: p_r2_g64_h162_t69 - x_r2_g162 <= 0
 lin3_69_2_64: p_r2_g64_h162_t69 - x_r2_g64 - x_r2_g162 >= -1
 lin1_69_2_131: p_r2_g131_h62_t69 - x_r2_g131 <= 0
 lin2_69_2_131: p_r2_g131_h62_t69 - x_r2_g62 <= 0
 lin3_69_2_131: p_r2_g131_h62_t69 - x_r2_g131 - x_r2_g62 >= -1
 lin1_69_2_133: p_r2_g133_h64_t69 - x_r2_g133 <= 0
 lin2_69_2_133: p_r2_g133_h64_t69 - x_r2_g64 <= 0
 lin3_69_2_133: p_r2_g133_h64_t69 - x_r2_g133 - x_r2_g64 >= -1
 lin1_69_2_139: p_r2_g139_h70_t69 - x_r2_g139 <= 0
 lin2_69_2_139: p_r2_g139_h70_t69 - x_r2_g70 <= 0
 lin3_69_2_139: p_r2_g139_h70_t69 - x_r2_g139 - x_r2_g70 >= -1
 lin1_69_2_142: p_r2_g142_h73_t69 - x_r2_g142 <= 0
 lin2_69_2_142: p_r2_g142_h73_t69 - x_r2_g73 <= 0
 lin3_69_2_142: p_r2_g142_h73_t69 - x_r2_g142 - x_r2_g73 >= -1
 lin1_69_2_143: p_r2_g143_h74_t69 - x_r2_g143 <= 0
 lin2_69_2_143: p_r2_g143_h74_t69 - x_r2_g74 <= 0
 lin3_69_2_143: p_r2_g143_h74_t69 - x_r2_g143 - x_r2_g74 >= -1
 lin1_69_2_146: p_r2_g146_h77_t69 - x_r2_g146 <= 0
 lin2_69_2_146: p_r2_g146_h77_t69 - x_r2_g77 <= 0
 lin3_69_2_146: p_r2_g146_h77_t69 - x_r2_g146 - x_r2_g77 >= -1
 lin1_69_2_149: p_r2_g149_h80_t69 - x_r2_g149 <= 0
 lin2_69_2_149: p_r2_g149_h80_t69 - x_r2_g80 <= 0
 lin3_69_2_149: p_r2_g149_h80_t69 - x_r2_g149 - x_r2_g80 >= -1
 lin1_69_2_155: p_r2_g155_h86_t69 - x_r2_g155 <= 0
 lin2_69_2_155: p_r2_g155_h86_t69 - x_r2_g86 <= 0
 lin3_69_2_155: p_r2_g155_h86_t69 - x_r2_g155 - x_r2_g86 >= -1
 lin1_69_3_7: p_r3_g7_h105_t69 - x_r3_g7 <= 0
 lin2_69_3_7: p_r3_g7_h105_t69 - x_r3_g105 <= 0
 lin3_69_3_7: p_r3_g7_h105_t69 - x_r3_g7 - x_r3_g105 >= -1
 lin1_69_3_8: p_r3_g8_h106_t69 - x_r3_g8 <= 0
 lin2_69_3_8: p_r3_g8_h106_t69 - x_r3_g106 <= 0
 lin3_69_3_8: p_r3_g8_h106_t69 - x_r3_g8 - x_r3_g106 >= -1
 lin1_69_3_13: p_r3_g13_h111_t69 - x_r3_g13 <= 0
 lin2_69_3_13: p_r3_g13_h111_t69 - x_r3_g111 <= 0
 lin3_69_3_13: p_r3_g13_h111_t69 - x_r3_g13 - x_r3_g111 >= -1
 lin1_69_3_15: p_r3_g15_h113_t69 - x_r3_g15 <= 0
 lin2_69_3_15: p_r3_g15_h113_t69 - x_r3_g113 <= 0
 lin3_69_3_15: p_r3_g15_h113_t69 - x_r3_g15 - x_r3_g113 >= -1
 lin1_69_3_25: p_r3_g25_h123_t69 - x_r3_g25 <= 0
 lin2_69_3_25: p_r3_g25_h123_t69 - x_r3_g123 <= 0
 lin3_69_3_25: p_r3_g25_h123_t69 - x_r3_g25 - x_r3_g123 >= -1
 lin1_69_3_72: p_r3_g72_h3_t69 - x_r3_g72 <= 0
 lin2_69_3_72: p_r3_g72_h3_t69 - x_r3_g3 <= 0
 lin3_69_3_72: p_r3_g72_h3_t69 - x_r3_g72 - x_r3_g3 >= -1
 lin1_69_3_94: p_r3_g94_h25_t69 - x_r3_g94 <= 0
 lin2_69_3_94: p_r3_g94_h25_t69 - x_r3_g25 <= 0
 lin3_69_3_94: p_r3_g94_h25_t69 - x_r3_g94 - x_r3_g25 >= -1
 lin1_69_3_103: p_r3_g103_h34_t69 - x_r3_g103 <= 0
 lin2_69_3_103: p_r3_g103_h34_t69 - x_r3_g34 <= 0
 lin3_69_3_103: p_r3_g103_h34_t69 - x_r3_g103 - x_r3_g34 >= -1
 lin1_69_3_105: p_r3_g105_h36_t69 - x_r3_g105 <= 0
 lin2_69_3_105: p_r3_g105_h36_t69 - x_r3_g36 <= 0
 lin3_69_3_105: p_r3_g105_h36_t69 - x_r3_g105 - x_r3_g36 >= -1
 lin1_69_3_141: p_r3_g141_h72_t69 - x_r3_g141 <= 0
 lin2_69_3_141: p_r3_g141_h72_t69 - x_r3_g72 <= 0
 lin3_69_3_141: p_r3_g141_h72_t69 - x_r3_g141 - x_r3_g72 >= -1
 defect_69: 1 d_69 - 1 x_r0_g22 - 1 x_r0_g25 - 1 x_r0_g27 - 2 x_r0_g34 - 1 x_r0_g37 - 1 x_r0_g47 - 2 x_r0_g54 - 1 x_r0_g60 - 1 x_r0_g62 - 1 x_r0_g70 - 1 x_r0_g84 - 2 x_r0_g88 - 1 x_r0_g118 - 2 x_r0_g136 - 2 x_r0_g143 - 1 x_r0_g153 - 1 x_r0_g159 - 1 x_r1_g11 - 1 x_r1_g13 - 1 x_r1_g15 - 1 x_r1_g17 - 2 x_r1_g26 - 1 x_r1_g31 - 1 x_r1_g38 - 1 x_r1_g56 - 1 x_r1_g96 - 2 x_r1_g108 - 1 x_r1_g111 - 1 x_r1_g114 - 2 x_r1_g135 - 1 x_r1_g153 - 1 x_r1_g155 - 1 x_r1_g157 - 1 x_r1_g160 - 2 x_r1_g164 - 2 x_r2_g18 - 2 x_r2_g21 - 1 x_r2_g29 - 1 x_r2_g60 - 1 x_r2_g62 - 1 x_r2_g66 - 1 x_r2_g70 - 1 x_r2_g73 - 1 x_r2_g91 - 2 x_r2_g102 - 1 x_r2_g105 - 1 x_r2_g110 - 1 x_r2_g130 - 1 x_r2_g131 - 1 x_r2_g139 - 1 x_r2_g141 - 1 x_r2_g152 - 2 x_r2_g159 - 1 x_r2_g162 - 2 x_r2_g163 - 1 x_r3_g7 - 1 x_r3_g8 - 1 x_r3_g9 - 1 x_r3_g11 - 2 x_r3_g12 - 1 x_r3_g24 - 1 x_r3_g34 - 1 x_r3_g36 - 1 x_r3_g51 - 2 x_r3_g53 - 1 x_r3_g94 - 1 x_r3_g103 - 1 x_r3_g106 - 1 x_r3_g112 - 2 x_r3_g118 - 2 x_r3_g124 - 2 x_r3_g128 - 1 x_r3_g138 - 1 x_r3_g141 - 2 x_r3_g144 - 2 x_r3_g145 - 2 x_r3_g147 - 1 p_r0_g4_h102_t69 - 1 p_r0_g20_h118_t69 - 1 p_r0_g28_h126_t69 - 1 p_r0_g46_h144_t69 - 1 p_r0_g97_h28_t69 - 1 p_r0_g129_h60_t69 - 1 p_r0_g131_h62_t69 - 1 p_r0_g137_h68_t69 - 1 p_r0_g153_h84_t69 - 1 p_r0_g162_h93_t69 - 1 p_r1_g13_h111_t69 - 1 p_r1_g15_h113_t69 - 1 p_r1_g23_h121_t69 - 1 p_r1_g59_h157_t69 - 1 p_r1_g62_h160_t69 - 1 p_r1_g64_h162_t69 - 1 p_r1_g80_h11_t69 - 1 p_r1_g110_h41_t69 - 1 p_r1_g113_h44_t69 - 1 p_r1_g128_h59_t69 - 1 p_r1_g162_h93_t69 - 1 p_r2_g30_h128_t69 - 1 p_r2_g48_h146_t69 - 1 p_r2_g54_h152_t69 - 1 p_r2_g60_h158_t69 - 1 p_r2_g64_h162_t69 - 1 p_r2_g131_h62_t69 - 1 p_r2_g133_h64_t69 - 1 p_r2_g139_h70_t69 - 1 p_r2_g142_h73_t69 - 1 p_r2_g143_h74_t69 - 1 p_r2_g146_h77_t69 - 1 p_r2_g149_h80_t69 - 1 p_r2_g155_h86_t69 - 1 p_r3_g7_h105_t69 - 1 p_r3_g8_h106_t69 - 1 p_r3_g13_h111_t69 - 1 p_r3_g15_h113_t69 - 1 p_r3_g25_h123_t69 - 1 p_r3_g72_h3_t69 - 1 p_r3_g94_h25_t69 - 1 p_r3_g103_h34_t69 - 1 p_r3_g105_h36_t69 - 1 p_r3_g141_h72_t69 = -81
 abs_pos_69: d_69 - u_69 <= 0
 abs_neg_69: - d_69 - u_69 <= 0
 max_def_69: u_69 - M <= 0
 cap_69: u_69 <= 2
 lin1_73_0_35: p_r0_g35_h129_t73 - x_r0_g35 <= 0
 lin2_73_0_35: p_r0_g35_h129_t73 - x_r0_g129 <= 0
 lin3_73_0_35: p_r0_g35_h129_t73 - x_r0_g35 - x_r0_g129 >= -1
 lin1_73_0_37: p_r0_g37_h131_t73 - x_r0_g37 <= 0
 lin2_73_0_37: p_r0_g37_h131_t73 - x_r0_g131 <= 0
 lin3_73_0_37: p_r0_g37_h131_t73 - x_r0_g37 - x_r0_g131 >= -1
 lin1_73_0_68: p_r0_g68_h162_t73 - x_r0_g68 <= 0
 lin2_73_0_68: p_r0_g68_h162_t73 - x_r0_g162 <= 0
 lin3_73_0_68: p_r0_g68_h162_t73 - x_r0_g68 - x_r0_g162 >= -1
 lin1_73_0_93: p_r0_g93_h20_t73 - x_r0_g93 <= 0
 lin2_73_0_93: p_r0_g93_h20_t73 - x_r0_g20 <= 0
 lin3_73_0_93: p_r0_g93_h20_t73 - x_r0_g93 - x_r0_g20 >= -1
 lin1_73_0_143: p_r0_g143_h70_t73 - x_r0_g143 <= 0
 lin2_73_0_143: p_r0_g143_h70_t73 - x_r0_g70 <= 0
 lin3_73_0_143: p_r0_g143_h70_t73 - x_r0_g143 - x_r0_g70 >= -1
 lin1_73_1_17: p_r1_g17_h111_t73 - x_r1_g17 <= 0
 lin2_73_1_17: p_r1_g17_h111_t73 - x_r1_g111 <= 0
 lin3_73_1_17: p_r1_g17_h111_t73 - x_r1_g17 - x_r1_g111 >= -1
 lin1_73_1_23: p_r1_g23_h117_t73 - x_r1_g23 <= 0
 lin2_73_1_23: p_r1_g23_h117_t73 - x_r1_g117 <= 0
 lin3_73_1_23: p_r1_g23_h117_t73 - x_r1_g23 - x_r1_g117 >= -1
 lin1_73_1_41: p_r1_g41_h135_t73 - x_r1_g41 <= 0
 lin2_73_1_41: p_r1_g41_h135_t73 - x_r1_g135 <= 0
 lin3_73_1_41: p_r1_g41_h135_t73 - x_r1_g41 - x_r1_g135 >= -1
 lin1_73_1_59: p_r1_g59_h153_t73 - x_r1_g59 <= 0
 lin2_73_1_59: p_r1_g59_h153_t73 - x_r1_g153 <= 0
 lin3_73_1_59: p_r1_g59_h153_t73 - x_r1_g59 - x_r1_g153 >= -1
 lin1_73_1_67: p_r1_g67_h161_t73 - x_r1_g67 <= 0
 lin2_73_1_67: p_r1_g67_h161_t73 - x_r1_g161 <= 0
 lin3_73_1_67: p_r1_g67_h161_t73 - x_r1_g67 - x_r1_g161 >= -1
 lin1_73_1_96: p_r1_g96_h23_t73 - x_r1_g96 <= 0
 lin2_73_1_96: p_r1_g96_h23_t73 - x_r1_g23 <= 0
 lin3_73_1_96: p_r1_g96_h23_t73 - x_r1_g96 - x_r1_g23 >= -1
 lin1_73_1_111: p_r1_g111_h38_t73 - x_r1_g111 <= 0
 lin2_73_1_111: p_r1_g111_h38_t73 - x_r1_g38 <= 0
 lin3_73_1_111: p_r1_g111_h38_t73 - x_r1_g111 - x_r1_g38 >= -1
 lin1_73_1_114: p_r1_g114_h41_t73 - x_r1_g114 <= 0
 lin2_73_1_114: p_r1_g114_h41_t73 - x_r1_g41 <= 0
 lin3_73_1_114: p_r1_g114_h41_t73 - x_r1_g114 - x_r1_g41 >= -1
 lin1_73_1_117: p_r1_g117_h44_t73 - x_r1_g117 <= 0
 lin2_73_1_117: p_r1_g117_h44_t73 - x_r1_g44 <= 0
 lin3_73_1_117: p_r1_g117_h44_t73 - x_r1_g117 - x_r1_g44 >= -1
 lin1_73_1_135: p_r1_g135_h62_t73 - x_r1_g135 <= 0
 lin2_73_1_135: p_r1_g135_h62_t73 - x_r1_g62 <= 0
 lin3_73_1_135: p_r1_g135_h62_t73 - x_r1_g135 - x_r1_g62 >= -1
 lin1_73_1_153: p_r1_g153_h80_t73 - x_r1_g153 <= 0
 lin2_73_1_153: p_r1_g153_h80_t73 - x_r1_g80 <= 0
 lin3_73_1_153: p_r1_g153_h80_t73 - x_r1_g153 - x_r1_g80 >= -1
 lin1_73_2_48: p_r2_g48_h142_t73 - x_r2_g48 <= 0
 lin2_73_2_48: p_r2_g48_h142_t73 - x_r2_g142 <= 0
 lin3_73_2_48: p_r2_g48_h142_t73 - x_r2_g48 - x_r2_g142 >= -1
 lin1_73_2_64: p_r2_g64_h158_t73 - x_r2_g64 <= 0
 lin2_73_2_64: p_r2_g64_h158_t73 - x_r2_g158 <= 0
 lin3_73_2_64: p_r2_g64_h158_t73 - x_r2_g64 - x_r2_g158 >= -1
 lin1_73_2_91: p_r2_g91_h18_t73 - x_r2_g91 <= 0
 lin2_73_2_91: p_r2_g91_h18_t73 - x_r2_g18 <= 0
 lin3_73_2_91: p_r2_g91_h18_t73 - x_r2_g91 - x_r2_g18 >= -1
 lin1_73_2_102: p_r2_g102_h29_t73 - x_r2_g102 <= 0
 lin2_73_2_102: p_r2_g102_h29_t73 - x_r2_g29 <= 0
 lin3_73_2_102: p_r2_g102_h29_t73 - x_r2_g102 - x_r2_g29 >= -1
 lin1_73_2_133: p_r2_g133_h60_t73 - x_r2_g133 <= 0
 lin2_73_2_133: p_r2_g133_h60_t73 - x_r2_g60 <= 0
 lin3_73_2_133: p_r2_g133_h60_t73 - x_r2_g133 - x_r2_g60 >= -1
 lin1_73_2_139: p_r2_g139_h66_t73 - x_r2_g139 <= 0
 lin2_73_2_139: p_r2_g139_h66_t73 - x_r2_g66 <= 0
 lin3_73_2_139: p_r2_g139_h66_t73 - x_r2_g139 - x_r2_g66 >= -1
 lin1_73_2_143: p_r2_g143_h70_t73 - x_r2_g143 <= 0
 lin2_73_2_143: p_r2_g143_h70_t73 - x_r2_g70 <= 0
 lin3_73_2_143: p_r2_g143_h70_t73 - x_r2_g143 - x_r2_g70 >= -1
 lin1_73_2_146: p_r2_g146_h73_t73 - x_r2_g146 <= 0
 lin2_73_2_146: p_r2_g146_h73_t73 - x_r2_g73 <= 0
 lin3_73_2_146: p_r2_g146_h73_t73 - x_r2_g146 - x_r2_g73 >= -1
 lin1_73_2_159: p_r2_g159_h86_t73 - x_r2_g159 <= 0
 lin2_73_2_159: p_r2_g159_h86_t73 - x_r2_g86 <= 0
 lin3_73_2_159: p_r2_g159_h86_t73 - x_r2_g159 - x_r2_g86 >= -1
 lin1_73_3_9: p_r3_g9_h103_t73 - x_r3_g9 <= 0
 lin2_73_3_9: p_r3_g9_h103_t73 - x_r3_g103 <= 0
 lin3_73_3_9: p_r3_g9_h103_t73 - x_r3_g9 - x_r3_g103 >= -1
 lin1_73_3_11: p_r3_g11_h105_t73 - x_r3_g11 <= 0
 lin2_73_3_11: p_r3_g11_h105_t73 - x_r3_g105 <= 0
 lin3_73_3_11: p_r3_g11_h105_t73 - x_r3_g11 - x_r3_g105 >= -1
 lin1_73_3_12: p_r3_g12_h106_t73 - x_r3_g12 <= 0
 lin2_73_3_12: p_r3_g12_h106_t73 - x_r3_g106 <= 0
 lin3_73_3_12: p_r3_g12_h106_t73 - x_r3_g12 - x_r3_g106 >= -1
 lin1_73_3_19: p_r3_g19_h113_t73 - x_r3_g19 <= 0
 lin2_73_3_19: p_r3_g19_h113_t73 - x_r3_g113 <= 0
 lin3_73_3_19: p_r3_g19_h113_t73 - x_r3_g19 - x_r3_g113 >= -1
 lin1_73_3_24: p_r3_g24_h118_t73 - x_r3_g24 <= 0
 lin2_73_3_24: p_r3_g24_h118_t73 - x_r3_g118 <= 0
 lin3_73_3_24: p_r3_g24_h118_t73 - x_r3_g24 - x_r3_g118 >= -1
 lin1_73_3_27: p_r3_g27_h121_t73 - x_r3_g27 <= 0
 lin2_73_3_27: p_r3_g27_h121_t73 - x_r3_g121 <= 0
 lin3_73_3_27: p_r3_g27_h121_t73 - x_r3_g27 - x_r3_g121 >= -1
 lin1_73_3_34: p_r3_g34_h128_t73 - x_r3_g34 <= 0
 lin2_73_3_34: p_r3_g34_h128_t73 - x_r3_g128 <= 0
 lin3_73_3_34: p_r3_g34_h128_t73 - x_r3_g34 - x_r3_g128 >= -1
 lin1_73_3_51: p_r3_g51_h145_t73 - x_r3_g51 <= 0
 lin2_73_3_51: p_r3_g51_h145_t73 - x_r3_g145 <= 0
 lin3_73_3_51: p_r3_g51_h145_t73 - x_r3_g51 - x_r3_g145 >= -1
 lin1_73_3_53: p_r3_g53_h147_t73 - x_r3_g53 <= 0
 lin2_73_3_53: p_r3_g53_h147_t73 - x_r3_g147 <= 0
 lin3_73_3_53: p_r3_g53_h147_t73 - x_r3_g53 - x_r3_g147 >= -1
 lin1_73_3_106: p_r3_g106_h33_t73 - x_r3_g106 <= 0
 lin2_73_3_106: p_r3_g106_h33_t73 - x_r3_g33 <= 0
 lin3_73_3_106: p_r3_g106_h33_t73 - x_r3_g106 - x_r3_g33 >= -1
 lin1_73_3_124: p_r3_g124_h51_t73 - x_r3_g124 <= 0
 lin2_73_3_124: p_r3_g124_h51_t73 - x_r3_g51 <= 0
 lin3_73_3_124: p_r3_g124_h51_t73 - x_r3_g124 - x_r3_g51 >= -1
 lin1_73_3_145: p_r3_g145_h72_t73 - x_r3_g145 <= 0
 lin2_73_3_145: p_r3_g145_h72_t73 - x_r3_g72 <= 0
 lin3_73_3_145: p_r3_g145_h72_t73 - x_r3_g145 - x_r3_g72 >= -1
 defect_73: 1 d_73 - 2 x_r0_g4 - 1 x_r0_g7 - 1 x_r0_g9 - 1 x_r0_g17 - 1 x_r0_g22 - 2 x_r0_g25 - 1 x_r0_g26 - 1 x_r0_g27 - 2 x_r0_g28 - 1 x_r0_g46 - 1 x_r0_g47 - 1 x_r0_g54 - 2 x_r0_g69 - 2 x_r0_g79 - 2 x_r0_g84 - 2 x_r0_g87 - 1 x_r0_g88 - 1 x_r0_g97 - 1 x_r0_g118 - 1 x_r0_g130 - 1 x_r0_g131 - 2 x_r0_g136 - 1 x_r0_g137 - 1 x_r0_g143 - 1 x_r0_g153 - 1 x_r0_g159 - 1 x_r1_g8 - 1 x_r1_g11 - 1 x_r1_g13 - 2 x_r1_g15 - 1 x_r1_g17 - 1 x_r1_g38 - 1 x_r1_g44 - 1 x_r1_g51 - 1 x_r1_g59 - 1 x_r1_g62 - 1 x_r1_g67 - 1 x_r1_g76 - 2 x_r1_g93 - 2 x_r1_g110 - 1 x_r1_g113 - 1 x_r1_g114 - 1 x_r1_g121 - 1 x_r1_g123 - 2 x_r1_g143 - 1 x_r1_g155 - 1 x_r1_g157 - 2 x_r1_g160 - 1 x_r1_g161 - 2 x_r1_g162 - 2 x_r1_g164 - 1 x_r2_g2 - 1 x_r2_g18 - 2 x_r2_g21 - 1 x_r2_g48 - 1 x_r2_g54 - 1 x_r2_g62 - 1 x_r2_g64 - 1 x_r2_g66 - 1 x_r2_g73 - 1 x_r2_g74 - 2 x_r2_g77 - 2 x_r2_g80 - 1 x_r2_g107 - 1 x_r2_g120 - 1 x_r2_g128 - 1 x_r2_g131 - 1 x_r2_g133 - 1 x_r2_g141 - 1 x_r2_g143 - 1 x_r2_g152 - 2 x_r2_g155 - 1 x_r2_g158 - 1 x_r2_g159 - 1 x_r2_g162 - 1 x_r2_g163 - 1 x_r3_g3 - 1 x_r3_g7 - 1 x_r3_g8 - 1 x_r3_g13 - 2 x_r3_g16 - 2 x_r3_g25 - 1 x_r3_g33 - 1 x_r3_g57 - 1 x_r3_g72 - 1 x_r3_g103 - 1 x_r3_g105 - 2 x_r3_g111 - 2 x_r3_g112 - 1 x_r3_g113 - 1 x_r3_g118 - 1 x_r3_g124 - 1 x_r3_g128 - 1 x_r3_g138 - 2 x_r3_g141 - 1 x_r3_g147 - 2 x_r3_g156 - 2 x_r3_g162 - 1 p_r0_g35_h129_t73 - 1 p_r0_g37_h131_t73 - 1 p_r0_g68_h162_t73 - 1 p_r0_g93_h20_t73 - 1 p_r0_g143_h70_t73 - 1 p_r1_g17_h111_t73 - 1 p_r1_g23_h117_t73 - 1 p_r1_g41_h135_t73 - 1 p_r1_g59_h153_t73 - 1 p_r1_g67_h161_t73 - 1 p_r1_g96_h23_t73 - 1 p_r1_g111_h38_t73 - 1 p_r1_g114_h41_t73 - 1 p_r1_g117_h44_t73 - 1 p_r1_g135_h62_t73 - 1 p_r1_g153_h80_t73 - 1 p_r2_g48_h142_t73 - 1 p_r2_g64_h158_t73 - 1 p_r2_g91_h18_t73 - 1 p_r2_g102_h29_t73 - 1 p_r2_g133_h60_t73 - 1 p_r2_g139_h66_t73 - 1 p_r2_g143_h70_t73 - 1 p_r2_g146_h73_t73 - 1 p_r2_g159_h86_t73 - 1 p_r3_g9_h103_t73 - 1 p_r3_g11_h105_t73 - 1 p_r3_g12_h106_t73 - 1 p_r3_g19_h113_t73 - 1 p_r3_g24_h118_t73 - 1 p_r3_g27_h121_t73 - 1 p_r3_g34_h128_t73 - 1 p_r3_g51_h145_t73 - 1 p_r3_g53_h147_t73 - 1 p_r3_g106_h33_t73 - 1 p_r3_g124_h51_t73 - 1 p_r3_g145_h72_t73 = -55
 abs_pos_73: d_73 - u_73 <= 0
 abs_neg_73: - d_73 - u_73 <= 0
 max_def_73: u_73 - M <= 0
 cap_73: u_73 <= 2
 tier_M_cap: M <= 3
 weighted_cap: 1 u_1 + 10 u_2 + 10 u_3 + 1 u_4 + 1 u_7 + 1 u_18 + 1 u_19 + 1 u_21 + 1 u_29 + 1 u_39 + 1 u_69 + 1 u_73 <= 56
 flip_def: 1 F - 1 x_r0_g4 - 1 x_r0_g9 - 1 x_r0_g17 - 1 x_r0_g22 - 1 x_r0_g26 - 1 x_r0_g27 - 1 x_r0_g28 - 1 x_r0_g35 - 1 x_r0_g46 - 1 x_r0_g69 - 1 x_r0_g79 - 1 x_r0_g84 - 1 x_r0_g87 - 1 x_r0_g93 - 1 x_r0_g97 - 1 x_r0_g129 - 1 x_r0_g130 - 1 x_r0_g144 - 1 x_r0_g153 - 1 x_r0_g162 - 1 x_r1_g8 - 1 x_r1_g13 - 1 x_r1_g17 - 1 x_r1_g23 - 1 x_r1_g41 - 1 x_r1_g51 - 1 x_r1_g59 - 1 x_r1_g67 - 1 x_r1_g76 - 1 x_r1_g93 - 1 x_r1_g110 - 1 x_r1_g111 - 1 x_r1_g117 - 1 x_r1_g121 - 1 x_r1_g135 - 1 x_r1_g143 - 1 x_r1_g153 - 1 x_r1_g157 - 1 x_r1_g161 - 1 x_r1_g162 - 1 x_r2_g2 - 1 x_r2_g29 - 1 x_r2_g54 - 1 x_r2_g62 - 1 x_r2_g66 - 1 x_r2_g73 - 1 x_r2_g77 - 1 x_r2_g80 - 1 x_r2_g91 - 1 x_r2_g107 - 1 x_r2_g131 - 1 x_r2_g133 - 1 x_r2_g141 - 1 x_r2_g142 - 1 x_r2_g143 - 1 x_r2_g149 - 1 x_r2_g155 - 1 x_r2_g158 - 1 x_r2_g159 - 1 x_r2_g165 - 1 x_r3_g3 - 1 x_r3_g7 - 1 x_r3_g11 - 1 x_r3_g15 - 1 x_r3_g16 - 1 x_r3_g24 - 1 x_r3_g25 - 1 x_r3_g33 - 1 x_r3_g34 - 1 x_r3_g51 - 1 x_r3_g57 - 1 x_r3_g72 - 1 x_r3_g103 - 1 x_r3_g105 - 1 x_r3_g113 - 1 x_r3_g121 - 1 x_r3_g141 - 1 x_r3_g147 - 1 x_r3_g156 - 1 x_r3_g165 + 1 x_r0_g7 + 1 x_r0_g20 + 1 x_r0_g25 + 1 x_r0_g34 + 1 x_r0_g37 + 1 x_r0_g47 + 1 x_r0_g54 + 1 x_r0_g60 + 1 x_r0_g62 + 1 x_r0_g68 + 1 x_r0_g70 + 1 x_r0_g88 + 1 x_r0_g102 + 1 x_r0_g118 + 1 x_r0_g126 + 1 x_r0_g131 + 1 x_r0_g136 + 1 x_r0_g137 + 1 x_r0_g143 + 1 x_r0_g159 + 1 x_r1_g11 + 1 x_r1_g15 + 1 x_r1_g26 + 1 x_r1_g31 + 1 x_r1_g38 + 1 x_r1_g44 + 1 x_r1_g56 + 1 x_r1_g62 + 1 x_r1_g64 + 1 x_r1_g80 + 1 x_r1_g96 + 1 x_r1_g108 + 1 x_r1_g113 + 1 x_r1_g114 + 1 x_r1_g123 + 1 x_r1_g128 + 1 x_r1_g146 + 1 x_r1_g155 + 1 x_r1_g160 + 1 x_r1_g164 + 1 x_r2_g18 + 1 x_r2_g21 + 1 x_r2_g30 + 1 x_r2_g48 + 1 x_r2_g60 + 1 x_r2_g64 + 1 x_r2_g70 + 1 x_r2_g74 + 1 x_r2_g86 + 1 x_r2_g102 + 1 x_r2_g105 + 1 x_r2_g110 + 1 x_r2_g120 + 1 x_r2_g128 + 1 x_r2_g130 + 1 x_r2_g139 + 1 x_r2_g146 + 1 x_r2_g152 + 1 x_r2_g162 + 1 x_r2_g163 + 1 x_r3_g8 + 1 x_r3_g9 + 1 x_r3_g12 + 1 x_r3_g13 + 1 x_r3_g19 + 1 x_r3_g27 + 1 x_r3_g36 + 1 x_r3_g53 + 1 x_r3_g94 + 1 x_r3_g106 + 1 x_r3_g111 + 1 x_r3_g112 + 1 x_r3_g118 + 1 x_r3_g123 + 1 x_r3_g124 + 1 x_r3_g128 + 1 x_r3_g138 + 1 x_r3_g144 + 1 x_r3_g145 + 1 x_r3_g162 = 80
 flip_cap: F <= 6
Bounds
 d_1 free
 0 <= u_1
 d_2 free
 0 <= u_2
 d_3 free
 0 <= u_3
 d_4 free
 0 <= u_4
 d_7 free
 0 <= u_7
 d_18 free
 0 <= u_18
 d_19 free
 0 <= u_19
 d_21 free
 0 <= u_21
 d_29 free
 0 <= u_29
 d_39 free
 0 <= u_39
 d_69 free
 0 <= u_69
 d_73 free
 0 <= u_73
 0 <= M
 0 <= F
Binaries
 x_r0_g4
 x_r0_g7
 x_r0_g9
 x_r0_g17
 x_r0_g20
 x_r0_g22
 x_r0_g25
 x_r0_g26
 x_r0_g27
 x_r0_g28
 x_r0_g34
 x_r0_g35
 x_r0_g37
 x_r0_g46
 x_r0_g47
 x_r0_g54
 x_r0_g60
 x_r0_g62
 x_r0_g68
 x_r0_g69
 x_r0_g70
 x_r0_g79
 x_r0_g84
 x_r0_g87
 x_r0_g88
 x_r0_g93
 x_r0_g97
 x_r0_g102
 x_r0_g118
 x_r0_g126
 x_r0_g129
 x_r0_g130
 x_r0_g131
 x_r0_g136
 x_r0_g137
 x_r0_g143
 x_r0_g144
 x_r0_g153
 x_r0_g159
 x_r0_g162
 x_r1_g8
 x_r1_g11
 x_r1_g13
 x_r1_g15
 x_r1_g17
 x_r1_g23
 x_r1_g26
 x_r1_g31
 x_r1_g38
 x_r1_g41
 x_r1_g44
 x_r1_g51
 x_r1_g56
 x_r1_g59
 x_r1_g62
 x_r1_g64
 x_r1_g67
 x_r1_g76
 x_r1_g80
 x_r1_g93
 x_r1_g96
 x_r1_g108
 x_r1_g110
 x_r1_g111
 x_r1_g113
 x_r1_g114
 x_r1_g117
 x_r1_g121
 x_r1_g123
 x_r1_g128
 x_r1_g135
 x_r1_g143
 x_r1_g146
 x_r1_g153
 x_r1_g155
 x_r1_g157
 x_r1_g160
 x_r1_g161
 x_r1_g162
 x_r1_g164
 x_r2_g2
 x_r2_g18
 x_r2_g21
 x_r2_g29
 x_r2_g30
 x_r2_g48
 x_r2_g54
 x_r2_g60
 x_r2_g62
 x_r2_g64
 x_r2_g66
 x_r2_g70
 x_r2_g73
 x_r2_g74
 x_r2_g77
 x_r2_g80
 x_r2_g86
 x_r2_g91
 x_r2_g102
 x_r2_g105
 x_r2_g107
 x_r2_g110
 x_r2_g120
 x_r2_g128
 x_r2_g130
 x_r2_g131
 x_r2_g133
 x_r2_g139
 x_r2_g141
 x_r2_g142
 x_r2_g143
 x_r2_g146
 x_r2_g149
 x_r2_g152
 x_r2_g155
 x_r2_g158
 x_r2_g159
 x_r2_g162
 x_r2_g163
 x_r2_g165
 x_r3_g3
 x_r3_g7
 x_r3_g8
 x_r3_g9
 x_r3_g11
 x_r3_g12
 x_r3_g13
 x_r3_g15
 x_r3_g16
 x_r3_g19
 x_r3_g24
 x_r3_g25
 x_r3_g27
 x_r3_g33
 x_r3_g34
 x_r3_g36
 x_r3_g51
 x_r3_g53
 x_r3_g57
 x_r3_g72
 x_r3_g94
 x_r3_g103
 x_r3_g105
 x_r3_g106
 x_r3_g111
 x_r3_g112
 x_r3_g113
 x_r3_g118
 x_r3_g121
 x_r3_g123
 x_r3_g124
 x_r3_g128
 x_r3_g138
 x_r3_g141
 x_r3_g144
 x_r3_g145
 x_r3_g147
 x_r3_g156
 x_r3_g162
 x_r3_g165
 p_r0_g26_h25_t1
 p_r0_g27_h26_t1
 p_r0_g28_h27_t1
 p_r0_g35_h34_t1
 p_r0_g47_h46_t1
 p_r0_g69_h68_t1
 p_r0_g70_h69_t1
 p_r0_g88_h87_t1
 p_r0_g130_h129_t1
 p_r0_g131_h130_t1
 p_r0_g137_h136_t1
 p_r0_g144_h143_t1
 p_r1_g111_h110_t1
 p_r1_g114_h113_t1
 p_r1_g161_h160_t1
 p_r1_g162_h161_t1
 p_r2_g30_h29_t1
 p_r2_g74_h73_t1
 p_r2_g131_h130_t1
 p_r2_g142_h141_t1
 p_r2_g143_h142_t1
 p_r2_g159_h158_t1
 p_r2_g163_h162_t1
 p_r3_g8_h7_t1
 p_r3_g9_h8_t1
 p_r3_g12_h11_t1
 p_r3_g13_h12_t1
 p_r3_g16_h15_t1
 p_r3_g25_h24_t1
 p_r3_g34_h33_t1
 p_r3_g106_h105_t1
 p_r3_g112_h111_t1
 p_r3_g113_h112_t1
 p_r3_g124_h123_t1
 p_r3_g145_h144_t1
 p_r0_g9_h7_t2
 p_r0_g22_h20_t2
 p_r0_g27_h25_t2
 p_r0_g28_h26_t2
 p_r0_g37_h35_t2
 p_r0_g62_h60_t2
 p_r0_g70_h68_t2
 p_r0_g131_h129_t2
 p_r1_g13_h11_t2
 p_r1_g15_h13_t2
 p_r1_g17_h15_t2
 p_r1_g64_h62_t2
 p_r1_g110_h108_t2
 p_r1_g113_h111_t2
 p_r1_g123_h121_t2
 p_r1_g155_h153_t2
 p_r1_g157_h155_t2
 p_r1_g162_h160_t2
 p_r1_g164_h162_t2
 p_r2_g62_h60_t2
 p_r2_g64_h62_t2
 p_r2_g66_h64_t2
 p_r2_g107_h105_t2
 p_r2_g130_h128_t2
 p_r2_g133_h131_t2
 p_r2_g141_h139_t2
 p_r2_g143_h141_t2
 p_r2_g165_h163_t2
 p_r3_g9_h7_t2
 p_r3_g11_h9_t2
 p_r3_g13_h11_t2
 p_r3_g15_h13_t2
 p_r3_g27_h25_t2
 p_r3_g36_h34_t2
 p_r3_g53_h51_t2
 p_r3_g105_h103_t2
 p_r3_g113_h111_t2
 p_r3_g123_h121_t2
 p_r3_g147_h145_t2
 p_r0_g7_h4_t3
 p_r0_g20_h17_t3
 p_r0_g25_h22_t3
 p_r0_g28_h25_t3
 p_r0_g37_h34_t3
 p_r0_g87_h84_t3
 p_r0_g129_h126_t3
 p_r0_g162_h159_t3
 p_r1_g11_h8_t3
 p_r1_g26_h23_t3
 p_r1_g41_h38_t3
 p_r1_g44_h41_t3
 p_r1_g59_h56_t3
 p_r1_g62_h59_t3
 p_r1_g67_h64_t3
 p_r1_g96_h93_t3
 p_r1_g111_h108_t3
 p_r1_g113_h110_t3
 p_r1_g114_h111_t3
 p_r1_g117_h114_t3
 p_r1_g146_h143_t3
 p_r1_g160_h157_t3
 p_r1_g164_h161_t3
 p_r2_g21_h18_t3
 p_r2_g73_h70_t3
 p_r2_g77_h74_t3
 p_r2_g80_h77_t3
 p_r2_g105_h102_t3
 p_r2_g110_h107_t3
 p_r2_g131_h128_t3
 p_r2_g133_h130_t3
 p_r2_g142_h139_t3
 p_r2_g146_h143_t3
 p_r2_g149_h146_t3
 p_r2_g152_h149_t3
 p_r2_g155_h152_t3
 p_r2_g158_h155_t3
 p_r2_g162_h159_t3
 p_r2_g165_h162_t3
 p_r3_g11_h8_t3
 p_r3_g12_h9_t3
 p_r3_g15_h12_t3
 p_r3_g16_h13_t3
 p_r3_g19_h16_t3
 p_r3_g27_h24_t3
 p_r3_g36_h33_t3
 p_r3_g106_h103_t3
 p_r3_g121_h118_t3
 p_r3_g124_h121_t3
 p_r3_g141_h138_t3
 p_r3_g144_h141_t3
 p_r3_g147_h144_t3
 p_r3_g165_h162_t3
 p_r0_g26_h22_t4
 p_r0_g88_h84_t4
 p_r0_g97_h93_t4
 p_r0_g130_h126_t4
 p_r1_g15_h11_t4
 p_r1_g17_h13_t4
 p_r1_g80_h76_t4
 p_r1_g114_h110_t4
 p_r1_g117_h113_t4
 p_r1_g121_h117_t4
 p_r1_g157_h153_t4
 p_r1_g161_h157_t4
 p_r1_g164_h160_t4
 p_r2_g2_h165_t4
 p_r2_g64_h60_t4
 p_r2_g66_h62_t4
 p_r2_g70_h66_t4
 p_r2_g74_h70_t4
 p_r2_g77_h73_t4
 p_r2_g143_h139_t4
 p_r2_g146_h142_t4
 p_r2_g159_h155_t4
 p_r2_g162_h158_t4
 p_r2_g163_h159_t4
 p_r3_g7_h3_t4
 p_r3_g11_h7_t4
 p_r3_g12_h8_t4
 p_r3_g13_h9_t4
 p_r3_g15_h11_t4
 p_r3_g16_h12_t4
 p_r3_g19_h15_t4
 p_r3_g57_h53_t4
 p_r3_g128_h124_t4
 p_r3_g145_h141_t4
 p_r0_g27_h20_t7
 p_r0_g34_h27_t7
 p_r0_g35_h28_t7
 p_r0_g54_h47_t7
 p_r0_g69_h62_t7
 p_r0_g136_h129_t7
 p_r0_g137_h130_t7
 p_r0_g143_h136_t7
 p_r0_g144_h137_t7
 p_r1_g15_h8_t7
 p_r1_g38_h31_t7
 p_r1_g51_h44_t7
 p_r1_g117_h110_t7
 p_r1_g121_h114_t7
 p_r1_g128_h121_t7
 p_r1_g135_h128_t7
 p_r1_g153_h146_t7
 p_r1_g160_h153_t7
 p_r1_g162_h155_t7
 p_r1_g164_h157_t7
 p_r2_g2_h162_t7
 p_r2_g73_h66_t7
 p_r2_g77_h70_t7
 p_r2_g80_h73_t7
 p_r2_g146_h139_t7
 p_r2_g149_h142_t7
 p_r2_g159_h152_t7
 p_r2_g162_h155_t7
 p_r2_g165_h158_t7
 p_r3_g15_h8_t7
 p_r3_g16_h9_t7
 p_r3_g19_h12_t7
 p_r3_g34_h27_t7
 p_r3_g112_h105_t7
 p_r3_g113_h106_t7
 p_r3_g118_h111_t7
 p_r3_g128_h121_t7
 p_r3_g145_h138_t7
 p_r0_g4_h153_t18
 p_r0_g22_h4_t18
 p_r0_g25_h7_t18
 p_r0_g27_h9_t18
 p_r0_g35_h17_t18
 p_r0_g46_h28_t18
 p_r0_g87_h69_t18
 p_r0_g88_h70_t18
 p_r0_g97_h79_t18
 p_r0_g102_h84_t18
 p_r0_g136_h118_t18
 p_r0_g144_h126_t18
 p_r0_g162_h144_t18
 p_r1_g8_h157_t18
 p_r1_g11_h160_t18
 p_r1_g13_h162_t18
 p_r1_g15_h164_t18
 p_r1_g26_h8_t18
 p_r1_g31_h13_t18
 p_r1_g41_h23_t18
 p_r1_g44_h26_t18
 p_r1_g56_h38_t18
 p_r1_g59_h41_t18
 p_r1_g62_h44_t18
 p_r1_g80_h62_t18
 p_r1_g111_h93_t18
 p_r1_g114_h96_t18
 p_r1_g128_h110_t18
 p_r1_g135_h117_t18
 p_r1_g146_h128_t18
 p_r1_g153_h135_t18
 p_r1_g161_h143_t18
 p_r1_g164_h146_t18
 p_r2_g48_h30_t18
 p_r2_g66_h48_t18
 p_r2_g80_h62_t18
 p_r2_g91_h73_t18
 p_r2_g120_h102_t18
 p_r2_g128_h110_t18
 p_r2_g146_h128_t18
 p_r2_g149_h131_t18
 p_r2_g159_h141_t18
 p_r3_g7_h156_t18
 p_r3_g13_h162_t18
 p_r3_g16_h165_t18
 p_r3_g25_h7_t18
 p_r3_g27_h9_t18
 p_r3_g33_h15_t18
 p_r3_g34_h16_t18
 p_r3_g51_h33_t18
 p_r3_g112_h94_t18
 p_r3_g121_h103_t18
 p_r3_g123_h105_t18
 p_r3_g124_h106_t18
 p_r3_g141_h123_t18
 p_r3_g156_h138_t18
 p_r3_g162_h144_t18
 p_r3_g165_h147_t18
 p_r0_g26_h7_t19
 p_r0_g28_h9_t19
 p_r0_g46_h27_t19
 p_r0_g47_h28_t19
 p_r0_g54_h35_t19
 p_r0_g79_h60_t19
 p_r0_g87_h68_t19
 p_r0_g88_h69_t19
 p_r0_g137_h118_t19
 p_r0_g162_h143_t19
 p_r1_g13_h161_t19
 p_r1_g162_h143_t19
 p_r2_g21_h2_t19
 p_r2_g48_h29_t19
 p_r2_g73_h54_t19
 p_r2_g105_h86_t19
 p_r2_g110_h91_t19
 p_r2_g139_h120_t19
 p_r2_g149_h130_t19
 p_r2_g152_h133_t19
 p_r2_g158_h139_t19
 p_r2_g162_h143_t19
 p_r2_g165_h146_t19
 p_r3_g8_h156_t19
 p_r3_g27_h8_t19
 p_r3_g34_h15_t19
 p_r3_g53_h34_t19
 p_r3_g72_h53_t19
 p_r3_g113_h94_t19
 p_r3_g124_h105_t19
 p_r3_g147_h128_t19
 p_r0_g7_h153_t21
 p_r0_g25_h4_t21
 p_r0_g28_h7_t21
 p_r0_g46_h25_t21
 p_r0_g47_h26_t21
 p_r0_g68_h47_t21
 p_r0_g118_h97_t21
 p_r1_g11_h157_t21
 p_r1_g15_h161_t21
 p_r1_g38_h17_t21
 p_r1_g44_h23_t21
 p_r1_g59_h38_t21
 p_r1_g62_h41_t21
 p_r1_g80_h59_t21
 p_r1_g114_h93_t21
 p_r1_g117_h96_t21
 p_r1_g135_h114_t21
 p_r1_g164_h143_t21
 p_r2_g91_h70_t21
 p_r2_g107_h86_t21
 p_r2_g128_h107_t21
 p_r2_g131_h110_t21
 p_r2_g141_h120_t21
 p_r2_g149_h128_t21
 p_r2_g152_h131_t21
 p_r2_g162_h141_t21
 p_r2_g163_h142_t21
 p_r3_g16_h162_t21
 p_r3_g19_h165_t21
 p_r3_g24_h3_t21
 p_r3_g33_h12_t21
 p_r3_g34_h13_t21
 p_r3_g36_h15_t21
 p_r3_g57_h36_t21
 p_r3_g72_h51_t21
 p_r3_g124_h103_t21
 p_r3_g144_h123_t21
 p_r3_g145_h124_t21
 p_r3_g162_h141_t21
 p_r3_g165_h144_t21
 p_r0_g46_h17_t29
 p_r0_g54_h25_t29
 p_r0_g97_h68_t29
 p_r0_g126_h97_t29
 p_r0_g131_h102_t29
 p_r0_g159_h130_t29
 p_r1_g8_h146_t29
 p_r1_g15_h153_t29
 p_r1_g17_h155_t29
 p_r1_g23_h161_t29
 p_r1_g26_h164_t29
 p_r1_g44_h15_t29
 p_r1_g67_h38_t29
 p_r1_g80_h51_t29
 p_r1_g93_h64_t29
 p_r1_g96_h67_t29
 p_r1_g143_h114_t29
 p_r1_g146_h117_t29
 p_r1_g157_h128_t29
 p_r1_g164_h135_t29
 p_r2_g21_h159_t29
 p_r2_g77_h48_t29
 p_r2_g91_h62_t29
 p_r2_g102_h73_t29
 p_r2_g120_h91_t29
 p_r2_g131_h102_t29
 p_r2_g139_h110_t29
 p_r2_g149_h120_t29
 p_r2_g159_h130_t29
 p_r2_g162_h133_t29
 p_r3_g3_h141_t29
 p_r3_g7_h145_t29
 p_r3_g9_h147_t29
 p_r3_g24_h162_t29
 p_r3_g27_h165_t29
 p_r3_g36_h7_t29
 p_r3_g53_h24_t29
 p_r3_g123_h94_t29
 p_r3_g141_h112_t29
 p_r3_g147_h118_t29
 p_r0_g9_h137_t39
 p_r0_g25_h153_t39
 p_r0_g34_h162_t39
 p_r0_g46_h7_t39
 p_r0_g93_h54_t39
 p_r0_g118_h79_t39
 p_r0_g126_h87_t39
 p_r0_g136_h97_t39
 p_r1_g15_h143_t39
 p_r1_g56_h17_t39
 p_r1_g62_h23_t39
 p_r1_g80_h41_t39
 p_r1_g135_h96_t39
 p_r1_g153_h114_t39
 p_r1_g160_h121_t39
 p_r1_g162_h123_t39
 p_r2_g2_h130_t39
 p_r2_g18_h146_t39
 p_r2_g21_h149_t39
 p_r2_g30_h158_t39
 p_r2_g60_h21_t39
 p_r2_g105_h66_t39
 p_r2_g130_h91_t39
 p_r2_g141_h102_t39
 p_r2_g146_h107_t39
 p_r2_g149_h110_t39
 p_r2_g159_h120_t39
 p_r3_g13_h141_t39
 p_r3_g16_h144_t39
 p_r3_g19_h147_t39
 p_r3_g34_h162_t39
 p_r3_g51_h12_t39
 p_r3_g72_h33_t39
 p_r3_g111_h72_t39
 p_r3_g144_h105_t39
 p_r3_g145_h106_t39
 p_r3_g162_h123_t39
 p_r0_g4_h102_t69
 p_r0_g20_h118_t69
 p_r0_g28_h126_t69
 p_r0_g46_h144_t69
 p_r0_g97_h28_t69
 p_r0_g129_h60_t69
 p_r0_g131_h62_t69
 p_r0_g137_h68_t69
 p_r0_g153_h84_t69
 p_r0_g162_h93_t69
 p_r1_g13_h111_t69
 p_r1_g15_h113_t69
 p_r1_g23_h121_t69
 p_r1_g59_h157_t69
 p_r1_g62_h160_t69
 p_r1_g64_h162_t69
 p_r1_g80_h11_t69
 p_r1_g110_h41_t69
 p_r1_g113_h44_t69
 p_r1_g128_h59_t69
 p_r1_g162_h93_t69
 p_r2_g30_h128_t69
 p_r2_g48_h146_t69
 p_r2_g54_h152_t69
 p_r2_g60_h158_t69
 p_r2_g64_h162_t69
 p_r2_g131_h62_t69
 p_r2_g133_h64_t69
 p_r2_g139_h70_t69
 p_r2_g142_h73_t69
 p_r2_g143_h74_t69
 p_r2_g146_h77_t69
 p_r2_g149_h80_t69
 p_r2_g155_h86_t69
 p_r3_g7_h105_t69
 p_r3_g8_h106_t69
 p_r3_g13_h111_t69
 p_r3_g15_h113_t69
 p_r3_g25_h123_t69
 p_r3_g72_h3_t69
 p_r3_g94_h25_t69
 p_r3_g103_h34_t69
 p_r3_g105_h36_t69
 p_r3_g141_h72_t69
 p_r0_g35_h129_t73
 p_r0_g37_h131_t73
 p_r0_g68_h162_t73
 p_r0_g93_h20_t73
 p_r0_g143_h70_t73
 p_r1_g17_h111_t73
 p_r1_g23_h117_t73
 p_r1_g41_h135_t73
 p_r1_g59_h153_t73
 p_r1_g67_h161_t73
 p_r1_g96_h23_t73
 p_r1_g111_h38_t73
 p_r1_g114_h41_t73
 p_r1_g117_h44_t73
 p_r1_g135_h62_t73
 p_r1_g153_h80_t73
 p_r2_g48_h142_t73
 p_r2_g64_h158_t73
 p_r2_g91_h18_t73
 p_r2_g102_h29_t73
 p_r2_g133_h60_t73
 p_r2_g139_h66_t73
 p_r2_g143_h70_t73
 p_r2_g146_h73_t73
 p_r2_g159_h86_t73
 p_r3_g9_h103_t73
 p_r3_g11_h105_t73
 p_r3_g12_h106_t73
 p_r3_g19_h113_t73
 p_r3_g24_h118_t73
 p_r3_g27_h121_t73
 p_r3_g34_h128_t73
 p_r3_g51_h145_t73
 p_r3_g53_h147_t73
 p_r3_g106_h33_t73
 p_r3_g124_h51_t73
 p_r3_g145_h72_t73
Generals
 d_1
 d_2
 d_3
 d_4
 d_7
 d_18
 d_19
 d_21
 d_29
 d_39
 d_69
 d_73
 u_1
 u_2
 u_3
 u_4
 u_7
 u_18
 u_19
 u_21
 u_29
 u_39
 u_69
 u_73
 M
 F
End
