* #variable= 1099 #constraint= 2795
* int d_3 d_5 d_8 d_9 d_12 d_21 d_27 d_29 d_34 d_36 d_39 d_40 d_42 d_44 d_47 d_50 d_56 d_64 d_67 d_70 d_71 d_75 d_80 u_3 u_5 u_8 u_9 u_12 u_21 u_27 u_29 u_34 u_36 u_39 u_40 u_42 u_44 u_47 u_50 u_56 u_64 u_67 u_70 u_71 u_75 u_80 M F ;
min: 1 M ;
1 x_r0_g1 1 x_r0_g4 1 x_r0_g5 1 x_r0_g7 1 x_r0_g11 1 x_r0_g12 1 x_r0_g15 1 x_r0_g19 1 x_r0_g24 1 x_r0_g34 1 x_r0_g39 1 x_r0_g47 1 x_r0_g53 1 x_r0_g56 1 x_r0_g57 1 x_r0_g65 1 x_r0_g66 1 x_r0_g69 1 x_r0_g72 1 x_r0_g74 1 x_r0_g79 1 x_r0_g85 1 x_r0_g89 1 x_r0_g91 1 x_r0_g93 1 x_r0_g103 1 x_r0_g106 1 x_r0_g108 1 x_r0_g112 1 x_r0_g119 1 x_r0_g124 1 x_r0_g126 1 x_r0_g135 1 x_r0_g136 1 x_r0_g142 1 x_r0_g143 1 x_r0_g146 1 x_r0_g150 1 x_r0_g159 1 x_r0_g163 = 20 ;
1 x_r1_g1 1 x_r1_g5 1 x_r1_g6 1 x_r1_g21 1 x_r1_g23 1 x_r1_g29 1 x_r1_g34 1 x_r1_g36 1 x_r1_g40 1 x_r1_g42 1 x_r1_g43 1 x_r1_g48 1 x_r1_g50 1 x_r1_g56 1 x_r1_g60 1 x_r1_g61 1 x_r1_g64 1 x_r1_g68 1 x_r1_g69 1 x_r1_g74 1 x_r1_g76 1 x_r1_g77 1 x_r1_g82 1 x_r1_g84 1 x_r1_g88 1 x_r1_g98 1 x_r1_g99 1 x_r1_g104 1 x_r1_g109 1 x_r1_g124 1 x_r1_g127 1 x_r1_g129 1 x_r1_g138 1 x_r1_g141 1 x_r1_g145 1 x_r1_g148 1 x_r1_g155 1 x_r1_g161 1 x_r1_g162 1 x_r1_g163 = 20 ;
1 x_r2_g13 1 x_r2_g15 1 x_r2_g21 1 x_r2_g27 1 x_r2_g30 1 x_r2_g32 1 x_r2_g34 1 x_r2_g35 1 x_r2_g40 1 x_r2_g45 1 x_r2_g51 1 x_r2_g52 1 x_r2_g53 1 x_r2_g58 1 x_r2_g61 1 x_r2_g73 1 x_r2_g74 1 x_r2_g83 1 x_r2_g85 1 x_r2_g91 1 x_r2_g93 1 x_r2_g101 1 x_r2_g103 1 x_r2_g104 1 x_r2_g105 1 x_r2_g106 1 x_r2_g111 1 x_r2_g112 1 x_r2_g118 1 x_r2_g119 1 x_r2_g124 1 x_r2_g130 1 x_r2_g133 1 x_r2_g135 1 x_r2_g139 1 x_r2_g141 1 x_r2_g147 1 x_r2_g157 1 x_r2_g161 1 x_r2_g162 = 20 ;
1 x_r3_g5 1 x_r3_g17 1 x_r3_g21 1 x_r3_g22 1 x_r3_g23 1 x_r3_g24 1 x_r3_g25 1 x_r3_g26 1 x_r3_g31 1 x_r3_g34 1 x_r3_g38 1 x_r3_g39 1 x_r3_g42 1 x_r3_g51 1 x_r3_g53 1 x_r3_g60 1 x_r3_g62 1 x_r3_g66 1 x_r3_g68 1 x_r3_g69 1 x_r3_g73 1 x_r3_g83 1 x_r3_g87 1 x_r3_g89 1 x_r3_g90 1 x_r3_g96 1 x_r3_g100 1 x_r3_g117 1 x_r3_g118 1 x_r3_g124 1 x_r3_g125 1 x_r3_g137 1 x_r3_g149 1 x_r3_g151 1 x_r3_g153 1 x_r3_g154 1 x_r3_g156 1 x_r3_g158 1 x_r3_g161 1 x_r3_g166 = 20 ;
1 p_r0_g4_h1_t3 -1 x_r0_g4 <= 0 ;
1 p_r0_g4_h1_t3 -1 x_r0_g1 <= 0 ;
1 p_r0_g4_h1_t3 -1 x_r0_g4 -1 x_r0_g1 >= -1 ;
1 p_r0_g7_h4_t3 -1 x_r0_g7 <= 0 ;
1 p_r0_g7_h4_t3 -1 x_r0_g4 <= 0 ;
1 p_r0_g7_h4_t3 -1 x_r0_g7 -1 x_r0_g4 >= -1 ;
1 p_r0_g15_h12_t3 -1 x_r0_g15 <= 0 ;
1 p_r0_g15_h12_t3 -1 x_r0_g12 <= 0 ;
1 p_r0_g15_h12_t3 -1 x_r0_g15 -1 x_r0_g12 >= -1 ;
1 p_r0_g56_h53_t3 -1 x_r0_g56 <= 0 ;
1 p_r0_g56_h53_t3 -1 x_r0_g53 <= 0 ;
1 p_r0_g56_h53_t3 -1 x_r0_g56 -1 x_r0_g53 >= -1 ;
1 p_r0_g69_h66_t3 -1 x_r0_g69 <= 0 ;
1 p_r0_g69_h66_t3 -1 x_r0_g66 <= 0 ;
1 p_r0_g69_h66_t3 -1 x_r0_g69 -1 x_r0_g66 >= -1 ;
1 p_r0_g72_h69_t3 -1 x_r0_g72 <= 0 ;
1 p_r0_g72_h69_t3 -1 x_r0_g69 <= 0 ;
1 p_r0_g72_h69_t3 -1 x_r0_g72 -1 x_r0_g69 >= -1 ;
1 p_r0_g106_h103_t3 -1 x_r0_g106 <= 0 ;
1 p_r0_g106_h103_t3 -1 x_r0_g103 <= 0 ;
1 p_r0_g106_h103_t3 -1 x_r0_g106 -1 x_r0_g103 >= -1 ;
1 p_r0_g146_h143_t3 -1 x_r0_g146 <= 0 ;
1 p_r0_g146_h143_t3 -1 x_r0_g143 <= 0 ;
1 p_r0_g146_h143_t3 -1 x_r0_g146 -1 x_r0_g143 >= -1 ;
1 p_r1_g43_h40_t3 -1 x_r1_g43 <= 0 ;
1 p_r1_g43_h40_t3 -1 x_r1_g40 <= 0 ;
1 p_r1_g43_h40_t3 -1 x_r1_g43 -1 x_r1_g40 >= -1 ;
1 p_r1_g64_h61_t3 -1 x_r1_g64 <= 0 ;
1 p_r1_g64_h61_t3 -1 x_r1_g61 <= 0 ;
1 p_r1_g64_h61_t3 -1 x_r1_g64 -1 x_r1_g61 >= -1 ;
1 p_r1_g77_h74_t3 -1 x_r1_g77 <= 0 ;
1 p_r1_g77_h74_t3 -1 x_r1_g74 <= 0 ;
1 p_r1_g77_h74_t3 -1 x_r1_g77 -1 x_r1_g74 >= -1 ;
1 p_r1_g127_h124_t3 -1 x_r1_g127 <= 0 ;
1 p_r1_g127_h124_t3 -1 x_r1_g124 <= 0 ;
1 p_r1_g127_h124_t3 -1 x_r1_g127 -1 x_r1_g124 >= -1 ;
1 p_r1_g141_h138_t3 -1 x_r1_g141 <= 0 ;
1 p_r1_g141_h138_t3 -1 x_r1_g138 <= 0 ;
1 p_r1_g141_h138_t3 -1 x_r1_g141 -1 x_r1_g138 >= -1 ;
1 p_r1_g148_h145_t3 -1 x_r1_g148 <= 0 ;
1 p_r1_g148_h145_t3 -1 x_r1_g145 <= 0 ;
1 p_r1_g148_h145_t3 -1 x_r1_g148 -1 x_r1_g145 >= -1 ;
1 p_r2_g30_h27_t3 -1 x_r2_g30 <= 0 ;
1 p_r2_g30_h27_t3 -1 x_r2_g27 <= 0 ;
1 p_r2_g30_h27_t3 -1 x_r2_g30 -1 x_r2_g27 >= -1 ;
1 p_r2_g35_h32_t3 -1 x_r2_g35 <= 0 ;
1 p_r2_g35_h32_t3 -1 x_r2_g32 <= 0 ;
1 p_r2_g35_h32_t3 -1 x_r2_g35 -1 x_r2_g32 >= -1 ;
1 p_r2_g61_h58_t3 -1 x_r2_g61 <= 0 ;
1 p_r2_g61_h58_t3 -1 x_r2_g58 <= 0 ;
1 p_r2_g61_h58_t3 -1 x_r2_g61 -1 x_r2_g58 >= -1 ;
1 p_r2_g104_h101_t3 -1 x_r2_g104 <= 0 ;
1 p_r2_g104_h101_t3 -1 x_r2_g101 <= 0 ;
1 p_r2_g104_h101_t3 -1 x_r2_g104 -1 x_r2_g101 >= -1 ;
1 p_r2_g106_h103_t3 -1 x_r2_g106 <= 0 ;
1 p_r2_g106_h103_t3 -1 x_r2_g103 <= 0 ;
1 p_r2_g106_h103_t3 -1 x_r2_g106 -1 x_r2_g103 >= -1 ;
1 p_r2_g133_h130_t3 -1 x_r2_g133 <= 0 ;
1 p_r2_g133_h130_t3 -1 x_r2_g130 <= 0 ;
1 p_r2_g133_h130_t3 -1 x_r2_g133 -1 x_r2_g130 >= -1 ;
1 p_r3_g24_h21_t3 -1 x_r3_g24 <= 0 ;
1 p_r3_g24_h21_t3 -1 x_r3_g21 <= 0 ;
1 p_r3_g24_h21_t3 -1 x_r3_g24 -1 x_r3_g21 >= -1 ;
1 p_r3_g25_h22_t3 -1 x_r3_g25 <= 0 ;
1 p_r3_g25_h22_t3 -1 x_r3_g22 <= 0 ;
1 p_r3_g25_h22_t3 -1 x_r3_g25 -1 x_r3_g22 >= -1 ;
1 p_r3_g26_h23_t3 -1 x_r3_g26 <= 0 ;
1 p_r3_g26_h23_t3 -1 x_r3_g23 <= 0 ;
1 p_r3_g26_h23_t3 -1 x_r3_g26 -1 x_r3_g23 >= -1 ;
1 p_r3_g34_h31_t3 -1 x_r3_g34 <= 0 ;
1 p_r3_g34_h31_t3 -1 x_r3_g31 <= 0 ;
1 p_r3_g34_h31_t3 -1 x_r3_g34 -1 x_r3_g31 >= -1 ;
1 p_r3_g42_h39_t3 -1 x_r3_g42 <= 0 ;
1 p_r3_g42_h39_t3 -1 x_r3_g39 <= 0 ;
1 p_r3_g42_h39_t3 -1 x_r3_g42 -1 x_r3_g39 >= -1 ;
1 p_r3_g69_h66_t3 -1 x_r3_g69 <= 0 ;
1 p_r3_g69_h66_t3 -1 x_r3_g66 <= 0 ;
1 p_r3_g69_h66_t3 -1 x_r3_g69 -1 x_r3_g66 >= -1 ;
1 p_r3_g90_h87_t3 -1 x_r3_g90 <= 0 ;
1 p_r3_g90_h87_t3 -1 x_r3_g87 <= 0 ;
1 p_r3_g90_h87_t3 -1 x_r3_g90 -1 x_r3_g87 >= -1 ;
1 p_r3_g154_h151_t3 -1 x_r3_g154 <= 0 ;
1 p_r3_g154_h151_t3 -1 x_r3_g151 <= 0 ;
1 p_r3_g154_h151_t3 -1 x_r3_g154 -1 x_r3_g151 >= -1 ;
1 p_r3_g156_h153_t3 -1 x_r3_g156 <= 0 ;
1 p_r3_g156_h153_t3 -1 x_r3_g153 <= 0 ;
1 p_r3_g156_h153_t3 -1 x_r3_g156 -1 x_r3_g153 >= -1 ;
1 p_r3_g161_h158_t3 -1 x_r3_g161 <= 0 ;
1 p_r3_g161_h158_t3 -1 x_r3_g158 <= 0 ;
1 p_r3_g161_h158_t3 -1 x_r3_g161 -1 x_r3_g158 >= -1 ;
1 d_3 -1 x_r0_g1 -1 x_r0_g11 -1 x_r0_g34 -2 x_r0_g39 -1 x_r0_g56 -1 x_r0_g57 -2 x_r0_g65 -1 x_r0_g66 -1 x_r0_g74 -1 x_r0_g85 -1 x_r0_g91 -1 x_r0_g93 -1 x_r0_g103 -1 x_r0_g108 -2 x_r0_g119 -1 x_r0_g124 -1 x_r0_g126 -1 x_r0_g135 -1 x_r0_g136 -1 x_r0_g142 -1 x_r0_g146 -1 x_r0_g163 -1 x_r1_g6 -1 x_r1_g21 -2 x_r1_g23 -2 x_r1_g29 -2 x_r1_g34 -1 x_r1_g36 -1 x_r1_g40 -1 x_r1_g42 -1 x_r1_g43 -1 x_r1_g50 -1 x_r1_g56 -1 x_r1_g60 -1 x_r1_g68 -1 x_r1_g69 -1 x_r1_g76 -1 x_r1_g77 -1 x_r1_g82 -2 x_r1_g84 -1 x_r1_g88 -1 x_r1_g98 -1 x_r1_g99 -1 x_r1_g104 -1 x_r1_g109 -1 x_r1_g127 -1 x_r1_g129 -1 x_r1_g161 -1 x_r1_g162 -2 x_r1_g163 -1 x_r2_g15 -1 x_r2_g21 -1 x_r2_g30 -1 x_r2_g34 -1 x_r2_g40 -1 x_r2_g45 -1 x_r2_g51 -1 x_r2_g52 -1 x_r2_g53 -1 x_r2_g61 -2 x_r2_g83 -1 x_r2_g85 -1 x_r2_g91 -1 x_r2_g93 -1 x_r2_g101 -1 x_r2_g105 -1 x_r2_g111 -1 x_r2_g112 -2 x_r2_g118 -2 x_r2_g119 -2 x_r2_g124 -1 x_r2_g130 -1 x_r2_g133 -1 x_r2_g135 -1 x_r2_g139 -1 x_r2_g147 -1 x_r2_g157 -1 x_r2_g161 -1 x_r2_g162 -2 x_r3_g5 -1 x_r3_g17 -1 x_r3_g21 -1 x_r3_g22 -1 x_r3_g23 -1 x_r3_g24 -1 x_r3_g25 -1 x_r3_g31 -1 x_r3_g34 -1 x_r3_g38 -1 x_r3_g39 -1 x_r3_g42 -2 x_r3_g62 -1 x_r3_g68 -1 x_r3_g73 -2 x_r3_g83 -1 x_r3_g89 -1 x_r3_g96 -1 x_r3_g124 -2 x_r3_g125 -2 x_r3_g137 -1 x_r3_g149 -1 x_r3_g151 -2 x_r3_g166 -1 p_r0_g4_h1_t3 -1 p_r0_g7_h4_t3 -1 p_r0_g15_h12_t3 -1 p_r0_g56_h53_t3 -1 p_r0_g69_h66_t3 -1 p_r0_g72_h69_t3 -1 p_r0_g106_h103_t3 -1 p_r0_g146_h143_t3 -1 p_r1_g43_h40_t3 -1 p_r1_g64_h61_t3 -1 p_r1_g77_h74_t3 -1 p_r1_g127_h124_t3 -1 p_r1_g141_h138_t3 -1 p_r1_g148_h145_t3 -1 p_r2_g30_h27_t3 -1 p_r2_g35_h32_t3 -1 p_r2_g61_h58_t3 -1 p_r2_g104_h101_t3 -1 p_r2_g106_h103_t3 -1 p_r2_g133_h130_t3 -1 p_r3_g24_h21_t3 -1 p_r3_g25_h22_t3 -1 p_r3_g26_h23_t3 -1 p_r3_g34_h31_t3 -1 p_r3_g42_h39_t3 -1 p_r3_g69_h66_t3 -1 p_r3_g90_h87_t3 -1 p_r3_g154_h151_t3 -1 p_r3_g156_h153_t3 -1 p_r3_g161_h158_t3 = -76 ;
1 d_3 -1 u_3 <= 0 ;
-1 d_3 -1 u_3 <= 0 ;
1 u_3 -1 M <= 0 ;
1 u_3 <= 1 ;
1 p_r0_g1_h163_t5 -1 x_r0_g1 <= 0 ;
1 p_r0_g1_h163_t5 -1 x_r0_g163 <= 0 ;
1 p_r0_g1_h163_t5 -1 x_r0_g1 -1 x_r0_g163 >= -1 ;
1 p_r0_g12_h7_t5 -1 x_r0_g12 <= 0 ;
1 p_r0_g12_h7_t5 -1 x_r0_g7 <= 0 ;
1 p_r0_g12_h7_t5 -1 x_r0_g12 -1 x_r0_g7 >= -1 ;
1 p_r0_g24_h19_t5 -1 x_r0_g24 <= 0 ;
1 p_r0_g24_h19_t5 -1 x_r0_g19 <= 0 ;
1 p_r0_g24_h19_t5 -1 x_r0_g24 -1 x_r0_g19 >= -1 ;
1 p_r0_g39_h34_t5 -1 x_r0_g39 <= 0 ;
1 p_r0_g39_h34_t5 -1 x_r0_g34 <= 0 ;
1 p_r0_g39_h34_t5 -1 x_r0_g39 -1 x_r0_g34 >= -1 ;
1 p_r0_g74_h69_t5 -1 x_r0_g74 <= 0 ;
1 p_r0_g74_h69_t5 -1 x_r0_g69 <= 0 ;
1 p_r0_g74_h69_t5 -1 x_r0_g74 -1 x_r0_g69 >= -1 ;
1 p_r0_g79_h74_t5 -1 x_r0_g79 <= 0 ;
1 p_r0_g79_h74_t5 -1 x_r0_g74 <= 0 ;
1 p_r0_g79_h74_t5 -1 x_r0_g79 -1 x_r0_g74 >= -1 ;
1 p_r0_g108_h103_t5 -1 x_r0_g108 <= 0 ;
1 p_r0_g108_h103_t5 -1 x_r0_g103 <= 0 ;
1 p_r0_g108_h103_t5 -1 x_r0_g108 -1 x_r0_g103 >= -1 ;
1 p_r0_g124_h119_t5 -1 x_r0_g124 <= 0 ;
1 p_r0_g124_h119_t5 -1 x_r0_g119 <= 0 ;
1 p_r0_g124_h119_t5 -1 x_r0_g124 -1 x_r0_g119 >= -1 ;
1 p_r1_g1_h163_t5 -1 x_r1_g1 <= 0 ;
1 p_r1_g1_h163_t5 -1 x_r1_g163 <= 0 ;
1 p_r1_g1_h163_t5 -1 x_r1_g1 -1 x_r1_g163 >= -1 ;
1 p_r1_g6_h1_t5 -1 x_r1_g6 <= 0 ;
1 p_r1_g6_h1_t5 -1 x_r1_g1 <= 0 ;
1 p_r1_g6_h1_t5 -1 x_r1_g6 -1 x_r1_g1 >= -1 ;
1 p_r1_g34_h29_t5 -1 x_r1_g34 <= 0 ;
1 p_r1_g34_h29_t5 -1 x_r1_g29 <= 0 ;
1 p_r1_g34_h29_t5 -1 x_r1_g34 -1 x_r1_g29 >= -1 ;
1 p_r1_g48_h43_t5 -1 x_r1_g48 <= 0 ;
1 p_r1_g48_h43_t5 -1 x_r1_g43 <= 0 ;
1 p_r1_g48_h43_t5 -1 x_r1_g48 -1 x_r1_g43 >= -1 ;
1 p_r1_g61_h56_t5 -1 x_r1_g61 <= 0 ;
1 p_r1_g61_h56_t5 -1 x_r1_g56 <= 0 ;
1 p_r1_g61_h56_t5 -1 x_r1_g61 -1 x_r1_g56 >= -1 ;
1 p_r1_g69_h64_t5 -1 x_r1_g69 <= 0 ;
1 p_r1_g69_h64_t5 -1 x_r1_g64 <= 0 ;
1 p_r1_g69_h64_t5 -1 x_r1_g69 -1 x_r1_g64 >= -1 ;
1 p_r1_g74_h69_t5 -1 x_r1_g74 <= 0 ;
1 p_r1_g74_h69_t5 -1 x_r1_g69 <= 0 ;
1 p_r1_g74_h69_t5 -1 x_r1_g74 -1 x_r1_g69 >= -1 ;
1 p_r1_g82_h77_t5 -1 x_r1_g82 <= 0 ;
1 p_r1_g82_h77_t5 -1 x_r1_g77 <= 0 ;
1 p_r1_g82_h77_t5 -1 x_r1_g82 -1 x_r1_g77 >= -1 ;
1 p_r1_g104_h99_t5 -1 x_r1_g104 <= 0 ;
1 p_r1_g104_h99_t5 -1 x_r1_g99 <= 0 ;
1 p_r1_g104_h99_t5 -1 x_r1_g104 -1 x_r1_g99 >= -1 ;
1 p_r1_g109_h104_t5 -1 x_r1_g109 <= 0 ;
1 p_r1_g109_h104_t5 -1 x_r1_g104 <= 0 ;
1 p_r1_g109_h104_t5 -1 x_r1_g109 -1 x_r1_g104 >= -1 ;
1 p_r1_g129_h124_t5 -1 x_r1_g129 <= 0 ;
1 p_r1_g129_h124_t5 -1 x_r1_g124 <= 0 ;
1 p_r1_g129_h124_t5 -1 x_r1_g129 -1 x_r1_g124 >= -1 ;
1 p_r2_g32_h27_t5 -1 x_r2_g32 <= 0 ;
1 p_r2_g32_h27_t5 -1 x_r2_g27 <= 0 ;
1 p_r2_g32_h27_t5 -1 x_r2_g32 -1 x_r2_g27 >= -1 ;
1 p_r2_g35_h30_t5 -1 x_r2_g35 <= 0 ;
1 p_r2_g35_h30_t5 -1 x_r2_g30 <= 0 ;
1 p_r2_g35_h30_t5 -1 x_r2_g35 -1 x_r2_g30 >= -1 ;
1 p_r2_g40_h35_t5 -1 x_r2_g40 <= 0 ;
1 p_r2_g40_h35_t5 -1 x_r2_g35 <= 0 ;
1 p_r2_g40_h35_t5 -1 x_r2_g40 -1 x_r2_g35 >= -1 ;
1 p_r2_g45_h40_t5 -1 x_r2_g45 <= 0 ;
1 p_r2_g45_h40_t5 -1 x_r2_g40 <= 0 ;
1 p_r2_g45_h40_t5 -1 x_r2_g45 -1 x_r2_g40 >= -1 ;
1 p_r2_g58_h53_t5 -1 x_r2_g58 <= 0 ;
1 p_r2_g58_h53_t5 -1 x_r2_g53 <= 0 ;
1 p_r2_g58_h53_t5 -1 x_r2_g58 -1 x_r2_g53 >= -1 ;
1 p_r2_g106_h101_t5 -1 x_r2_g106 <= 0 ;
1 p_r2_g106_h101_t5 -1 x_r2_g101 <= 0 ;
1 p_r2_g106_h101_t5 -1 x_r2_g106 -1 x_r2_g101 >= -1 ;
1 p_r2_g111_h106_t5 -1 x_r2_g111 <= 0 ;
1 p_r2_g111_h106_t5 -1 x_r2_g106 <= 0 ;
1 p_r2_g111_h106_t5 -1 x_r2_g111 -1 x_r2_g106 >= -1 ;
1 p_r2_g124_h119_t5 -1 x_r2_g124 <= 0 ;
1 p_r2_g124_h119_t5 -1 x_r2_g119 <= 0 ;
1 p_r2_g124_h119_t5 -1 x_r2_g124 -1 x_r2_g119 >= -1 ;
1 p_r2_g135_h130_t5 -1 x_r2_g135 <= 0 ;
1 p_r2_g135_h130_t5 -1 x_r2_g130 <= 0 ;
1 p_r2_g135_h130_t5 -1 x_r2_g135 -1 x_r2_g130 >= -1 ;
1 p_r2_g162_h157_t5 -1 x_r2_g162 <= 0 ;
1 p_r2_g162_h157_t5 -1 x_r2_g157 <= 0 ;
1 p_r2_g162_h157_t5 -1 x_r2_g162 -1 x_r2_g157 >= -1 ;
1 p_r3_g22_h17_t5 -1 x_r3_g22 <= 0 ;
1 p_r3_g22_h17_t5 -1 x_r3_g17 <= 0 ;
1 p_r3_g22_h17_t5 -1 x_r3_g22 -1 x_r3_g17 >= -1 ;
1 p_r3_g26_h21_t5 -1 x_r3_g26 <= 0 ;
1 p_r3_g26_h21_t5 -1 x_r3_g21 <= 0 ;
1 p_r3_g26_h21_t5 -1 x_r3_g26 -1 x_r3_g21 >= -1 ;
1 p_r3_g31_h26_t5 -1 x_r3_g31 <= 0 ;
1 p_r3_g31_h26_t5 -1 x_r3_g26 <= 0 ;
1 p_r3_g31_h26_t5 -1 x_r3_g31 -1 x_r3_g26 >= -1 ;
1 p_r3_g39_h34_t5 -1 x_r3_g39 <= 0 ;
1 p_r3_g39_h34_t5 -1 x_r3_g34 <= 0 ;
1 p_r3_g39_h34_t5 -1 x_r3_g39 -1 x_r3_g34 >= -1 ;
1 p_r3_g73_h68_t5 -1 x_r3_g73 <= 0 ;
1 p_r3_g73_h68_t5 -1 x_r3_g68 <= 0 ;
1 p_r3_g73_h68_t5 -1 x_r3_g73 -1 x_r3_g68 >= -1 ;
1 p_r3_g154_h149_t5 -1 x_r3_g154 <= 0 ;
1 p_r3_g154_h149_t5 -1 x_r3_g149 <= 0 ;
1 p_r3_g154_h149_t5 -1 x_r3_g154 -1 x_r3_g149 >= -1 ;
1 p_r3_g156_h151_t5 -1 x_r3_g156 <= 0 ;
1 p_r3_g156_h151_t5 -1 x_r3_g151 <= 0 ;
1 p_r3_g156_h151_t5 -1 x_r3_g156 -1 x_r3_g151 >= -1 ;
1 p_r3_g158_h153_t5 -1 x_r3_g158 <= 0 ;
1 p_r3_g158_h153_t5 -1 x_r3_g153 <= 0 ;
1 p_r3_g158_h153_t5 -1 x_r3_g158 -1 x_r3_g153 >= -1 ;
1 p_r3_g161_h156_t5 -1 x_r3_g161 <= 0 ;
1 p_r3_g161_h156_t5 -1 x_r3_g156 <= 0 ;
1 p_r3_g161_h156_t5 -1 x_r3_g161 -1 x_r3_g156 >= -1 ;
1 p_r3_g166_h161_t5 -1 x_r3_g166 <= 0 ;
1 p_r3_g166_h161_t5 -1 x_r3_g161 <= 0 ;
1 p_r3_g166_h161_t5 -1 x_r3_g166 -1 x_r3_g161 >= -1 ;
1 d_5 -1 x_r0_g1 -1 x_r0_g11 -1 x_r0_g15 -1 x_r0_g19 -2 x_r0_g47 -2 x_r0_g53 -1 x_r0_g56 -2 x_r0_g57 -1 x_r0_g65 -2 x_r0_g72 -1 x_r0_g85 -2 x_r0_g93 -1 x_r0_g103 -2 x_r0_g106 -1 x_r0_g108 -1 x_r0_g126 -1 x_r0_g136 -1 x_r0_g142 -1 x_r0_g146 -1 x_r0_g150 -1 x_r0_g163 -1 x_r1_g5 -1 x_r1_g6 -1 x_r1_g21 -1 x_r1_g23 -1 x_r1_g34 -1 x_r1_g36 -1 x_r1_g42 -1 x_r1_g43 -1 x_r1_g48 -1 x_r1_g60 -1 x_r1_g61 -1 x_r1_g74 -1 x_r1_g76 -1 x_r1_g82 -2 x_r1_g84 -1 x_r1_g98 -1 x_r1_g109 -1 x_r1_g124 -1 x_r1_g127 -1 x_r1_g141 -1 x_r1_g145 -1 x_r1_g155 -2 x_r1_g161 -1 x_r1_g162 -1 x_r2_g13 -1 x_r2_g15 -1 x_r2_g21 -1 x_r2_g30 -1 x_r2_g34 -2 x_r2_g51 -1 x_r2_g53 -1 x_r2_g58 -1 x_r2_g61 -2 x_r2_g73 -1 x_r2_g83 -2 x_r2_g85 -1 x_r2_g91 -1 x_r2_g93 -1 x_r2_g103 -1 x_r2_g105 -1 x_r2_g111 -1 x_r2_g118 -1 x_r2_g119 -1 x_r2_g124 -1 x_r2_g133 -1 x_r2_g135 -1 x_r2_g139 -1 x_r2_g141 -1 x_r2_g147 -1 x_r2_g157 -1 x_r2_g162 -1 x_r3_g17 -1 x_r3_g22 -2 x_r3_g23 -1 x_r3_g24 -2 x_r3_g25 -1 x_r3_g31 -1 x_r3_g38 -2 x_r3_g42 -1 x_r3_g51 -2 x_r3_g60 -1 x_r3_g66 -1 x_r3_g69 -1 x_r3_g73 -1 x_r3_g83 -1 x_r3_g89 -2 x_r3_g117 -1 x_r3_g118 -2 x_r3_g124 -1 x_r3_g137 -1 x_r3_g149 -1 x_r3_g151 -1 x_r3_g153 -1 x_r3_g158 -1 x_r3_g166 -1 p_r0_g1_h163_t5 -1 p_r0_g12_h7_t5 -1 p_r0_g24_h19_t5 -1 p_r0_g39_h34_t5 -1 p_r0_g74_h69_t5 -1 p_r0_g79_h74_t5 -1 p_r0_g108_h103_t5 -1 p_r0_g124_h119_t5 -1 p_r1_g1_h163_t5 -1 p_r1_g6_h1_t5 -1 p_r1_g34_h29_t5 -1 p_r1_g48_h43_t5 -1 p_r1_g61_h56_t5 -1 p_r1_g69_h64_t5 -1 p_r1_g74_h69_t5 -1 p_r1_g82_h77_t5 -1 p_r1_g104_h99_t5 -1 p_r1_g109_h104_t5 -1 p_r1_g129_h124_t5 -1 p_r2_g32_h27_t5 -1 p_r2_g35_h30_t5 -1 p_r2_g40_h35_t5 -1 p_r2_g45_h40_t5 -1 p_r2_g58_h53_t5 -1 p_r2_g106_h101_t5 -1 p_r2_g111_h106_t5 -1 p_r2_g124_h119_t5 -1 p_r2_g135_h130_t5 -1 p_r2_g162_h157_t5 -1 p_r3_g22_h17_t5 -1 p_r3_g26_h21_t5 -1 p_r3_g31_h26_t5 -1 p_r3_g39_h34_t5 -1 p_r3_g73_h68_t5 -1 p_r3_g154_h149_t5 -1 p_r3_g156_h151_t5 -1 p_r3_g158_h153_t5 -1 p_r3_g161_h156_t5 -1 p_r3_g166_h161_t5 = -58 ;
1 d_5 -1 u_5 <= 0 ;
-1 d_5 -1 u_5 <= 0 ;
1 u_5 -1 M <= 0 ;
1 u_5 <= 2 ;
1 p_r0_g4_h163_t8 -1 x_r0_g4 <= 0 ;
1 p_r0_g4_h163_t8 -1 x_r0_g163 <= 0 ;
1 p_r0_g4_h163_t8 -1 x_r0_g4 -1 x_r0_g163 >= -1 ;
1 p_r0_g12_h4_t8 -1 x_r0_g12 <= 0 ;
1 p_r0_g12_h4_t8 -1 x_r0_g4 <= 0 ;
1 p_r0_g12_h4_t8 -1 x_r0_g12 -1 x_r0_g4 >= -1 ;
1 p_r0_g15_h7_t8 -1 x_r0_g15 <= 0 ;
1 p_r0_g15_h7_t8 -1 x_r0_g7 <= 0 ;
1 p_r0_g15_h7_t8 -1 x_r0_g15 -1 x_r0_g7 >= -1 ;
1 p_r0_g19_h11_t8 -1 x_r0_g19 <= 0 ;
1 p_r0_g19_h11_t8 -1 x_r0_g11 <= 0 ;
1 p_r0_g19_h11_t8 -1 x_r0_g19 -1 x_r0_g11 >= -1 ;
1 p_r0_g47_h39_t8 -1 x_r0_g47 <= 0 ;
1 p_r0_g47_h39_t8 -1 x_r0_g39 <= 0 ;
1 p_r0_g47_h39_t8 -1 x_r0_g47 -1 x_r0_g39 >= -1 ;
1 p_r0_g65_h57_t8 -1 x_r0_g65 <= 0 ;
1 p_r0_g65_h57_t8 -1 x_r0_g57 <= 0 ;
1 p_r0_g65_h57_t8 -1 x_r0_g65 -1 x_r0_g57 >= -1 ;
1 p_r0_g74_h66_t8 -1 x_r0_g74 <= 0 ;
1 p_r0_g74_h66_t8 -1 x_r0_g66 <= 0 ;
1 p_r0_g74_h66_t8 -1 x_r0_g74 -1 x_r0_g66 >= -1 ;
1 p_r0_g93_h85_t8 -1 x_r0_g93 <= 0 ;
1 p_r0_g93_h85_t8 -1 x_r0_g85 <= 0 ;
1 p_r0_g93_h85_t8 -1 x_r0_g93 -1 x_r0_g85 >= -1 ;
1 p_r0_g143_h135_t8 -1 x_r0_g143 <= 0 ;
1 p_r0_g143_h135_t8 -1 x_r0_g135 <= 0 ;
1 p_r0_g143_h135_t8 -1 x_r0_g143 -1 x_r0_g135 >= -1 ;
1 p_r0_g150_h142_t8 -1 x_r0_g150 <= 0 ;
1 p_r0_g150_h142_t8 -1 x_r0_g142 <= 0 ;
1 p_r0_g150_h142_t8 -1 x_r0_g150 -1 x_r0_g142 >= -1 ;
1 p_r1_g29_h21_t8 -1 x_r1_g29 <= 0 ;
1 p_r1_g29_h21_t8 -1 x_r1_g21 <= 0 ;
1 p_r1_g29_h21_t8 -1 x_r1_g29 -1 x_r1_g21 >= -1 ;
1 p_r1_g42_h34_t8 -1 x_r1_g42 <= 0 ;
1 p_r1_g42_h34_t8 -1 x_r1_g34 <= 0 ;
1 p_r1_g42_h34_t8 -1 x_r1_g42 -1 x_r1_g34 >= -1 ;
1 p_r1_g48_h40_t8 -1 x_r1_g48 <= 0 ;
1 p_r1_g48_h40_t8 -1 x_r1_g40 <= 0 ;
1 p_r1_g48_h40_t8 -1 x_r1_g48 -1 x_r1_g40 >= -1 ;
1 p_r1_g50_h42_t8 -1 x_r1_g50 <= 0 ;
1 p_r1_g50_h42_t8 -1 x_r1_g42 <= 0 ;
1 p_r1_g50_h42_t8 -1 x_r1_g50 -1 x_r1_g42 >= -1 ;
1 p_r1_g56_h48_t8 -1 x_r1_g56 <= 0 ;
1 p_r1_g56_h48_t8 -1 x_r1_g48 <= 0 ;
1 p_r1_g56_h48_t8 -1 x_r1_g56 -1 x_r1_g48 >= -1 ;
1 p_r1_g64_h56_t8 -1 x_r1_g64 <= 0 ;
1 p_r1_g64_h56_t8 -1 x_r1_g56 <= 0 ;
1 p_r1_g64_h56_t8 -1 x_r1_g64 -1 x_r1_g56 >= -1 ;
1 p_r1_g68_h60_t8 -1 x_r1_g68 <= 0 ;
1 p_r1_g68_h60_t8 -1 x_r1_g60 <= 0 ;
1 p_r1_g68_h60_t8 -1 x_r1_g68 -1 x_r1_g60 >= -1 ;
1 p_r1_g69_h61_t8 -1 x_r1_g69 <= 0 ;
1 p_r1_g69_h61_t8 -1 x_r1_g61 <= 0 ;
1 p_r1_g69_h61_t8 -1 x_r1_g69 -1 x_r1_g61 >= -1 ;
1 p_r1_g76_h68_t8 -1 x_r1_g76 <= 0 ;
1 p_r1_g76_h68_t8 -1 x_r1_g68 <= 0 ;
1 p_r1_g76_h68_t8 -1 x_r1_g76 -1 x_r1_g68 >= -1 ;
1 p_r1_g77_h69_t8 -1 x_r1_g77 <= 0 ;
1 p_r1_g77_h69_t8 -1 x_r1_g69 <= 0 ;
1 p_r1_g77_h69_t8 -1 x_r1_g77 -1 x_r1_g69 >= -1 ;
1 p_r1_g82_h74_t8 -1 x_r1_g82 <= 0 ;
1 p_r1_g82_h74_t8 -1 x_r1_g74 <= 0 ;
1 p_r1_g82_h74_t8 -1 x_r1_g82 -1 x_r1_g74 >= -1 ;
1 p_r1_g84_h76_t8 -1 x_r1_g84 <= 0 ;
1 p_r1_g84_h76_t8 -1 x_r1_g76 <= 0 ;
1 p_r1_g84_h76_t8 -1 x_r1_g84 -1 x_r1_g76 >= -1 ;
1 p_r1_g163_h155_t8 -1 x_r1_g163 <= 0 ;
1 p_r1_g163_h155_t8 -1 x_r1_g155 <= 0 ;
1 p_r1_g163_h155_t8 -1 x_r1_g163 -1 x_r1_g155 >= -1 ;
1 p_r2_g21_h13_t8 -1 x_r2_g21 <= 0 ;
1 p_r2_g21_h13_t8 -1 x_r2_g13 <= 0 ;
1 p_r2_g21_h13_t8 -1 x_r2_g21 -1 x_r2_g13 >= -1 ;
1 p_r2_g35_h27_t8 -1 x_r2_g35 <= 0 ;
1 p_r2_g35_h27_t8 -1 x_r2_g27 <= 0 ;
1 p_r2_g35_h27_t8 -1 x_r2_g35 -1 x_r2_g27 >= -1 ;
1 p_r2_g40_h32_t8 -1 x_r2_g40 <= 0 ;
1 p_r2_g40_h32_t8 -1 x_r2_g32 <= 0 ;
1 p_r2_g40_h32_t8 -1 x_r2_g40 -1 x_r2_g32 >= -1 ;
1 p_r2_g53_h45_t8 -1 x_r2_g53 <= 0 ;
1 p_r2_g53_h45_t8 -1 x_r2_g45 <= 0 ;
1 p_r2_g53_h45_t8 -1 x_r2_g53 -1 x_r2_g45 >= -1 ;
1 p_r2_g61_h53_t8 -1 x_r2_g61 <= 0 ;
1 p_r2_g61_h53_t8 -1 x_r2_g53 <= 0 ;
1 p_r2_g61_h53_t8 -1 x_r2_g61 -1 x_r2_g53 >= -1 ;
1 p_r2_g91_h83_t8 -1 x_r2_g91 <= 0 ;
1 p_r2_g91_h83_t8 -1 x_r2_g83 <= 0 ;
1 p_r2_g91_h83_t8 -1 x_r2_g91 -1 x_r2_g83 >= -1 ;
1 p_r2_g93_h85_t8 -1 x_r2_g93 <= 0 ;
1 p_r2_g93_h85_t8 -1 x_r2_g85 <= 0 ;
1 p_r2_g93_h85_t8 -1 x_r2_g93 -1 x_r2_g85 >= -1 ;
1 p_r2_g101_h93_t8 -1 x_r2_g101 <= 0 ;
1 p_r2_g101_h93_t8 -1 x_r2_g93 <= 0 ;
1 p_r2_g101_h93_t8 -1 x_r2_g101 -1 x_r2_g93 >= -1 ;
1 p_r2_g111_h103_t8 -1 x_r2_g111 <= 0 ;
1 p_r2_g111_h103_t8 -1 x_r2_g103 <= 0 ;
1 p_r2_g111_h103_t8 -1 x_r2_g111 -1 x_r2_g103 >= -1 ;
1 p_r2_g112_h104_t8 -1 x_r2_g112 <= 0 ;
1 p_r2_g112_h104_t8 -1 x_r2_g104 <= 0 ;
1 p_r2_g112_h104_t8 -1 x_r2_g112 -1 x_r2_g104 >= -1 ;
1 p_r2_g119_h111_t8 -1 x_r2_g119 <= 0 ;
1 p_r2_g119_h111_t8 -1 x_r2_g111 <= 0 ;
1 p_r2_g119_h111_t8 -1 x_r2_g119 -1 x_r2_g111 >= -1 ;
1 p_r2_g141_h133_t8 -1 x_r2_g141 <= 0 ;
1 p_r2_g141_h133_t8 -1 x_r2_g133 <= 0 ;
1 p_r2_g141_h133_t8 -1 x_r2_g141 -1 x_r2_g133 >= -1 ;
1 p_r2_g147_h139_t8 -1 x_r2_g147 <= 0 ;
1 p_r2_g147_h139_t8 -1 x_r2_g139 <= 0 ;
1 p_r2_g147_h139_t8 -1 x_r2_g147 -1 x_r2_g139 >= -1 ;
1 p_r3_g25_h17_t8 -1 x_r3_g25 <= 0 ;
1 p_r3_g25_h17_t8 -1 x_r3_g17 <= 0 ;
1 p_r3_g25_h17_t8 -1 x_r3_g25 -1 x_r3_g17 >= -1 ;
1 p_r3_g31_h23_t8 -1 x_r3_g31 <= 0 ;
1 p_r3_g31_h23_t8 -1 x_r3_g23 <= 0 ;
1 p_r3_g31_h23_t8 -1 x_r3_g31 -1 x_r3_g23 >= -1 ;
1 p_r3_g34_h26_t8 -1 x_r3_g34 <= 0 ;
1 p_r3_g34_h26_t8 -1 x_r3_g26 <= 0 ;
1 p_r3_g34_h26_t8 -1 x_r3_g34 -1 x_r3_g26 >= -1 ;
1 p_r3_g39_h31_t8 -1 x_r3_g39 <= 0 ;
1 p_r3_g39_h31_t8 -1 x_r3_g31 <= 0 ;
1 p_r3_g39_h31_t8 -1 x_r3_g39 -1 x_r3_g31 >= -1 ;
1 p_r3_g42_h34_t8 -1 x_r3_g42 <= 0 ;
1 p_r3_g42_h34_t8 -1 x_r3_g34 <= 0 ;
1 p_r3_g42_h34_t8 -1 x_r3_g42 -1 x_r3_g34 >= -1 ;
1 p_r3_g68_h60_t8 -1 x_r3_g68 <= 0 ;
1 p_r3_g68_h60_t8 -1 x_r3_g60 <= 0 ;
1 p_r3_g68_h60_t8 -1 x_r3_g68 -1 x_r3_g60 >= -1 ;
1 p_r3_g125_h117_t8 -1 x_r3_g125 <= 0 ;
1 p_r3_g125_h117_t8 -1 x_r3_g117 <= 0 ;
1 p_r3_g125_h117_t8 -1 x_r3_g125 -1 x_r3_g117 >= -1 ;
1 p_r3_g161_h153_t8 -1 x_r3_g161 <= 0 ;
1 p_r3_g161_h153_t8 -1 x_r3_g153 <= 0 ;
1 p_r3_g161_h153_t8 -1 x_r3_g161 -1 x_r3_g153 >= -1 ;
1 p_r3_g166_h158_t8 -1 x_r3_g166 <= 0 ;
1 p_r3_g166_h158_t8 -1 x_r3_g158 <= 0 ;
1 p_r3_g166_h158_t8 -1 x_r3_g166 -1 x_r3_g158 >= -1 ;
1 d_8 -1 x_r0_g1 -1 x_r0_g5 -1 x_r0_g11 -1 x_r0_g12 -1 x_r0_g34 -1 x_r0_g47 -1 x_r0_g53 -1 x_r0_g56 -1 x_r0_g57 -1 x_r0_g66 -1 x_r0_g69 -1 x_r0_g85 -1 x_r0_g93 -1 x_r0_g103 -1 x_r0_g106 -2 x_r0_g108 -1 x_r0_g112 -2 x_r0_g119 -2 x_r0_g124 -1 x_r0_g126 -1 x_r0_g135 -1 x_r0_g143 -1 x_r0_g150 -1 x_r0_g159 -1 x_r0_g163 -1 x_r1_g1 -1 x_r1_g5 -2 x_r1_g23 -1 x_r1_g29 -1 x_r1_g34 -1 x_r1_g36 -1 x_r1_g40 -1 x_r1_g61 -1 x_r1_g74 -1 x_r1_g82 -2 x_r1_g88 -1 x_r1_g98 -2 x_r1_g99 -2 x_r1_g104 -1 x_r1_g124 -1 x_r1_g127 -2 x_r1_g138 -2 x_r1_g148 -2 x_r1_g162 -1 x_r2_g15 -1 x_r2_g34 -1 x_r2_g35 -1 x_r2_g40 -1 x_r2_g51 -1 x_r2_g52 -1 x_r2_g73 -1 x_r2_g74 -1 x_r2_g83 -1 x_r2_g105 -2 x_r2_g106 -1 x_r2_g112 -2 x_r2_g118 -1 x_r2_g119 -2 x_r2_g124 -1 x_r2_g130 -1 x_r2_g135 -1 x_r2_g157 -1 x_r2_g161 -1 x_r3_g5 -1 x_r3_g17 -1 x_r3_g21 -1 x_r3_g22 -1 x_r3_g24 -1 x_r3_g26 -2 x_r3_g38 -1 x_r3_g39 -2 x_r3_g51 -2 x_r3_g53 -1 x_r3_g66 -1 x_r3_g68 -1 x_r3_g69 -2 x_r3_g73 -1 x_r3_g83 -1 x_r3_g89 -1 x_r3_g90 -1 x_r3_g100 -1 x_r3_g118 -2 x_r3_g137 -1 x_r3_g151 -1 x_r3_g153 -2 x_r3_g154 -1 x_r3_g156 -1 x_r3_g161 -1 p_r0_g4_h163_t8 -1 p_r0_g12_h4_t8 -1 p_r0_g15_h7_t8 -1 p_r0_g19_h11_t8 -1 p_r0_g47_h39_t8 -1 p_r0_g65_h57_t8 -1 p_r0_g74_h66_t8 -1 p_r0_g93_h85_t8 -1 p_r0_g143_h135_t8 -1 p_r0_g150_h142_t8 -1 p_r1_g29_h21_t8 -1 p_r1_g42_h34_t8 -1 p_r1_g48_h40_t8 -1 p_r1_g50_h42_t8 -1 p_r1_g56_h48_t8 -1 p_r1_g64_h56_t8 -1 p_r1_g68_h60_t8 -1 p_r1_g69_h61_t8 -1 p_r1_g76_h68_t8 -1 p_r1_g77_h69_t8 -1 p_r1_g82_h74_t8 -1 p_r1_g84_h76_t8 -1 p_r1_g163_h155_t8 -1 p_r2_g21_h13_t8 -1 p_r2_g35_h27_t8 -1 p_r2_g40_h32_t8 -1 p_r2_g53_h45_t8 -1 p_r2_g61_h53_t8 -1 p_r2_g91_h83_t8 -1 p_r2_g93_h85_t8 -1 p_r2_g101_h93_t8 -1 p_r2_g111_h103_t8 -1 p_r2_g112_h104_t8 -1 p_r2_g119_h111_t8 -1 p_r2_g141_h133_t8 -1 p_r2_g147_h139_t8 -1 p_r3_g25_h17_t8 -1 p_r3_g31_h23_t8 -1 p_r3_g34_h26_t8 -1 p_r3_g39_h31_t8 -1 p_r3_g42_h34_t8 -1 p_r3_g68_h60_t8 -1 p_r3_g125_h117_t8 -1 p_r3_g161_h153_t8 -1 p_r3_g166_h158_t8 = -58 ;
1 d_8 -1 u_8 <= 0 ;
-1 d_8 -1 u_8 <= 0 ;
1 u_8 -1 M <= 0 ;
1 u_8 <= 1 ;
1 p_r0_g1_h159_t9 -1 x_r0_g1 <= 0 ;
1 p_r0_g1_h159_t9 -1 x_r0_g159 <= 0 ;
1 p_r0_g1_h159_t9 -1 x_r0_g1 -1 x_r0_g159 >= -1 ;
1 p_r0_g5_h163_t9 -1 x_r0_g5 <= 0 ;
1 p_r0_g5_h163_t9 -1 x_r0_g163 <= 0 ;
1 p_r0_g5_h163_t9 -1 x_r0_g5 -1 x_r0_g163 >= -1 ;
1 p_r0_g24_h15_t9 -1 x_r0_g24 <= 0 ;
1 p_r0_g24_h15_t9 -1 x_r0_g15 <= 0 ;
1 p_r0_g24_h15_t9 -1 x_r0_g24 -1 x_r0_g15 >= -1 ;
1 p_r0_g56_h47_t9 -1 x_r0_g56 <= 0 ;
1 p_r0_g56_h47_t9 -1 x_r0_g47 <= 0 ;
1 p_r0_g56_h47_t9 -1 x_r0_g56 -1 x_r0_g47 >= -1 ;
1 p_r0_g65_h56_t9 -1 x_r0_g65 <= 0 ;
1 p_r0_g65_h56_t9 -1 x_r0_g56 <= 0 ;
1 p_r0_g65_h56_t9 -1 x_r0_g65 -1 x_r0_g56 >= -1 ;
1 p_r0_g66_h57_t9 -1 x_r0_g66 <= 0 ;
1 p_r0_g66_h57_t9 -1 x_r0_g57 <= 0 ;
1 p_r0_g66_h57_t9 -1 x_r0_g66 -1 x_r0_g57 >= -1 ;
1 p_r0_g74_h65_t9 -1 x_r0_g74 <= 0 ;
1 p_r0_g74_h65_t9 -1 x_r0_g65 <= 0 ;
1 p_r0_g74_h65_t9 -1 x_r0_g74 -1 x_r0_g65 >= -1 ;
1 p_r0_g112_h103_t9 -1 x_r0_g112 <= 0 ;
1 p_r0_g112_h103_t9 -1 x_r0_g103 <= 0 ;
1 p_r0_g112_h103_t9 -1 x_r0_g112 -1 x_r0_g103 >= -1 ;
1 p_r0_g135_h126_t9 -1 x_r0_g135 <= 0 ;
1 p_r0_g135_h126_t9 -1 x_r0_g126 <= 0 ;
1 p_r0_g135_h126_t9 -1 x_r0_g135 -1 x_r0_g126 >= -1 ;
1 p_r0_g159_h150_t9 -1 x_r0_g159 <= 0 ;
1 p_r0_g159_h150_t9 -1 x_r0_g150 <= 0 ;
1 p_r0_g159_h150_t9 -1 x_r0_g159 -1 x_r0_g150 >= -1 ;
1 p_r1_g5_h163_t9 -1 x_r1_g5 <= 0 ;
1 p_r1_g5_h163_t9 -1 x_r1_g163 <= 0 ;
1 p_r1_g5_h163_t9 -1 x_r1_g5 -1 x_r1_g163 >= -1 ;
1 p_r1_g43_h34_t9 -1 x_r1_g43 <= 0 ;
1 p_r1_g43_h34_t9 -1 x_r1_g34 <= 0 ;
1 p_r1_g43_h34_t9 -1 x_r1_g43 -1 x_r1_g34 >= -1 ;
1 p_r1_g69_h60_t9 -1 x_r1_g69 <= 0 ;
1 p_r1_g69_h60_t9 -1 x_r1_g60 <= 0 ;
1 p_r1_g69_h60_t9 -1 x_r1_g69 -1 x_r1_g60 >= -1 ;
1 p_r1_g77_h68_t9 -1 x_r1_g77 <= 0 ;
1 p_r1_g77_h68_t9 -1 x_r1_g68 <= 0 ;
1 p_r1_g77_h68_t9 -1 x_r1_g77 -1 x_r1_g68 >= -1 ;
1 p_r1_g138_h129_t9 -1 x_r1_g138 <= 0 ;
1 p_r1_g138_h129_t9 -1 x_r1_g129 <= 0 ;
1 p_r1_g138_h129_t9 -1 x_r1_g138 -1 x_r1_g129 >= -1 ;
1 p_r2_g30_h21_t9 -1 x_r2_g30 <= 0 ;
1 p_r2_g30_h21_t9 -1 x_r2_g21 <= 0 ;
1 p_r2_g30_h21_t9 -1 x_r2_g30 -1 x_r2_g21 >= -1 ;
1 p_r2_g61_h52_t9 -1 x_r2_g61 <= 0 ;
1 p_r2_g61_h52_t9 -1 x_r2_g52 <= 0 ;
1 p_r2_g61_h52_t9 -1 x_r2_g61 -1 x_r2_g52 >= -1 ;
1 p_r2_g83_h74_t9 -1 x_r2_g83 <= 0 ;
1 p_r2_g83_h74_t9 -1 x_r2_g74 <= 0 ;
1 p_r2_g83_h74_t9 -1 x_r2_g83 -1 x_r2_g74 >= -1 ;
1 p_r2_g112_h103_t9 -1 x_r2_g112 <= 0 ;
1 p_r2_g112_h103_t9 -1 x_r2_g103 <= 0 ;
1 p_r2_g112_h103_t9 -1 x_r2_g112 -1 x_r2_g103 >= -1 ;
1 p_r2_g133_h124_t9 -1 x_r2_g133 <= 0 ;
1 p_r2_g133_h124_t9 -1 x_r2_g124 <= 0 ;
1 p_r2_g133_h124_t9 -1 x_r2_g133 -1 x_r2_g124 >= -1 ;
1 p_r2_g139_h130_t9 -1 x_r2_g139 <= 0 ;
1 p_r2_g139_h130_t9 -1 x_r2_g130 <= 0 ;
1 p_r2_g139_h130_t9 -1 x_r2_g139 -1 x_r2_g130 >= -1 ;
1 p_r3_g26_h17_t9 -1 x_r3_g26 <= 0 ;
1 p_r3_g26_h17_t9 -1 x_r3_g17 <= 0 ;
1 p_r3_g26_h17_t9 -1 x_r3_g26 -1 x_r3_g17 >= -1 ;
1 p_r3_g31_h22_t9 -1 x_r3_g31 <= 0 ;
1 p_r3_g31_h22_t9 -1 x_r3_g22 <= 0 ;
1 p_r3_g31_h22_t9 -1 x_r3_g31 -1 x_r3_g22 >= -1 ;
1 p_r3_g34_h25_t9 -1 x_r3_g34 <= 0 ;
1 p_r3_g34_h25_t9 -1 x_r3_g25 <= 0 ;
1 p_r3_g34_h25_t9 -1 x_r3_g34 -1 x_r3_g25 >= -1 ;
1 p_r3_g51_h42_t9 -1 x_r3_g51 <= 0 ;
1 p_r3_g51_h42_t9 -1 x_r3_g42 <= 0 ;
1 p_r3_g51_h42_t9 -1 x_r3_g51 -1 x_r3_g42 >= -1 ;
1 p_r3_g60_h51_t9 -1 x_r3_g60 <= 0 ;
1 p_r3_g60_h51_t9 -1 x_r3_g51 <= 0 ;
1 p_r3_g60_h51_t9 -1 x_r3_g60 -1 x_r3_g51 >= -1 ;
1 p_r3_g62_h53_t9 -1 x_r3_g62 <= 0 ;
1 p_r3_g62_h53_t9 -1 x_r3_g53 <= 0 ;
1 p_r3_g62_h53_t9 -1 x_r3_g62 -1 x_r3_g53 >= -1 ;
1 p_r3_g69_h60_t9 -1 x_r3_g69 <= 0 ;
1 p_r3_g69_h60_t9 -1 x_r3_g60 <= 0 ;
1 p_r3_g69_h60_t9 -1 x_r3_g69 -1 x_r3_g60 >= -1 ;
1 p_r3_g96_h87_t9 -1 x_r3_g96 <= 0 ;
1 p_r3_g96_h87_t9 -1 x_r3_g87 <= 0 ;
1 p_r3_g96_h87_t9 -1 x_r3_g96 -1 x_r3_g87 >= -1 ;
1 p_r3_g158_h149_t9 -1 x_r3_g158 <= 0 ;
1 p_r3_g158_h149_t9 -1 x_r3_g149 <= 0 ;
1 p_r3_g158_h149_t9 -1 x_r3_g158 -1 x_r3_g149 >= -1 ;
1 d_9 -1 x_r0_g4 -1 x_r0_g5 -1 x_r0_g7 -1 x_r0_g11 -1 x_r0_g12 -1 x_r0_g15 -2 x_r0_g34 -2 x_r0_g39 -1 x_r0_g47 -1 x_r0_g53 -1 x_r0_g57 -1 x_r0_g72 -2 x_r0_g79 -1 x_r0_g89 -1 x_r0_g91 -1 x_r0_g93 -1 x_r0_g136 -1 x_r0_g142 -1 x_r0_g143 -2 x_r0_g146 -2 x_r1_g1 -2 x_r1_g6 -1 x_r1_g23 -2 x_r1_g29 -1 x_r1_g34 -1 x_r1_g36 -2 x_r1_g40 -2 x_r1_g48 -1 x_r1_g56 -1 x_r1_g61 -1 x_r1_g69 -1 x_r1_g74 -1 x_r1_g82 -1 x_r1_g88 -2 x_r1_g98 -2 x_r1_g99 -2 x_r1_g104 -1 x_r1_g109 -1 x_r1_g124 -1 x_r1_g141 -1 x_r1_g145 -1 x_r1_g148 -2 x_r1_g155 -1 x_r1_g161 -1 x_r1_g163 -1 x_r2_g13 -1 x_r2_g27 -1 x_r2_g30 -1 x_r2_g32 -2 x_r2_g34 -1 x_r2_g35 -2 x_r2_g40 -1 x_r2_g51 -1 x_r2_g52 -1 x_r2_g58 -2 x_r2_g73 -1 x_r2_g74 -1 x_r2_g85 -1 x_r2_g91 -1 x_r2_g93 -1 x_r2_g101 -1 x_r2_g103 -1 x_r2_g104 -1 x_r2_g105 -1 x_r2_g106 -2 x_r2_g111 -1 x_r2_g112 -1 x_r2_g118 -2 x_r2_g119 -1 x_r2_g124 -1 x_r2_g130 -1 x_r2_g135 -1 x_r2_g139 -2 x_r2_g141 -1 x_r2_g157 -1 x_r2_g161 -2 x_r2_g162 -1 x_r3_g5 -1 x_r3_g17 -2 x_r3_g21 -1 x_r3_g22 -1 x_r3_g23 -1 x_r3_g31 -1 x_r3_g34 -1 x_r3_g38 -1 x_r3_g39 -1 x_r3_g66 -1 x_r3_g68 -1 x_r3_g69 -1 x_r3_g83 -1 x_r3_g87 -2 x_r3_g89 -2 x_r3_g90 -1 x_r3_g117 -1 x_r3_g118 -1 x_r3_g125 -2 x_r3_g137 -1 x_r3_g149 -2 x_r3_g151 -2 x_r3_g153 -2 x_r3_g154 -1 x_r3_g166 -1 p_r0_g1_h159_t9 -1 p_r0_g5_h163_t9 -1 p_r0_g24_h15_t9 -1 p_r0_g56_h47_t9 -1 p_r0_g65_h56_t9 -1 p_r0_g66_h57_t9 -1 p_r0_g74_h65_t9 -1 p_r0_g112_h103_t9 -1 p_r0_g135_h126_t9 -1 p_r0_g159_h150_t9 -1 p_r1_g5_h163_t9 -1 p_r1_g43_h34_t9 -1 p_r1_g69_h60_t9 -1 p_r1_g77_h68_t9 -1 p_r1_g138_h129_t9 -1 p_r2_g30_h21_t9 -1 p_r2_g61_h52_t9 -1 p_r2_g83_h74_t9 -1 p_r2_g112_h103_t9 -1 p_r2_g133_h124_t9 -1 p_r2_g139_h130_t9 -1 p_r3_g26_h17_t9 -1 p_r3_g31_h22_t9 -1 p_r3_g34_h25_t9 -1 p_r3_g51_h42_t9 -1 p_r3_g60_h51_t9 -1 p_r3_g62_h53_t9 -1 p_r3_g69_h60_t9 -1 p_r3_g96_h87_t9 -1 p_r3_g158_h149_t9 = -78 ;
1 d_9 -1 u_9 <= 0 ;
-1 d_9 -1 u_9 <= 0 ;
1 u_9 -1 M <= 0 ;
1 u_9 <= 1 ;
1 p_r0_g4_h159_t12 -1 x_r0_g4 <= 0 ;
1 p_r0_g4_h159_t12 -1 x_r0_g159 <= 0 ;
1 p_r0_g4_h159_t12 -1 x_r0_g4 -1 x_r0_g159 >= -1 ;
1 p_r0_g19_h7_t12 -1 x_r0_g19 <= 0 ;
1 p_r0_g19_h7_t12 -1 x_r0_g7 <= 0 ;
1 p_r0_g19_h7_t12 -1 x_r0_g19 -1 x_r0_g7 >= -1 ;
1 p_r0_g24_h12_t12 -1 x_r0_g24 <= 0 ;
1 p_r0_g24_h12_t12 -1 x_r0_g12 <= 0 ;
1 p_r0_g24_h12_t12 -1 x_r0_g24 -1 x_r0_g12 >= -1 ;
1 p_r0_g65_h53_t12 -1 x_r0_g65 <= 0 ;
1 p_r0_g65_h53_t12 -1 x_r0_g53 <= 0 ;
1 p_r0_g65_h53_t12 -1 x_r0_g65 -1 x_r0_g53 >= -1 ;
1 p_r0_g69_h57_t12 -1 x_r0_g69 <= 0 ;
1 p_r0_g69_h57_t12 -1 x_r0_g57 <= 0 ;
1 p_r0_g69_h57_t12 -1 x_r0_g69 -1 x_r0_g57 >= -1 ;
1 p_r0_g91_h79_t12 -1 x_r0_g91 <= 0 ;
1 p_r0_g91_h79_t12 -1 x_r0_g79 <= 0 ;
1 p_r0_g91_h79_t12 -1 x_r0_g91 -1 x_r0_g79 >= -1 ;
1 p_r0_g103_h91_t12 -1 x_r0_g103 <= 0 ;
1 p_r0_g103_h91_t12 -1 x_r0_g91 <= 0 ;
1 p_r0_g103_h91_t12 -1 x_r0_g103 -1 x_r0_g91 >= -1 ;
1 p_r0_g124_h112_t12 -1 x_r0_g124 <= 0 ;
1 p_r0_g124_h112_t12 -1 x_r0_g112 <= 0 ;
1 p_r0_g124_h112_t12 -1 x_r0_g124 -1 x_r0_g112 >= -1 ;
1 p_r0_g136_h124_t12 -1 x_r0_g136 <= 0 ;
1 p_r0_g136_h124_t12 -1 x_r0_g124 <= 0 ;
1 p_r0_g136_h124_t12 -1 x_r0_g136 -1 x_r0_g124 >= -1 ;
1 p_r1_g6_h161_t12 -1 x_r1_g6 <= 0 ;
1 p_r1_g6_h161_t12 -1 x_r1_g161 <= 0 ;
1 p_r1_g6_h161_t12 -1 x_r1_g6 -1 x_r1_g161 >= -1 ;
1 p_r1_g48_h36_t12 -1 x_r1_g48 <= 0 ;
1 p_r1_g48_h36_t12 -1 x_r1_g36 <= 0 ;
1 p_r1_g48_h36_t12 -1 x_r1_g48 -1 x_r1_g36 >= -1 ;
1 p_r1_g60_h48_t12 -1 x_r1_g60 <= 0 ;
1 p_r1_g60_h48_t12 -1 x_r1_g48 <= 0 ;
1 p_r1_g60_h48_t12 -1 x_r1_g60 -1 x_r1_g48 >= -1 ;
1 p_r1_g68_h56_t12 -1 x_r1_g68 <= 0 ;
1 p_r1_g68_h56_t12 -1 x_r1_g56 <= 0 ;
1 p_r1_g68_h56_t12 -1 x_r1_g68 -1 x_r1_g56 >= -1 ;
1 p_r1_g76_h64_t12 -1 x_r1_g76 <= 0 ;
1 p_r1_g76_h64_t12 -1 x_r1_g64 <= 0 ;
1 p_r1_g76_h64_t12 -1 x_r1_g76 -1 x_r1_g64 >= -1 ;
1 p_r1_g88_h76_t12 -1 x_r1_g88 <= 0 ;
1 p_r1_g88_h76_t12 -1 x_r1_g76 <= 0 ;
1 p_r1_g88_h76_t12 -1 x_r1_g88 -1 x_r1_g76 >= -1 ;
1 p_r1_g141_h129_t12 -1 x_r1_g141 <= 0 ;
1 p_r1_g141_h129_t12 -1 x_r1_g129 <= 0 ;
1 p_r1_g141_h129_t12 -1 x_r1_g141 -1 x_r1_g129 >= -1 ;
1 p_r2_g27_h15_t12 -1 x_r2_g27 <= 0 ;
1 p_r2_g27_h15_t12 -1 x_r2_g15 <= 0 ;
1 p_r2_g27_h15_t12 -1 x_r2_g27 -1 x_r2_g15 >= -1 ;
1 p_r2_g52_h40_t12 -1 x_r2_g52 <= 0 ;
1 p_r2_g52_h40_t12 -1 x_r2_g40 <= 0 ;
1 p_r2_g52_h40_t12 -1 x_r2_g52 -1 x_r2_g40 >= -1 ;
1 p_r2_g73_h61_t12 -1 x_r2_g73 <= 0 ;
1 p_r2_g73_h61_t12 -1 x_r2_g61 <= 0 ;
1 p_r2_g73_h61_t12 -1 x_r2_g73 -1 x_r2_g61 >= -1 ;
1 p_r2_g85_h73_t12 -1 x_r2_g85 <= 0 ;
1 p_r2_g85_h73_t12 -1 x_r2_g73 <= 0 ;
1 p_r2_g85_h73_t12 -1 x_r2_g85 -1 x_r2_g73 >= -1 ;
1 p_r2_g103_h91_t12 -1 x_r2_g103 <= 0 ;
1 p_r2_g103_h91_t12 -1 x_r2_g91 <= 0 ;
1 p_r2_g103_h91_t12 -1 x_r2_g103 -1 x_r2_g91 >= -1 ;
1 p_r2_g105_h93_t12 -1 x_r2_g105 <= 0 ;
1 p_r2_g105_h93_t12 -1 x_r2_g93 <= 0 ;
1 p_r2_g105_h93_t12 -1 x_r2_g105 -1 x_r2_g93 >= -1 ;
1 p_r2_g118_h106_t12 -1 x_r2_g118 <= 0 ;
1 p_r2_g118_h106_t12 -1 x_r2_g106 <= 0 ;
1 p_r2_g118_h106_t12 -1 x_r2_g118 -1 x_r2_g106 >= -1 ;
1 p_r2_g124_h112_t12 -1 x_r2_g124 <= 0 ;
1 p_r2_g124_h112_t12 -1 x_r2_g112 <= 0 ;
1 p_r2_g124_h112_t12 -1 x_r2_g124 -1 x_r2_g112 >= -1 ;
1 p_r2_g130_h118_t12 -1 x_r2_g130 <= 0 ;
1 p_r2_g130_h118_t12 -1 x_r2_g118 <= 0 ;
1 p_r2_g130_h118_t12 -1 x_r2_g130 -1 x_r2_g118 >= -1 ;
1 p_r2_g147_h135_t12 -1 x_r2_g147 <= 0 ;
1 p_r2_g147_h135_t12 -1 x_r2_g135 <= 0 ;
1 p_r2_g147_h135_t12 -1 x_r2_g147 -1 x_r2_g135 >= -1 ;
1 p_r3_g17_h5_t12 -1 x_r3_g17 <= 0 ;
1 p_r3_g17_h5_t12 -1 x_r3_g5 <= 0 ;
1 p_r3_g17_h5_t12 -1 x_r3_g17 -1 x_r3_g5 >= -1 ;
1 p_r3_g34_h22_t12 -1 x_r3_g34 <= 0 ;
1 p_r3_g34_h22_t12 -1 x_r3_g22 <= 0 ;
1 p_r3_g34_h22_t12 -1 x_r3_g34 -1 x_r3_g22 >= -1 ;
1 p_r3_g38_h26_t12 -1 x_r3_g38 <= 0 ;
1 p_r3_g38_h26_t12 -1 x_r3_g26 <= 0 ;
1 p_r3_g38_h26_t12 -1 x_r3_g38 -1 x_r3_g26 >= -1 ;
1 p_r3_g51_h39_t12 -1 x_r3_g51 <= 0 ;
1 p_r3_g51_h39_t12 -1 x_r3_g39 <= 0 ;
1 p_r3_g51_h39_t12 -1 x_r3_g51 -1 x_r3_g39 >= -1 ;
1 p_r3_g137_h125_t12 -1 x_r3_g137 <= 0 ;
1 p_r3_g137_h125_t12 -1 x_r3_g125 <= 0 ;
1 p_r3_g137_h125_t12 -1 x_r3_g137 -1 x_r3_g125 >= -1 ;
1 p_r3_g149_h137_t12 -1 x_r3_g149 <= 0 ;
1 p_r3_g149_h137_t12 -1 x_r3_g137 <= 0 ;
1 p_r3_g149_h137_t12 -1 x_r3_g149 -1 x_r3_g137 >= -1 ;
1 p_r3_g161_h149_t12 -1 x_r3_g161 <= 0 ;
1 p_r3_g161_h149_t12 -1 x_r3_g149 <= 0 ;
1 p_r3_g161_h149_t12 -1 x_r3_g161 -1 x_r3_g149 >= -1 ;
1 p_r3_g166_h154_t12 -1 x_r3_g166 <= 0 ;
1 p_r3_g166_h154_t12 -1 x_r3_g154 <= 0 ;
1 p_r3_g166_h154_t12 -1 x_r3_g166 -1 x_r3_g154 >= -1 ;
1 d_12 -1 x_r0_g1 -1 x_r0_g5 -1 x_r0_g15 -1 x_r0_g24 -1 x_r0_g34 -1 x_r0_g39 -1 x_r0_g47 -1 x_r0_g56 -1 x_r0_g57 -1 x_r0_g65 -1 x_r0_g66 -1 x_r0_g74 -1 x_r0_g79 -2 x_r0_g89 -1 x_r0_g106 -1 x_r0_g108 -1 x_r0_g112 -1 x_r0_g119 -1 x_r0_g135 -2 x_r0_g143 -1 x_r0_g146 -1 x_r0_g163 -1 x_r1_g1 -1 x_r1_g5 -1 x_r1_g6 -1 x_r1_g23 -1 x_r1_g34 -1 x_r1_g43 -2 x_r1_g50 -1 x_r1_g56 -1 x_r1_g61 -1 x_r1_g68 -2 x_r1_g69 -1 x_r1_g74 -2 x_r1_g77 -1 x_r1_g82 -1 x_r1_g84 -1 x_r1_g88 -1 x_r1_g99 -1 x_r1_g124 -1 x_r1_g127 -1 x_r1_g145 -1 x_r1_g148 -2 x_r2_g13 -1 x_r2_g21 -1 x_r2_g27 -1 x_r2_g30 -1 x_r2_g32 -1 x_r2_g34 -1 x_r2_g40 -1 x_r2_g45 -2 x_r2_g51 -1 x_r2_g52 -2 x_r2_g53 -1 x_r2_g58 -1 x_r2_g61 -1 x_r2_g74 -1 x_r2_g101 -1 x_r2_g103 -1 x_r2_g104 -1 x_r2_g106 -1 x_r2_g124 -1 x_r2_g133 -2 x_r2_g139 -2 x_r2_g141 -2 x_r2_g162 -1 x_r3_g5 -1 x_r3_g21 -2 x_r3_g24 -2 x_r3_g25 -2 x_r3_g31 -1 x_r3_g34 -1 x_r3_g39 -1 x_r3_g42 -2 x_r3_g53 -1 x_r3_g62 -1 x_r3_g66 -1 x_r3_g68 -1 x_r3_g69 -1 x_r3_g73 -2 x_r3_g87 -1 x_r3_g90 -1 x_r3_g96 -1 x_r3_g100 -1 x_r3_g117 -1 x_r3_g118 -1 x_r3_g124 -2 x_r3_g151 -1 x_r3_g154 -2 x_r3_g156 -1 x_r3_g158 -1 x_r3_g161 -1 p_r0_g4_h159_t12 -1 p_r0_g19_h7_t12 -1 p_r0_g24_h12_t12 -1 p_r0_g65_h53_t12 -1 p_r0_g69_h57_t12 -1 p_r0_g91_h79_t12 -1 p_r0_g103_h91_t12 -1 p_r0_g124_h112_t12 -1 p_r0_g136_h124_t12 -1 p_r1_g6_h161_t12 -1 p_r1_g48_h36_t12 -1 p_r1_g60_h48_t12 -1 p_r1_g68_h56_t12 -1 p_r1_g76_h64_t12 -1 p_r1_g88_h76_t12 -1 p_r1_g141_h129_t12 -1 p_r2_g27_h15_t12 -1 p_r2_g52_h40_t12 -1 p_r2_g73_h61_t12 -1 p_r2_g85_h73_t12 -1 p_r2_g103_h91_t12 -1 p_r2_g105_h93_t12 -1 p_r2_g118_h106_t12 -1 p_r2_g124_h112_t12 -1 p_r2_g130_h118_t12 -1 p_r2_g147_h135_t12 -1 p_r3_g17_h5_t12 -1 p_r3_g34_h22_t12 -1 p_r3_g38_h26_t12 -1 p_r3_g51_h39_t12 -1 p_r3_g137_h125_t12 -1 p_r3_g149_h137_t12 -1 p_r3_g161_h149_t12 -1 p_r3_g166_h154_t12 = -55 ;
1 d_12 -1 u_12 <= 0 ;
-1 d_12 -1 u_12 <= 0 ;
1 u_12 -1 M <= 0 ;
1 u_12 <= 1 ;
1 p_r0_g4_h150_t21 -1 x_r0_g4 <= 0 ;
1 p_r0_g4_h150_t21 -1 x_r0_g150 <= 0 ;
1 p_r0_g4_h150_t21 -1 x_r0_g4 -1 x_r0_g150 >= -1 ;
1 p_r0_g74_h53_t21 -1 x_r0_g74 <= 0 ;
1 p_r0_g74_h53_t21 -1 x_r0_g53 <= 0 ;
1 p_r0_g74_h53_t21 -1 x_r0_g74 -1 x_r0_g53 >= -1 ;
1 p_r0_g93_h72_t21 -1 x_r0_g93 <= 0 ;
1 p_r0_g93_h72_t21 -1 x_r0_g72 <= 0 ;
1 p_r0_g93_h72_t21 -1 x_r0_g93 -1 x_r0_g72 >= -1 ;
1 p_r0_g106_h85_t21 -1 x_r0_g106 <= 0 ;
1 p_r0_g106_h85_t21 -1 x_r0_g85 <= 0 ;
1 p_r0_g106_h85_t21 -1 x_r0_g106 -1 x_r0_g85 >= -1 ;
1 p_r0_g112_h91_t21 -1 x_r0_g112 <= 0 ;
1 p_r0_g112_h91_t21 -1 x_r0_g91 <= 0 ;
1 p_r0_g112_h91_t21 -1 x_r0_g112 -1 x_r0_g91 >= -1 ;
1 p_r0_g124_h103_t21 -1 x_r0_g124 <= 0 ;
1 p_r0_g124_h103_t21 -1 x_r0_g103 <= 0 ;
1 p_r0_g124_h103_t21 -1 x_r0_g124 -1 x_r0_g103 >= -1 ;
1 p_r0_g163_h142_t21 -1 x_r0_g163 <= 0 ;
1 p_r0_g163_h142_t21 -1 x_r0_g142 <= 0 ;
1 p_r0_g163_h142_t21 -1 x_r0_g163 -1 x_r0_g142 >= -1 ;
1 p_r1_g42_h21_t21 -1 x_r1_g42 <= 0 ;
1 p_r1_g42_h21_t21 -1 x_r1_g21 <= 0 ;
1 p_r1_g42_h21_t21 -1 x_r1_g42 -1 x_r1_g21 >= -1 ;
1 p_r1_g50_h29_t21 -1 x_r1_g50 <= 0 ;
1 p_r1_g50_h29_t21 -1 x_r1_g29 <= 0 ;
1 p_r1_g50_h29_t21 -1 x_r1_g50 -1 x_r1_g29 >= -1 ;
1 p_r1_g61_h40_t21 -1 x_r1_g61 <= 0 ;
1 p_r1_g61_h40_t21 -1 x_r1_g40 <= 0 ;
1 p_r1_g61_h40_t21 -1 x_r1_g61 -1 x_r1_g40 >= -1 ;
1 p_r1_g64_h43_t21 -1 x_r1_g64 <= 0 ;
1 p_r1_g64_h43_t21 -1 x_r1_g43 <= 0 ;
1 p_r1_g64_h43_t21 -1 x_r1_g64 -1 x_r1_g43 >= -1 ;
1 p_r1_g69_h48_t21 -1 x_r1_g69 <= 0 ;
1 p_r1_g69_h48_t21 -1 x_r1_g48 <= 0 ;
1 p_r1_g69_h48_t21 -1 x_r1_g69 -1 x_r1_g48 >= -1 ;
1 p_r1_g77_h56_t21 -1 x_r1_g77 <= 0 ;
1 p_r1_g77_h56_t21 -1 x_r1_g56 <= 0 ;
1 p_r1_g77_h56_t21 -1 x_r1_g77 -1 x_r1_g56 >= -1 ;
1 p_r1_g82_h61_t21 -1 x_r1_g82 <= 0 ;
1 p_r1_g82_h61_t21 -1 x_r1_g61 <= 0 ;
1 p_r1_g82_h61_t21 -1 x_r1_g82 -1 x_r1_g61 >= -1 ;
1 p_r1_g98_h77_t21 -1 x_r1_g98 <= 0 ;
1 p_r1_g98_h77_t21 -1 x_r1_g77 <= 0 ;
1 p_r1_g98_h77_t21 -1 x_r1_g98 -1 x_r1_g77 >= -1 ;
1 p_r1_g109_h88_t21 -1 x_r1_g109 <= 0 ;
1 p_r1_g109_h88_t21 -1 x_r1_g88 <= 0 ;
1 p_r1_g109_h88_t21 -1 x_r1_g109 -1 x_r1_g88 >= -1 ;
1 p_r1_g145_h124_t21 -1 x_r1_g145 <= 0 ;
1 p_r1_g145_h124_t21 -1 x_r1_g124 <= 0 ;
1 p_r1_g145_h124_t21 -1 x_r1_g145 -1 x_r1_g124 >= -1 ;
1 p_r1_g148_h127_t21 -1 x_r1_g148 <= 0 ;
1 p_r1_g148_h127_t21 -1 x_r1_g127 <= 0 ;
1 p_r1_g148_h127_t21 -1 x_r1_g148 -1 x_r1_g127 >= -1 ;
1 p_r1_g162_h141_t21 -1 x_r1_g162 <= 0 ;
1 p_r1_g162_h141_t21 -1 x_r1_g141 <= 0 ;
1 p_r1_g162_h141_t21 -1 x_r1_g162 -1 x_r1_g141 >= -1 ;
1 p_r2_g15_h161_t21 -1 x_r2_g15 <= 0 ;
1 p_r2_g15_h161_t21 -1 x_r2_g161 <= 0 ;
1 p_r2_g15_h161_t21 -1 x_r2_g15 -1 x_r2_g161 >= -1 ;
1 p_r2_g34_h13_t21 -1 x_r2_g34 <= 0 ;
1 p_r2_g34_h13_t21 -1 x_r2_g13 <= 0 ;
1 p_r2_g34_h13_t21 -1 x_r2_g34 -1 x_r2_g13 >= -1 ;
1 p_r2_g51_h30_t21 -1 x_r2_g51 <= 0 ;
1 p_r2_g51_h30_t21 -1 x_r2_g30 <= 0 ;
1 p_r2_g51_h30_t21 -1 x_r2_g51 -1 x_r2_g30 >= -1 ;
1 p_r2_g53_h32_t21 -1 x_r2_g53 <= 0 ;
1 p_r2_g53_h32_t21 -1 x_r2_g32 <= 0 ;
1 p_r2_g53_h32_t21 -1 x_r2_g53 -1 x_r2_g32 >= -1 ;
1 p_r2_g61_h40_t21 -1 x_r2_g61 <= 0 ;
1 p_r2_g61_h40_t21 -1 x_r2_g40 <= 0 ;
1 p_r2_g61_h40_t21 -1 x_r2_g61 -1 x_r2_g40 >= -1 ;
1 p_r2_g73_h52_t21 -1 x_r2_g73 <= 0 ;
1 p_r2_g73_h52_t21 -1 x_r2_g52 <= 0 ;
1 p_r2_g73_h52_t21 -1 x_r2_g73 -1 x_r2_g52 >= -1 ;
1 p_r2_g74_h53_t21 -1 x_r2_g74 <= 0 ;
1 p_r2_g74_h53_t21 -1 x_r2_g53 <= 0 ;
1 p_r2_g74_h53_t21 -1 x_r2_g74 -1 x_r2_g53 >= -1 ;
1 p_r2_g104_h83_t21 -1 x_r2_g104 <= 0 ;
1 p_r2_g104_h83_t21 -1 x_r2_g83 <= 0 ;
1 p_r2_g104_h83_t21 -1 x_r2_g104 -1 x_r2_g83 >= -1 ;
1 p_r2_g106_h85_t21 -1 x_r2_g106 <= 0 ;
1 p_r2_g106_h85_t21 -1 x_r2_g85 <= 0 ;
1 p_r2_g106_h85_t21 -1 x_r2_g106 -1 x_r2_g85 >= -1 ;
1 p_r2_g112_h91_t21 -1 x_r2_g112 <= 0 ;
1 p_r2_g112_h91_t21 -1 x_r2_g91 <= 0 ;
1 p_r2_g112_h91_t21 -1 x_r2_g112 -1 x_r2_g91 >= -1 ;
1 p_r2_g124_h103_t21 -1 x_r2_g124 <= 0 ;
1 p_r2_g124_h103_t21 -1 x_r2_g103 <= 0 ;
1 p_r2_g124_h103_t21 -1 x_r2_g124 -1 x_r2_g103 >= -1 ;
1 p_r2_g133_h112_t21 -1 x_r2_g133 <= 0 ;
1 p_r2_g133_h112_t21 -1 x_r2_g112 <= 0 ;
1 p_r2_g133_h112_t21 -1 x_r2_g133 -1 x_r2_g112 >= -1 ;
1 p_r2_g139_h118_t21 -1 x_r2_g139 <= 0 ;
1 p_r2_g139_h118_t21 -1 x_r2_g118 <= 0 ;
1 p_r2_g139_h118_t21 -1 x_r2_g139 -1 x_r2_g118 >= -1 ;
1 p_r2_g162_h141_t21 -1 x_r2_g162 <= 0 ;
1 p_r2_g162_h141_t21 -1 x_r2_g141 <= 0 ;
1 p_r2_g162_h141_t21 -1 x_r2_g162 -1 x_r2_g141 >= -1 ;
1 p_r3_g5_h151_t21 -1 x_r3_g5 <= 0 ;
1 p_r3_g5_h151_t21 -1 x_r3_g151 <= 0 ;
1 p_r3_g5_h151_t21 -1 x_r3_g5 -1 x_r3_g151 >= -1 ;
1 p_r3_g26_h5_t21 -1 x_r3_g26 <= 0 ;
1 p_r3_g26_h5_t21 -1 x_r3_g5 <= 0 ;
1 p_r3_g26_h5_t21 -1 x_r3_g26 -1 x_r3_g5 >= -1 ;
1 p_r3_g38_h17_t21 -1 x_r3_g38 <= 0 ;
1 p_r3_g38_h17_t21 -1 x_r3_g17 <= 0 ;
1 p_r3_g38_h17_t21 -1 x_r3_g38 -1 x_r3_g17 >= -1 ;
1 p_r3_g42_h21_t21 -1 x_r3_g42 <= 0 ;
1 p_r3_g42_h21_t21 -1 x_r3_g21 <= 0 ;
1 p_r3_g42_h21_t21 -1 x_r3_g42 -1 x_r3_g21 >= -1 ;
1 p_r3_g60_h39_t21 -1 x_r3_g60 <= 0 ;
1 p_r3_g60_h39_t21 -1 x_r3_g39 <= 0 ;
1 p_r3_g60_h39_t21 -1 x_r3_g60 -1 x_r3_g39 >= -1 ;
1 p_r3_g83_h62_t21 -1 x_r3_g83 <= 0 ;
1 p_r3_g83_h62_t21 -1 x_r3_g62 <= 0 ;
1 p_r3_g83_h62_t21 -1 x_r3_g83 -1 x_r3_g62 >= -1 ;
1 p_r3_g87_h66_t21 -1 x_r3_g87 <= 0 ;
1 p_r3_g87_h66_t21 -1 x_r3_g66 <= 0 ;
1 p_r3_g87_h66_t21 -1 x_r3_g87 -1 x_r3_g66 >= -1 ;
1 p_r3_g89_h68_t21 -1 x_r3_g89 <= 0 ;
1 p_r3_g89_h68_t21 -1 x_r3_g68 <= 0 ;
1 p_r3_g89_h68_t21 -1 x_r3_g89 -1 x_r3_g68 >= -1 ;
1 p_r3_g90_h69_t21 -1 x_r3_g90 <= 0 ;
1 p_r3_g90_h69_t21 -1 x_r3_g69 <= 0 ;
1 p_r3_g90_h69_t21 -1 x_r3_g90 -1 x_r3_g69 >= -1 ;
1 p_r3_g117_h96_t21 -1 x_r3_g117 <= 0 ;
1 p_r3_g117_h96_t21 -1 x_r3_g96 <= 0 ;
1 p_r3_g117_h96_t21 -1 x_r3_g117 -1 x_r3_g96 >= -1 ;
1 p_r3_g158_h137_t21 -1 x_r3_g158 <= 0 ;
1 p_r3_g158_h137_t21 -1 x_r3_g137 <= 0 ;
1 p_r3_g158_h137_t21 -1 x_r3_g158 -1 x_r3_g137 >= -1 ;
1 d_21 -1 x_r0_g4 -1 x_r0_g5 -1 x_r0_g11 -1 x_r0_g12 -1 x_r0_g15 -2 x_r0_g19 -2 x_r0_g24 -2 x_r0_g34 -1 x_r0_g47 -1 x_r0_g56 -1 x_r0_g57 -1 x_r0_g66 -2 x_r0_g69 -1 x_r0_g72 -2 x_r0_g79 -1 x_r0_g89 -1 x_r0_g91 -1 x_r0_g106 -1 x_r0_g119 -1 x_r0_g136 -1 x_r0_g143 -1 x_r0_g159 -1 x_r1_g5 -1 x_r1_g6 -1 x_r1_g23 -2 x_r1_g36 -1 x_r1_g48 -2 x_r1_g60 -1 x_r1_g68 -1 x_r1_g69 -2 x_r1_g74 -1 x_r1_g82 -1 x_r1_g98 -1 x_r1_g99 -1 x_r1_g109 -1 x_r1_g124 -1 x_r1_g129 -1 x_r1_g138 -1 x_r1_g145 -2 x_r1_g161 -1 x_r2_g21 -1 x_r2_g27 -2 x_r2_g35 -1 x_r2_g52 -1 x_r2_g61 -1 x_r2_g73 -1 x_r2_g85 -1 x_r2_g93 -2 x_r2_g101 -1 x_r2_g103 -1 x_r2_g105 -1 x_r2_g106 -2 x_r2_g111 -2 x_r2_g119 -1 x_r2_g130 -1 x_r2_g135 -1 x_r2_g139 -1 x_r2_g141 -2 x_r2_g147 -1 x_r2_g157 -1 x_r2_g161 -1 x_r3_g17 -2 x_r3_g22 -1 x_r3_g23 -1 x_r3_g24 -2 x_r3_g25 -1 x_r3_g26 -2 x_r3_g34 -1 x_r3_g38 -1 x_r3_g39 -1 x_r3_g51 -2 x_r3_g53 -1 x_r3_g60 -1 x_r3_g62 -1 x_r3_g66 -1 x_r3_g68 -1 x_r3_g73 -1 x_r3_g87 -1 x_r3_g89 -1 x_r3_g90 -1 x_r3_g96 -1 x_r3_g117 -1 x_r3_g118 -1 x_r3_g124 -1 x_r3_g125 -1 x_r3_g149 -1 x_r3_g154 -1 x_r3_g158 -1 x_r3_g161 -2 x_r3_g166 -1 p_r0_g4_h150_t21 -1 p_r0_g74_h53_t21 -1 p_r0_g93_h72_t21 -1 p_r0_g106_h85_t21 -1 p_r0_g112_h91_t21 -1 p_r0_g124_h103_t21 -1 p_r0_g163_h142_t21 -1 p_r1_g42_h21_t21 -1 p_r1_g50_h29_t21 -1 p_r1_g61_h40_t21 -1 p_r1_g64_h43_t21 -1 p_r1_g69_h48_t21 -1 p_r1_g77_h56_t21 -1 p_r1_g82_h61_t21 -1 p_r1_g98_h77_t21 -1 p_r1_g109_h88_t21 -1 p_r1_g145_h124_t21 -1 p_r1_g148_h127_t21 -1 p_r1_g162_h141_t21 -1 p_r2_g15_h161_t21 -1 p_r2_g34_h13_t21 -1 p_r2_g51_h30_t21 -1 p_r2_g53_h32_t21 -1 p_r2_g61_h40_t21 -1 p_r2_g73_h52_t21 -1 p_r2_g74_h53_t21 -1 p_r2_g104_h83_t21 -1 p_r2_g106_h85_t21 -1 p_r2_g112_h91_t21 -1 p_r2_g124_h103_t21 -1 p_r2_g133_h112_t21 -1 p_r2_g139_h118_t21 -1 p_r2_g162_h141_t21 -1 p_r3_g5_h151_t21 -1 p_r3_g26_h5_t21 -1 p_r3_g38_h17_t21 -1 p_r3_g42_h21_t21 -1 p_r3_g60_h39_t21 -1 p_r3_g83_h62_t21 -1 p_r3_g87_h66_t21 -1 p_r3_g89_h68_t21 -1 p_r3_g90_h69_t21 -1 p_r3_g117_h96_t21 -1 p_r3_g158_h137_t21 = -64 ;
1 d_21 -1 u_21 <= 0 ;
-1 d_21 -1 u_21 <= 0 ;
1 u_21 -1 M <= 0 ;
1 u_21 <= 0 ;
1 p_r0_g19_h159_t27 -1 x_r0_g19 <= 0 ;
1 p_r0_g19_h159_t27 -1 x_r0_g159 <= 0 ;
1 p_r0_g19_h159_t27 -1 x_r0_g19 -1 x_r0_g159 >= -1 ;
1 p_r0_g34_h7_t27 -1 x_r0_g34 <= 0 ;
1 p_r0_g34_h7_t27 -1 x_r0_g7 <= 0 ;
1 p_r0_g34_h7_t27 -1 x_r0_g34 -1 x_r0_g7 >= -1 ;
1 p_r0_g39_h12_t27 -1 x_r0_g39 <= 0 ;
1 p_r0_g39_h12_t27 -1 x_r0_g12 <= 0 ;
1 p_r0_g39_h12_t27 -1 x_r0_g39 -1 x_r0_g12 >= -1 ;
1 p_r0_g66_h39_t27 -1 x_r0_g66 <= 0 ;
1 p_r0_g66_h39_t27 -1 x_r0_g39 <= 0 ;
1 p_r0_g66_h39_t27 -1 x_r0_g66 -1 x_r0_g39 >= -1 ;
1 p_r0_g74_h47_t27 -1 x_r0_g74 <= 0 ;
1 p_r0_g74_h47_t27 -1 x_r0_g47 <= 0 ;
1 p_r0_g74_h47_t27 -1 x_r0_g74 -1 x_r0_g47 >= -1 ;
1 p_r0_g93_h66_t27 -1 x_r0_g93 <= 0 ;
1 p_r0_g93_h66_t27 -1 x_r0_g66 <= 0 ;
1 p_r0_g93_h66_t27 -1 x_r0_g93 -1 x_r0_g66 >= -1 ;
1 p_r0_g106_h79_t27 -1 x_r0_g106 <= 0 ;
1 p_r0_g106_h79_t27 -1 x_r0_g79 <= 0 ;
1 p_r0_g106_h79_t27 -1 x_r0_g106 -1 x_r0_g79 >= -1 ;
1 p_r0_g112_h85_t27 -1 x_r0_g112 <= 0 ;
1 p_r0_g112_h85_t27 -1 x_r0_g85 <= 0 ;
1 p_r0_g112_h85_t27 -1 x_r0_g112 -1 x_r0_g85 >= -1 ;
1 p_r0_g135_h108_t27 -1 x_r0_g135 <= 0 ;
1 p_r0_g135_h108_t27 -1 x_r0_g108 <= 0 ;
1 p_r0_g135_h108_t27 -1 x_r0_g135 -1 x_r0_g108 >= -1 ;
1 p_r0_g146_h119_t27 -1 x_r0_g146 <= 0 ;
1 p_r0_g146_h119_t27 -1 x_r0_g119 <= 0 ;
1 p_r0_g146_h119_t27 -1 x_r0_g146 -1 x_r0_g119 >= -1 ;
1 p_r0_g163_h136_t27 -1 x_r0_g163 <= 0 ;
1 p_r0_g163_h136_t27 -1 x_r0_g136 <= 0 ;
1 p_r0_g163_h136_t27 -1 x_r0_g163 -1 x_r0_g136 >= -1 ;
1 p_r1_g1_h141_t27 -1 x_r1_g1 <= 0 ;
1 p_r1_g1_h141_t27 -1 x_r1_g141 <= 0 ;
1 p_r1_g1_h141_t27 -1 x_r1_g1 -1 x_r1_g141 >= -1 ;
1 p_r1_g5_h145_t27 -1 x_r1_g5 <= 0 ;
1 p_r1_g5_h145_t27 -1 x_r1_g145 <= 0 ;
1 p_r1_g5_h145_t27 -1 x_r1_g5 -1 x_r1_g145 >= -1 ;
1 p_r1_g21_h161_t27 -1 x_r1_g21 <= 0 ;
1 p_r1_g21_h161_t27 -1 x_r1_g161 <= 0 ;
1 p_r1_g21_h161_t27 -1 x_r1_g21 -1 x_r1_g161 >= -1 ;
1 p_r1_g23_h163_t27 -1 x_r1_g23 <= 0 ;
1 p_r1_g23_h163_t27 -1 x_r1_g163 <= 0 ;
1 p_r1_g23_h163_t27 -1 x_r1_g23 -1 x_r1_g163 >= -1 ;
1 p_r1_g48_h21_t27 -1 x_r1_g48 <= 0 ;
1 p_r1_g48_h21_t27 -1 x_r1_g21 <= 0 ;
1 p_r1_g48_h21_t27 -1 x_r1_g48 -1 x_r1_g21 >= -1 ;
1 p_r1_g50_h23_t27 -1 x_r1_g50 <= 0 ;
1 p_r1_g50_h23_t27 -1 x_r1_g23 <= 0 ;
1 p_r1_g50_h23_t27 -1 x_r1_g50 -1 x_r1_g23 >= -1 ;
1 p_r1_g56_h29_t27 -1 x_r1_g56 <= 0 ;
1 p_r1_g56_h29_t27 -1 x_r1_g29 <= 0 ;
1 p_r1_g56_h29_t27 -1 x_r1_g56 -1 x_r1_g29 >= -1 ;
1 p_r1_g61_h34_t27 -1 x_r1_g61 <= 0 ;
1 p_r1_g61_h34_t27 -1 x_r1_g34 <= 0 ;
1 p_r1_g61_h34_t27 -1 x_r1_g61 -1 x_r1_g34 >= -1 ;
1 p_r1_g69_h42_t27 -1 x_r1_g69 <= 0 ;
1 p_r1_g69_h42_t27 -1 x_r1_g42 <= 0 ;
1 p_r1_g69_h42_t27 -1 x_r1_g69 -1 x_r1_g42 >= -1 ;
1 p_r1_g77_h50_t27 -1 x_r1_g77 <= 0 ;
1 p_r1_g77_h50_t27 -1 x_r1_g50 <= 0 ;
1 p_r1_g77_h50_t27 -1 x_r1_g77 -1 x_r1_g50 >= -1 ;
1 p_r1_g88_h61_t27 -1 x_r1_g88 <= 0 ;
1 p_r1_g88_h61_t27 -1 x_r1_g61 <= 0 ;
1 p_r1_g88_h61_t27 -1 x_r1_g88 -1 x_r1_g61 >= -1 ;
1 p_r1_g104_h77_t27 -1 x_r1_g104 <= 0 ;
1 p_r1_g104_h77_t27 -1 x_r1_g77 <= 0 ;
1 p_r1_g104_h77_t27 -1 x_r1_g104 -1 x_r1_g77 >= -1 ;
1 p_r1_g109_h82_t27 -1 x_r1_g109 <= 0 ;
1 p_r1_g109_h82_t27 -1 x_r1_g82 <= 0 ;
1 p_r1_g109_h82_t27 -1 x_r1_g109 -1 x_r1_g82 >= -1 ;
1 p_r2_g21_h161_t27 -1 x_r2_g21 <= 0 ;
1 p_r2_g21_h161_t27 -1 x_r2_g161 <= 0 ;
1 p_r2_g21_h161_t27 -1 x_r2_g21 -1 x_r2_g161 >= -1 ;
1 p_r2_g40_h13_t27 -1 x_r2_g40 <= 0 ;
1 p_r2_g40_h13_t27 -1 x_r2_g13 <= 0 ;
1 p_r2_g40_h13_t27 -1 x_r2_g40 -1 x_r2_g13 >= -1 ;
1 p_r2_g61_h34_t27 -1 x_r2_g61 <= 0 ;
1 p_r2_g61_h34_t27 -1 x_r2_g34 <= 0 ;
1 p_r2_g61_h34_t27 -1 x_r2_g61 -1 x_r2_g34 >= -1 ;
1 p_r2_g85_h58_t27 -1 x_r2_g85 <= 0 ;
1 p_r2_g85_h58_t27 -1 x_r2_g58 <= 0 ;
1 p_r2_g85_h58_t27 -1 x_r2_g85 -1 x_r2_g58 >= -1 ;
1 p_r2_g101_h74_t27 -1 x_r2_g101 <= 0 ;
1 p_r2_g101_h74_t27 -1 x_r2_g74 <= 0 ;
1 p_r2_g101_h74_t27 -1 x_r2_g101 -1 x_r2_g74 >= -1 ;
1 p_r2_g112_h85_t27 -1 x_r2_g112 <= 0 ;
1 p_r2_g112_h85_t27 -1 x_r2_g85 <= 0 ;
1 p_r2_g112_h85_t27 -1 x_r2_g112 -1 x_r2_g85 >= -1 ;
1 p_r2_g118_h91_t27 -1 x_r2_g118 <= 0 ;
1 p_r2_g118_h91_t27 -1 x_r2_g91 <= 0 ;
1 p_r2_g118_h91_t27 -1 x_r2_g118 -1 x_r2_g91 >= -1 ;
1 p_r2_g130_h103_t27 -1 x_r2_g130 <= 0 ;
1 p_r2_g130_h103_t27 -1 x_r2_g103 <= 0 ;
1 p_r2_g130_h103_t27 -1 x_r2_g130 -1 x_r2_g103 >= -1 ;
1 p_r2_g133_h106_t27 -1 x_r2_g133 <= 0 ;
1 p_r2_g133_h106_t27 -1 x_r2_g106 <= 0 ;
1 p_r2_g133_h106_t27 -1 x_r2_g133 -1 x_r2_g106 >= -1 ;
1 p_r2_g139_h112_t27 -1 x_r2_g139 <= 0 ;
1 p_r2_g139_h112_t27 -1 x_r2_g112 <= 0 ;
1 p_r2_g139_h112_t27 -1 x_r2_g139 -1 x_r2_g112 >= -1 ;
1 p_r2_g157_h130_t27 -1 x_r2_g157 <= 0 ;
1 p_r2_g157_h130_t27 -1 x_r2_g130 <= 0 ;
1 p_r2_g157_h130_t27 -1 x_r2_g157 -1 x_r2_g130 >= -1 ;
1 p_r2_g162_h135_t27 -1 x_r2_g162 <= 0 ;
1 p_r2_g162_h135_t27 -1 x_r2_g135 <= 0 ;
1 p_r2_g162_h135_t27 -1 x_r2_g162 -1 x_r2_g135 >= -1 ;
1 p_r3_g21_h161_t27 -1 x_r3_g21 <= 0 ;
1 p_r3_g21_h161_t27 -1 x_r3_g161 <= 0 ;
1 p_r3_g21_h161_t27 -1 x_r3_g21 -1 x_r3_g161 >= -1 ;
1 p_r3_g26_h166_t27 -1 x_r3_g26 <= 0 ;
1 p_r3_g26_h166_t27 -1 x_r3_g166 <= 0 ;
1 p_r3_g26_h166_t27 -1 x_r3_g26 -1 x_r3_g166 >= -1 ;
1 p_r3_g51_h24_t27 -1 x_r3_g51 <= 0 ;
1 p_r3_g51_h24_t27 -1 x_r3_g24 <= 0 ;
1 p_r3_g51_h24_t27 -1 x_r3_g51 -1 x_r3_g24 >= -1 ;
1 p_r3_g53_h26_t27 -1 x_r3_g53 <= 0 ;
1 p_r3_g53_h26_t27 -1 x_r3_g26 <= 0 ;
1 p_r3_g53_h26_t27 -1 x_r3_g53 -1 x_r3_g26 >= -1 ;
1 p_r3_g66_h39_t27 -1 x_r3_g66 <= 0 ;
1 p_r3_g66_h39_t27 -1 x_r3_g39 <= 0 ;
1 p_r3_g66_h39_t27 -1 x_r3_g66 -1 x_r3_g39 >= -1 ;
1 p_r3_g69_h42_t27 -1 x_r3_g69 <= 0 ;
1 p_r3_g69_h42_t27 -1 x_r3_g42 <= 0 ;
1 p_r3_g69_h42_t27 -1 x_r3_g69 -1 x_r3_g42 >= -1 ;
1 p_r3_g87_h60_t27 -1 x_r3_g87 <= 0 ;
1 p_r3_g87_h60_t27 -1 x_r3_g60 <= 0 ;
1 p_r3_g87_h60_t27 -1 x_r3_g87 -1 x_r3_g60 >= -1 ;
1 p_r3_g89_h62_t27 -1 x_r3_g89 <= 0 ;
1 p_r3_g89_h62_t27 -1 x_r3_g62 <= 0 ;
1 p_r3_g89_h62_t27 -1 x_r3_g89 -1 x_r3_g62 >= -1 ;
1 p_r3_g96_h69_t27 -1 x_r3_g96 <= 0 ;
1 p_r3_g96_h69_t27 -1 x_r3_g69 <= 0 ;
1 p_r3_g96_h69_t27 -1 x_r3_g96 -1 x_r3_g69 >= -1 ;
1 p_r3_g100_h73_t27 -1 x_r3_g100 <= 0 ;
1 p_r3_g100_h73_t27 -1 x_r3_g73 <= 0 ;
1 p_r3_g100_h73_t27 -1 x_r3_g100 -1 x_r3_g73 >= -1 ;
1 p_r3_g117_h90_t27 -1 x_r3_g117 <= 0 ;
1 p_r3_g117_h90_t27 -1 x_r3_g90 <= 0 ;
1 p_r3_g117_h90_t27 -1 x_r3_g117 -1 x_r3_g90 >= -1 ;
1 p_r3_g151_h124_t27 -1 x_r3_g151 <= 0 ;
1 p_r3_g151_h124_t27 -1 x_r3_g124 <= 0 ;
1 p_r3_g151_h124_t27 -1 x_r3_g151 -1 x_r3_g124 >= -1 ;
1 d_27 -2 x_r0_g11 -1 x_r0_g12 -2 x_r0_g15 -1 x_r0_g19 -1 x_r0_g24 -1 x_r0_g47 -1 x_r0_g57 -1 x_r0_g65 -1 x_r0_g69 -1 x_r0_g72 -1 x_r0_g74 -1 x_r0_g79 -1 x_r0_g85 -2 x_r0_g89 -1 x_r0_g91 -1 x_r0_g93 -1 x_r0_g112 -1 x_r0_g124 -2 x_r0_g143 -1 x_r0_g146 -1 x_r0_g150 -1 x_r0_g159 -1 x_r1_g5 -1 x_r1_g6 -1 x_r1_g42 -1 x_r1_g43 -1 x_r1_g60 -2 x_r1_g64 -1 x_r1_g68 -1 x_r1_g69 -2 x_r1_g76 -1 x_r1_g84 -1 x_r1_g88 -2 x_r1_g127 -1 x_r1_g129 -1 x_r1_g141 -2 x_r1_g155 -1 x_r2_g13 -1 x_r2_g21 -1 x_r2_g27 -1 x_r2_g34 -1 x_r2_g45 -1 x_r2_g51 -1 x_r2_g52 -2 x_r2_g53 -1 x_r2_g58 -1 x_r2_g73 -2 x_r2_g83 -1 x_r2_g91 -1 x_r2_g93 -1 x_r2_g101 -2 x_r2_g105 -1 x_r2_g124 -1 x_r2_g133 -2 x_r2_g141 -2 x_r2_g147 -1 x_r2_g161 -2 x_r3_g5 -2 x_r3_g22 -1 x_r3_g23 -1 x_r3_g31 -1 x_r3_g34 -1 x_r3_g38 -1 x_r3_g39 -1 x_r3_g51 -1 x_r3_g53 -1 x_r3_g68 -1 x_r3_g73 -1 x_r3_g83 -1 x_r3_g96 -1 x_r3_g100 -1 x_r3_g117 -1 x_r3_g118 -1 x_r3_g125 -1 x_r3_g137 -2 x_r3_g149 -1 x_r3_g153 -1 x_r3_g154 -1 x_r3_g156 -1 x_r3_g158 -1 x_r3_g161 -1 x_r3_g166 -1 p_r0_g19_h159_t27 -1 p_r0_g34_h7_t27 -1 p_r0_g39_h12_t27 -1 p_r0_g66_h39_t27 -1 p_r0_g74_h47_t27 -1 p_r0_g93_h66_t27 -1 p_r0_g106_h79_t27 -1 p_r0_g112_h85_t27 -1 p_r0_g135_h108_t27 -1 p_r0_g146_h119_t27 -1 p_r0_g163_h136_t27 -1 p_r1_g1_h141_t27 -1 p_r1_g5_h145_t27 -1 p_r1_g21_h161_t27 -1 p_r1_g23_h163_t27 -1 p_r1_g48_h21_t27 -1 p_r1_g50_h23_t27 -1 p_r1_g56_h29_t27 -1 p_r1_g61_h34_t27 -1 p_r1_g69_h42_t27 -1 p_r1_g77_h50_t27 -1 p_r1_g88_h61_t27 -1 p_r1_g104_h77_t27 -1 p_r1_g109_h82_t27 -1 p_r2_g21_h161_t27 -1 p_r2_g40_h13_t27 -1 p_r2_g61_h34_t27 -1 p_r2_g85_h58_t27 -1 p_r2_g101_h74_t27 -1 p_r2_g112_h85_t27 -1 p_r2_g118_h91_t27 -1 p_r2_g130_h103_t27 -1 p_r2_g133_h106_t27 -1 p_r2_g139_h112_t27 -1 p_r2_g157_h130_t27 -1 p_r2_g162_h135_t27 -1 p_r3_g21_h161_t27 -1 p_r3_g26_h166_t27 -1 p_r3_g51_h24_t27 -1 p_r3_g53_h26_t27 -1 p_r3_g66_h39_t27 -1 p_r3_g69_h42_t27 -1 p_r3_g87_h60_t27 -1 p_r3_g89_h62_t27 -1 p_r3_g96_h69_t27 -1 p_r3_g100_h73_t27 -1 p_r3_g117_h90_t27 -1 p_r3_g151_h124_t27 = -74 ;
1 d_27 -1 u_27 <= 0 ;
-1 d_27 -1 u_27 <= 0 ;
1 u_27 -1 M <= 0 ;
1 u_27 <= 2 ;
1 p_r0_g4_h142_t29 -1 x_r0_g4 <= 0 ;
1 p_r0_g4_h142_t29 -1 x_r0_g142 <= 0 ;
1 p_r0_g4_h142_t29 -1 x_r0_g4 -1 x_r0_g142 >= -1 ;
1 p_r0_g5_h143_t29 -1 x_r0_g5 <= 0 ;
1 p_r0_g5_h143_t29 -1 x_r0_g143 <= 0 ;
1 p_r0_g5_h143_t29 -1 x_r0_g5 -1 x_r0_g143 >= -1 ;
1 p_r0_g12_h150_t29 -1 x_r0_g12 <= 0 ;
1 p_r0_g12_h150_t29 -1 x_r0_g150 <= 0 ;
1 p_r0_g12_h150_t29 -1 x_r0_g12 -1 x_r0_g150 >= -1 ;
1 p_r0_g34_h5_t29 -1 x_r0_g34 <= 0 ;
1 p_r0_g34_h5_t29 -1 x_r0_g5 <= 0 ;
1 p_r0_g34_h5_t29 -1 x_r0_g34 -1 x_r0_g5 >= -1 ;
1 p_r0_g53_h24_t29 -1 x_r0_g53 <= 0 ;
1 p_r0_g53_h24_t29 -1 x_r0_g24 <= 0 ;
1 p_r0_g53_h24_t29 -1 x_r0_g53 -1 x_r0_g24 >= -1 ;
1 p_r0_g85_h56_t29 -1 x_r0_g85 <= 0 ;
1 p_r0_g85_h56_t29 -1 x_r0_g56 <= 0 ;
1 p_r0_g85_h56_t29 -1 x_r0_g85 -1 x_r0_g56 >= -1 ;
1 p_r0_g103_h74_t29 -1 x_r0_g103 <= 0 ;
1 p_r0_g103_h74_t29 -1 x_r0_g74 <= 0 ;
1 p_r0_g103_h74_t29 -1 x_r0_g103 -1 x_r0_g74 >= -1 ;
1 p_r0_g108_h79_t29 -1 x_r0_g108 <= 0 ;
1 p_r0_g108_h79_t29 -1 x_r0_g79 <= 0 ;
1 p_r0_g108_h79_t29 -1 x_r0_g108 -1 x_r0_g79 >= -1 ;
1 p_r0_g135_h106_t29 -1 x_r0_g135 <= 0 ;
1 p_r0_g135_h106_t29 -1 x_r0_g106 <= 0 ;
1 p_r0_g135_h106_t29 -1 x_r0_g135 -1 x_r0_g106 >= -1 ;
1 p_r1_g23_h161_t29 -1 x_r1_g23 <= 0 ;
1 p_r1_g23_h161_t29 -1 x_r1_g161 <= 0 ;
1 p_r1_g23_h161_t29 -1 x_r1_g23 -1 x_r1_g161 >= -1 ;
1 p_r1_g34_h5_t29 -1 x_r1_g34 <= 0 ;
1 p_r1_g34_h5_t29 -1 x_r1_g5 <= 0 ;
1 p_r1_g34_h5_t29 -1 x_r1_g34 -1 x_r1_g5 >= -1 ;
1 p_r1_g50_h21_t29 -1 x_r1_g50 <= 0 ;
1 p_r1_g50_h21_t29 -1 x_r1_g21 <= 0 ;
1 p_r1_g50_h21_t29 -1 x_r1_g50 -1 x_r1_g21 >= -1 ;
1 p_r1_g69_h40_t29 -1 x_r1_g69 <= 0 ;
1 p_r1_g69_h40_t29 -1 x_r1_g40 <= 0 ;
1 p_r1_g69_h40_t29 -1 x_r1_g69 -1 x_r1_g40 >= -1 ;
1 p_r1_g77_h48_t29 -1 x_r1_g77 <= 0 ;
1 p_r1_g77_h48_t29 -1 x_r1_g48 <= 0 ;
1 p_r1_g77_h48_t29 -1 x_r1_g77 -1 x_r1_g48 >= -1 ;
1 p_r1_g98_h69_t29 -1 x_r1_g98 <= 0 ;
1 p_r1_g98_h69_t29 -1 x_r1_g69 <= 0 ;
1 p_r1_g98_h69_t29 -1 x_r1_g98 -1 x_r1_g69 >= -1 ;
1 p_r1_g127_h98_t29 -1 x_r1_g127 <= 0 ;
1 p_r1_g127_h98_t29 -1 x_r1_g98 <= 0 ;
1 p_r1_g127_h98_t29 -1 x_r1_g127 -1 x_r1_g98 >= -1 ;
1 p_r1_g138_h109_t29 -1 x_r1_g138 <= 0 ;
1 p_r1_g138_h109_t29 -1 x_r1_g109 <= 0 ;
1 p_r1_g138_h109_t29 -1 x_r1_g138 -1 x_r1_g109 >= -1 ;
1 p_r2_g61_h32_t29 -1 x_r2_g61 <= 0 ;
1 p_r2_g61_h32_t29 -1 x_r2_g32 <= 0 ;
1 p_r2_g61_h32_t29 -1 x_r2_g61 -1 x_r2_g32 >= -1 ;
1 p_r2_g74_h45_t29 -1 x_r2_g74 <= 0 ;
1 p_r2_g74_h45_t29 -1 x_r2_g45 <= 0 ;
1 p_r2_g74_h45_t29 -1 x_r2_g74 -1 x_r2_g45 >= -1 ;
1 p_r2_g103_h74_t29 -1 x_r2_g103 <= 0 ;
1 p_r2_g103_h74_t29 -1 x_r2_g74 <= 0 ;
1 p_r2_g103_h74_t29 -1 x_r2_g103 -1 x_r2_g74 >= -1 ;
1 p_r2_g112_h83_t29 -1 x_r2_g112 <= 0 ;
1 p_r2_g112_h83_t29 -1 x_r2_g83 <= 0 ;
1 p_r2_g112_h83_t29 -1 x_r2_g112 -1 x_r2_g83 >= -1 ;
1 p_r2_g130_h101_t29 -1 x_r2_g130 <= 0 ;
1 p_r2_g130_h101_t29 -1 x_r2_g101 <= 0 ;
1 p_r2_g130_h101_t29 -1 x_r2_g130 -1 x_r2_g101 >= -1 ;
1 p_r2_g133_h104_t29 -1 x_r2_g133 <= 0 ;
1 p_r2_g133_h104_t29 -1 x_r2_g104 <= 0 ;
1 p_r2_g133_h104_t29 -1 x_r2_g133 -1 x_r2_g104 >= -1 ;
1 p_r2_g135_h106_t29 -1 x_r2_g135 <= 0 ;
1 p_r2_g135_h106_t29 -1 x_r2_g106 <= 0 ;
1 p_r2_g135_h106_t29 -1 x_r2_g135 -1 x_r2_g106 >= -1 ;
1 p_r2_g141_h112_t29 -1 x_r2_g141 <= 0 ;
1 p_r2_g141_h112_t29 -1 x_r2_g112 <= 0 ;
1 p_r2_g141_h112_t29 -1 x_r2_g141 -1 x_r2_g112 >= -1 ;
1 p_r2_g147_h118_t29 -1 x_r2_g147 <= 0 ;
1 p_r2_g147_h118_t29 -1 x_r2_g118 <= 0 ;
1 p_r2_g147_h118_t29 -1 x_r2_g147 -1 x_r2_g118 >= -1 ;
1 p_r2_g162_h133_t29 -1 x_r2_g162 <= 0 ;
1 p_r2_g162_h133_t29 -1 x_r2_g133 <= 0 ;
1 p_r2_g162_h133_t29 -1 x_r2_g162 -1 x_r2_g133 >= -1 ;
1 p_r3_g23_h161_t29 -1 x_r3_g23 <= 0 ;
1 p_r3_g23_h161_t29 -1 x_r3_g161 <= 0 ;
1 p_r3_g23_h161_t29 -1 x_r3_g23 -1 x_r3_g161 >= -1 ;
1 p_r3_g34_h5_t29 -1 x_r3_g34 <= 0 ;
1 p_r3_g34_h5_t29 -1 x_r3_g5 <= 0 ;
1 p_r3_g34_h5_t29 -1 x_r3_g34 -1 x_r3_g5 >= -1 ;
1 p_r3_g51_h22_t29 -1 x_r3_g51 <= 0 ;
1 p_r3_g51_h22_t29 -1 x_r3_g22 <= 0 ;
1 p_r3_g51_h22_t29 -1 x_r3_g51 -1 x_r3_g22 >= -1 ;
1 p_r3_g53_h24_t29 -1 x_r3_g53 <= 0 ;
1 p_r3_g53_h24_t29 -1 x_r3_g24 <= 0 ;
1 p_r3_g53_h24_t29 -1 x_r3_g53 -1 x_r3_g24 >= -1 ;
1 p_r3_g60_h31_t29 -1 x_r3_g60 <= 0 ;
1 p_r3_g60_h31_t29 -1 x_r3_g31 <= 0 ;
1 p_r3_g60_h31_t29 -1 x_r3_g60 -1 x_r3_g31 >= -1 ;
1 p_r3_g68_h39_t29 -1 x_r3_g68 <= 0 ;
1 p_r3_g68_h39_t29 -1 x_r3_g39 <= 0 ;
1 p_r3_g68_h39_t29 -1 x_r3_g68 -1 x_r3_g39 >= -1 ;
1 p_r3_g89_h60_t29 -1 x_r3_g89 <= 0 ;
1 p_r3_g89_h60_t29 -1 x_r3_g60 <= 0 ;
1 p_r3_g89_h60_t29 -1 x_r3_g89 -1 x_r3_g60 >= -1 ;
1 p_r3_g118_h89_t29 -1 x_r3_g118 <= 0 ;
1 p_r3_g118_h89_t29 -1 x_r3_g89 <= 0 ;
1 p_r3_g118_h89_t29 -1 x_r3_g118 -1 x_r3_g89 >= -1 ;
1 p_r3_g125_h96_t29 -1 x_r3_g125 <= 0 ;
1 p_r3_g125_h96_t29 -1 x_r3_g96 <= 0 ;
1 p_r3_g125_h96_t29 -1 x_r3_g125 -1 x_r3_g96 >= -1 ;
1 p_r3_g153_h124_t29 -1 x_r3_g153 <= 0 ;
1 p_r3_g153_h124_t29 -1 x_r3_g124 <= 0 ;
1 p_r3_g153_h124_t29 -1 x_r3_g153 -1 x_r3_g124 >= -1 ;
1 p_r3_g154_h125_t29 -1 x_r3_g154 <= 0 ;
1 p_r3_g154_h125_t29 -1 x_r3_g125 <= 0 ;
1 p_r3_g154_h125_t29 -1 x_r3_g154 -1 x_r3_g125 >= -1 ;
1 p_r3_g166_h137_t29 -1 x_r3_g166 <= 0 ;
1 p_r3_g166_h137_t29 -1 x_r3_g137 <= 0 ;
1 p_r3_g166_h137_t29 -1 x_r3_g166 -1 x_r3_g137 >= -1 ;
1 d_29 -2 x_r0_g1 -1 x_r0_g7 -2 x_r0_g11 -2 x_r0_g19 -1 x_r0_g34 -1 x_r0_g39 -1 x_r0_g65 -1 x_r0_g66 -2 x_r0_g69 -2 x_r0_g72 -1 x_r0_g74 -1 x_r0_g89 -2 x_r0_g91 -1 x_r0_g93 -1 x_r0_g103 -1 x_r0_g106 -1 x_r0_g108 -1 x_r0_g119 -1 x_r0_g126 -1 x_r0_g136 -1 x_r0_g142 -1 x_r0_g163 -1 x_r1_g21 -1 x_r1_g36 -1 x_r1_g40 -1 x_r1_g50 -1 x_r1_g56 -2 x_r1_g60 -2 x_r1_g61 -1 x_r1_g68 -1 x_r1_g74 -1 x_r1_g82 -1 x_r1_g84 -2 x_r1_g99 -1 x_r1_g109 -1 x_r1_g124 -1 x_r1_g127 -1 x_r1_g129 -2 x_r1_g141 -2 x_r1_g148 -1 x_r1_g161 -1 x_r1_g163 -1 x_r2_g13 -1 x_r2_g15 -2 x_r2_g27 -1 x_r2_g30 -1 x_r2_g34 -1 x_r2_g35 -1 x_r2_g51 -1 x_r2_g53 -1 x_r2_g61 -1 x_r2_g73 -2 x_r2_g85 -1 x_r2_g91 -2 x_r2_g93 -1 x_r2_g103 -1 x_r2_g104 -1 x_r2_g105 -2 x_r2_g111 -2 x_r2_g119 -1 x_r2_g124 -2 x_r2_g139 -1 x_r2_g157 -1 x_r2_g161 -1 x_r3_g5 -1 x_r3_g17 -1 x_r3_g22 -1 x_r3_g24 -1 x_r3_g25 -1 x_r3_g26 -1 x_r3_g31 -1 x_r3_g38 -1 x_r3_g42 -1 x_r3_g51 -1 x_r3_g66 -2 x_r3_g69 -1 x_r3_g83 -2 x_r3_g90 -1 x_r3_g100 -1 x_r3_g117 -1 x_r3_g137 -2 x_r3_g151 -2 x_r3_g156 -2 x_r3_g158 -1 x_r3_g166 -1 p_r0_g4_h142_t29 -1 p_r0_g5_h143_t29 -1 p_r0_g12_h150_t29 -1 p_r0_g34_h5_t29 -1 p_r0_g53_h24_t29 -1 p_r0_g85_h56_t29 -1 p_r0_g103_h74_t29 -1 p_r0_g108_h79_t29 -1 p_r0_g135_h106_t29 -1 p_r1_g23_h161_t29 -1 p_r1_g34_h5_t29 -1 p_r1_g50_h21_t29 -1 p_r1_g69_h40_t29 -1 p_r1_g77_h48_t29 -1 p_r1_g98_h69_t29 -1 p_r1_g127_h98_t29 -1 p_r1_g138_h109_t29 -1 p_r2_g61_h32_t29 -1 p_r2_g74_h45_t29 -1 p_r2_g103_h74_t29 -1 p_r2_g112_h83_t29 -1 p_r2_g130_h101_t29 -1 p_r2_g133_h104_t29 -1 p_r2_g135_h106_t29 -1 p_r2_g141_h112_t29 -1 p_r2_g147_h118_t29 -1 p_r2_g162_h133_t29 -1 p_r3_g23_h161_t29 -1 p_r3_g34_h5_t29 -1 p_r3_g51_h22_t29 -1 p_r3_g53_h24_t29 -1 p_r3_g60_h31_t29 -1 p_r3_g68_h39_t29 -1 p_r3_g89_h60_t29 -1 p_r3_g118_h89_t29 -1 p_r3_g125_h96_t29 -1 p_r3_g153_h124_t29 -1 p_r3_g154_h125_t29 -1 p_r3_g166_h137_t29 = -67 ;
1 d_29 -1 u_29 <= 0 ;
-1 d_29 -1 u_29 <= 0 ;
1 u_29 -1 M <= 0 ;
1 u_29 <= 1 ;
1 p_r0_g39_h5_t34 -1 x_r0_g39 <= 0 ;
1 p_r0_g39_h5_t34 -1 x_r0_g5 <= 0 ;
1 p_r0_g39_h5_t34 -1 x_r0_g39 -1 x_r0_g5 >= -1 ;
1 p_r0_g53_h19_t34 -1 x_r0_g53 <= 0 ;
1 p_r0_g53_h19_t34 -1 x_r0_g19 <= 0 ;
1 p_r0_g53_h19_t34 -1 x_r0_g53 -1 x_r0_g19 >= -1 ;
1 p_r0_g91_h57_t34 -1 x_r0_g91 <= 0 ;
1 p_r0_g91_h57_t34 -1 x_r0_g57 <= 0 ;
1 p_r0_g91_h57_t34 -1 x_r0_g91 -1 x_r0_g57 >= -1 ;
1 p_r0_g103_h69_t34 -1 x_r0_g103 <= 0 ;
1 p_r0_g103_h69_t34 -1 x_r0_g69 <= 0 ;
1 p_r0_g103_h69_t34 -1 x_r0_g103 -1 x_r0_g69 >= -1 ;
1 p_r0_g106_h72_t34 -1 x_r0_g106 <= 0 ;
1 p_r0_g106_h72_t34 -1 x_r0_g72 <= 0 ;
1 p_r0_g106_h72_t34 -1 x_r0_g106 -1 x_r0_g72 >= -1 ;
1 p_r0_g108_h74_t34 -1 x_r0_g108 <= 0 ;
1 p_r0_g108_h74_t34 -1 x_r0_g74 <= 0 ;
1 p_r0_g108_h74_t34 -1 x_r0_g108 -1 x_r0_g74 >= -1 ;
1 p_r0_g119_h85_t34 -1 x_r0_g119 <= 0 ;
1 p_r0_g119_h85_t34 -1 x_r0_g85 <= 0 ;
1 p_r0_g119_h85_t34 -1 x_r0_g119 -1 x_r0_g85 >= -1 ;
1 p_r0_g142_h108_t34 -1 x_r0_g142 <= 0 ;
1 p_r0_g142_h108_t34 -1 x_r0_g108 <= 0 ;
1 p_r0_g142_h108_t34 -1 x_r0_g142 -1 x_r0_g108 >= -1 ;
1 p_r0_g146_h112_t34 -1 x_r0_g146 <= 0 ;
1 p_r0_g146_h112_t34 -1 x_r0_g112 <= 0 ;
1 p_r0_g146_h112_t34 -1 x_r0_g146 -1 x_r0_g112 >= -1 ;
1 p_r1_g5_h138_t34 -1 x_r1_g5 <= 0 ;
1 p_r1_g5_h138_t34 -1 x_r1_g138 <= 0 ;
1 p_r1_g5_h138_t34 -1 x_r1_g5 -1 x_r1_g138 >= -1 ;
1 p_r1_g29_h162_t34 -1 x_r1_g29 <= 0 ;
1 p_r1_g29_h162_t34 -1 x_r1_g162 <= 0 ;
1 p_r1_g29_h162_t34 -1 x_r1_g29 -1 x_r1_g162 >= -1 ;
1 p_r1_g40_h6_t34 -1 x_r1_g40 <= 0 ;
1 p_r1_g40_h6_t34 -1 x_r1_g6 <= 0 ;
1 p_r1_g40_h6_t34 -1 x_r1_g40 -1 x_r1_g6 >= -1 ;
1 p_r1_g68_h34_t34 -1 x_r1_g68 <= 0 ;
1 p_r1_g68_h34_t34 -1 x_r1_g34 <= 0 ;
1 p_r1_g68_h34_t34 -1 x_r1_g68 -1 x_r1_g34 >= -1 ;
1 p_r1_g74_h40_t34 -1 x_r1_g74 <= 0 ;
1 p_r1_g74_h40_t34 -1 x_r1_g40 <= 0 ;
1 p_r1_g74_h40_t34 -1 x_r1_g74 -1 x_r1_g40 >= -1 ;
1 p_r1_g76_h42_t34 -1 x_r1_g76 <= 0 ;
1 p_r1_g76_h42_t34 -1 x_r1_g42 <= 0 ;
1 p_r1_g76_h42_t34 -1 x_r1_g76 -1 x_r1_g42 >= -1 ;
1 p_r1_g77_h43_t34 -1 x_r1_g77 <= 0 ;
1 p_r1_g77_h43_t34 -1 x_r1_g43 <= 0 ;
1 p_r1_g77_h43_t34 -1 x_r1_g77 -1 x_r1_g43 >= -1 ;
1 p_r1_g82_h48_t34 -1 x_r1_g82 <= 0 ;
1 p_r1_g82_h48_t34 -1 x_r1_g48 <= 0 ;
1 p_r1_g82_h48_t34 -1 x_r1_g82 -1 x_r1_g48 >= -1 ;
1 p_r1_g84_h50_t34 -1 x_r1_g84 <= 0 ;
1 p_r1_g84_h50_t34 -1 x_r1_g50 <= 0 ;
1 p_r1_g84_h50_t34 -1 x_r1_g84 -1 x_r1_g50 >= -1 ;
1 p_r1_g98_h64_t34 -1 x_r1_g98 <= 0 ;
1 p_r1_g98_h64_t34 -1 x_r1_g64 <= 0 ;
1 p_r1_g98_h64_t34 -1 x_r1_g98 -1 x_r1_g64 >= -1 ;
1 p_r1_g138_h104_t34 -1 x_r1_g138 <= 0 ;
1 p_r1_g138_h104_t34 -1 x_r1_g104 <= 0 ;
1 p_r1_g138_h104_t34 -1 x_r1_g138 -1 x_r1_g104 >= -1 ;
1 p_r1_g161_h127_t34 -1 x_r1_g161 <= 0 ;
1 p_r1_g161_h127_t34 -1 x_r1_g127 <= 0 ;
1 p_r1_g161_h127_t34 -1 x_r1_g161 -1 x_r1_g127 >= -1 ;
1 p_r1_g163_h129_t34 -1 x_r1_g163 <= 0 ;
1 p_r1_g163_h129_t34 -1 x_r1_g129 <= 0 ;
1 p_r1_g163_h129_t34 -1 x_r1_g163 -1 x_r1_g129 >= -1 ;
1 p_r2_g61_h27_t34 -1 x_r2_g61 <= 0 ;
1 p_r2_g61_h27_t34 -1 x_r2_g27 <= 0 ;
1 p_r2_g61_h27_t34 -1 x_r2_g61 -1 x_r2_g27 >= -1 ;
1 p_r2_g74_h40_t34 -1 x_r2_g74 <= 0 ;
1 p_r2_g74_h40_t34 -1 x_r2_g40 <= 0 ;
1 p_r2_g74_h40_t34 -1 x_r2_g74 -1 x_r2_g40 >= -1 ;
1 p_r2_g85_h51_t34 -1 x_r2_g85 <= 0 ;
1 p_r2_g85_h51_t34 -1 x_r2_g51 <= 0 ;
1 p_r2_g85_h51_t34 -1 x_r2_g85 -1 x_r2_g51 >= -1 ;
1 p_r2_g119_h85_t34 -1 x_r2_g119 <= 0 ;
1 p_r2_g119_h85_t34 -1 x_r2_g85 <= 0 ;
1 p_r2_g119_h85_t34 -1 x_r2_g119 -1 x_r2_g85 >= -1 ;
1 p_r2_g135_h101_t34 -1 x_r2_g135 <= 0 ;
1 p_r2_g135_h101_t34 -1 x_r2_g101 <= 0 ;
1 p_r2_g135_h101_t34 -1 x_r2_g135 -1 x_r2_g101 >= -1 ;
1 p_r2_g139_h105_t34 -1 x_r2_g139 <= 0 ;
1 p_r2_g139_h105_t34 -1 x_r2_g105 <= 0 ;
1 p_r2_g139_h105_t34 -1 x_r2_g139 -1 x_r2_g105 >= -1 ;
1 p_r3_g21_h154_t34 -1 x_r3_g21 <= 0 ;
1 p_r3_g21_h154_t34 -1 x_r3_g154 <= 0 ;
1 p_r3_g21_h154_t34 -1 x_r3_g21 -1 x_r3_g154 >= -1 ;
1 p_r3_g23_h156_t34 -1 x_r3_g23 <= 0 ;
1 p_r3_g23_h156_t34 -1 x_r3_g156 <= 0 ;
1 p_r3_g23_h156_t34 -1 x_r3_g23 -1 x_r3_g156 >= -1 ;
1 p_r3_g25_h158_t34 -1 x_r3_g25 <= 0 ;
1 p_r3_g25_h158_t34 -1 x_r3_g158 <= 0 ;
1 p_r3_g25_h158_t34 -1 x_r3_g25 -1 x_r3_g158 >= -1 ;
1 p_r3_g39_h5_t34 -1 x_r3_g39 <= 0 ;
1 p_r3_g39_h5_t34 -1 x_r3_g5 <= 0 ;
1 p_r3_g39_h5_t34 -1 x_r3_g39 -1 x_r3_g5 >= -1 ;
1 p_r3_g51_h17_t34 -1 x_r3_g51 <= 0 ;
1 p_r3_g51_h17_t34 -1 x_r3_g17 <= 0 ;
1 p_r3_g51_h17_t34 -1 x_r3_g51 -1 x_r3_g17 >= -1 ;
1 p_r3_g60_h26_t34 -1 x_r3_g60 <= 0 ;
1 p_r3_g60_h26_t34 -1 x_r3_g26 <= 0 ;
1 p_r3_g60_h26_t34 -1 x_r3_g60 -1 x_r3_g26 >= -1 ;
1 p_r3_g68_h34_t34 -1 x_r3_g68 <= 0 ;
1 p_r3_g68_h34_t34 -1 x_r3_g34 <= 0 ;
1 p_r3_g68_h34_t34 -1 x_r3_g68 -1 x_r3_g34 >= -1 ;
1 p_r3_g73_h39_t34 -1 x_r3_g73 <= 0 ;
1 p_r3_g73_h39_t34 -1 x_r3_g39 <= 0 ;
1 p_r3_g73_h39_t34 -1 x_r3_g73 -1 x_r3_g39 >= -1 ;
1 p_r3_g87_h53_t34 -1 x_r3_g87 <= 0 ;
1 p_r3_g87_h53_t34 -1 x_r3_g53 <= 0 ;
1 p_r3_g87_h53_t34 -1 x_r3_g87 -1 x_r3_g53 >= -1 ;
1 p_r3_g96_h62_t34 -1 x_r3_g96 <= 0 ;
1 p_r3_g96_h62_t34 -1 x_r3_g62 <= 0 ;
1 p_r3_g96_h62_t34 -1 x_r3_g96 -1 x_r3_g62 >= -1 ;
1 p_r3_g100_h66_t34 -1 x_r3_g100 <= 0 ;
1 p_r3_g100_h66_t34 -1 x_r3_g66 <= 0 ;
1 p_r3_g100_h66_t34 -1 x_r3_g100 -1 x_r3_g66 >= -1 ;
1 p_r3_g117_h83_t34 -1 x_r3_g117 <= 0 ;
1 p_r3_g117_h83_t34 -1 x_r3_g83 <= 0 ;
1 p_r3_g117_h83_t34 -1 x_r3_g117 -1 x_r3_g83 >= -1 ;
1 p_r3_g124_h90_t34 -1 x_r3_g124 <= 0 ;
1 p_r3_g124_h90_t34 -1 x_r3_g90 <= 0 ;
1 p_r3_g124_h90_t34 -1 x_r3_g124 -1 x_r3_g90 >= -1 ;
1 p_r3_g151_h117_t34 -1 x_r3_g151 <= 0 ;
1 p_r3_g151_h117_t34 -1 x_r3_g117 <= 0 ;
1 p_r3_g151_h117_t34 -1 x_r3_g151 -1 x_r3_g117 >= -1 ;
1 p_r3_g158_h124_t34 -1 x_r3_g158 <= 0 ;
1 p_r3_g158_h124_t34 -1 x_r3_g124 <= 0 ;
1 p_r3_g158_h124_t34 -1 x_r3_g158 -1 x_r3_g124 >= -1 ;
1 d_34 -2 x_r0_g4 -1 x_r0_g11 -1 x_r0_g12 -1 x_r0_g15 -1 x_r0_g19 -2 x_r0_g24 -1 x_r0_g34 -1 x_r0_g47 -1 x_r0_g56 -1 x_r0_g66 -1 x_r0_g72 -1 x_r0_g74 -2 x_r0_g79 -1 x_r0_g85 -2 x_r0_g89 -2 x_r0_g93 -1 x_r0_g103 -2 x_r0_g124 -1 x_r0_g126 -1 x_r0_g135 -2 x_r0_g136 -1 x_r0_g146 -1 x_r0_g150 -1 x_r0_g163 -1 x_r1_g5 -1 x_r1_g21 -2 x_r1_g23 -1 x_r1_g36 -1 x_r1_g56 -1 x_r1_g60 -2 x_r1_g61 -1 x_r1_g69 -1 x_r1_g74 -1 x_r1_g98 -1 x_r1_g99 -1 x_r1_g104 -1 x_r1_g124 -1 x_r1_g129 -1 x_r1_g141 -2 x_r1_g148 -1 x_r1_g162 -2 x_r2_g15 -1 x_r2_g27 -2 x_r2_g30 -1 x_r2_g32 -2 x_r2_g34 -1 x_r2_g35 -2 x_r2_g52 -1 x_r2_g73 -1 x_r2_g83 -1 x_r2_g93 -1 x_r2_g103 -1 x_r2_g106 -1 x_r2_g112 -1 x_r2_g118 -1 x_r2_g119 -2 x_r2_g124 -1 x_r2_g133 -2 x_r2_g147 -2 x_r2_g161 -1 x_r2_g162 -1 x_r3_g5 -1 x_r3_g21 -1 x_r3_g25 -1 x_r3_g31 -1 x_r3_g38 -2 x_r3_g42 -1 x_r3_g53 -1 x_r3_g60 -1 x_r3_g62 -1 x_r3_g66 -1 x_r3_g83 -2 x_r3_g89 -1 x_r3_g100 -1 x_r3_g137 -1 x_r3_g151 -2 x_r3_g153 -1 x_r3_g156 -2 x_r3_g161 -1 p_r0_g39_h5_t34 -1 p_r0_g53_h19_t34 -1 p_r0_g91_h57_t34 -1 p_r0_g103_h69_t34 -1 p_r0_g106_h72_t34 -1 p_r0_g108_h74_t34 -1 p_r0_g119_h85_t34 -1 p_r0_g142_h108_t34 -1 p_r0_g146_h112_t34 -1 p_r1_g5_h138_t34 -1 p_r1_g29_h162_t34 -1 p_r1_g40_h6_t34 -1 p_r1_g68_h34_t34 -1 p_r1_g74_h40_t34 -1 p_r1_g76_h42_t34 -1 p_r1_g77_h43_t34 -1 p_r1_g82_h48_t34 -1 p_r1_g84_h50_t34 -1 p_r1_g98_h64_t34 -1 p_r1_g138_h104_t34 -1 p_r1_g161_h127_t34 -1 p_r1_g163_h129_t34 -1 p_r2_g61_h27_t34 -1 p_r2_g74_h40_t34 -1 p_r2_g85_h51_t34 -1 p_r2_g119_h85_t34 -1 p_r2_g135_h101_t34 -1 p_r2_g139_h105_t34 -1 p_r3_g21_h154_t34 -1 p_r3_g23_h156_t34 -1 p_r3_g25_h158_t34 -1 p_r3_g39_h5_t34 -1 p_r3_g51_h17_t34 -1 p_r3_g60_h26_t34 -1 p_r3_g68_h34_t34 -1 p_r3_g73_h39_t34 -1 p_r3_g87_h53_t34 -1 p_r3_g96_h62_t34 -1 p_r3_g100_h66_t34 -1 p_r3_g117_h83_t34 -1 p_r3_g124_h90_t34 -1 p_r3_g151_h117_t34 -1 p_r3_g158_h124_t34 = -46 ;
1 d_34 -1 u_34 <= 0 ;
-1 d_34 -1 u_34 <= 0 ;
1 u_34 -1 M <= 0 ;
1 u_34 <= 2 ;
1 p_r0_g4_h135_t36 -1 x_r0_g4 <= 0 ;
1 p_r0_g4_h135_t36 -1 x_r0_g135 <= 0 ;
1 p_r0_g4_h135_t36 -1 x_r0_g4 -1 x_r0_g135 >= -1 ;
1 p_r0_g5_h136_t36 -1 x_r0_g5 <= 0 ;
1 p_r0_g5_h136_t36 -1 x_r0_g136 <= 0 ;
1 p_r0_g5_h136_t36 -1 x_r0_g5 -1 x_r0_g136 >= -1 ;
1 p_r0_g11_h142_t36 -1 x_r0_g11 <= 0 ;
1 p_r0_g11_h142_t36 -1 x_r0_g142 <= 0 ;
1 p_r0_g11_h142_t36 -1 x_r0_g11 -1 x_r0_g142 >= -1 ;
1 p_r0_g12_h143_t36 -1 x_r0_g12 <= 0 ;
1 p_r0_g12_h143_t36 -1 x_r0_g143 <= 0 ;
1 p_r0_g12_h143_t36 -1 x_r0_g12 -1 x_r0_g143 >= -1 ;
1 p_r0_g15_h146_t36 -1 x_r0_g15 <= 0 ;
1 p_r0_g15_h146_t36 -1 x_r0_g146 <= 0 ;
1 p_r0_g15_h146_t36 -1 x_r0_g15 -1 x_r0_g146 >= -1 ;
1 p_r0_g19_h150_t36 -1 x_r0_g19 <= 0 ;
1 p_r0_g19_h150_t36 -1 x_r0_g150 <= 0 ;
1 p_r0_g19_h150_t36 -1 x_r0_g19 -1 x_r0_g150 >= -1 ;
1 p_r0_g47_h11_t36 -1 x_r0_g47 <= 0 ;
1 p_r0_g47_h11_t36 -1 x_r0_g11 <= 0 ;
1 p_r0_g47_h11_t36 -1 x_r0_g47 -1 x_r0_g11 >= -1 ;
1 p_r0_g89_h53_t36 -1 x_r0_g89 <= 0 ;
1 p_r0_g89_h53_t36 -1 x_r0_g53 <= 0 ;
1 p_r0_g89_h53_t36 -1 x_r0_g89 -1 x_r0_g53 >= -1 ;
1 p_r0_g93_h57_t36 -1 x_r0_g93 <= 0 ;
1 p_r0_g93_h57_t36 -1 x_r0_g57 <= 0 ;
1 p_r0_g93_h57_t36 -1 x_r0_g93 -1 x_r0_g57 >= -1 ;
1 p_r0_g108_h72_t36 -1 x_r0_g108 <= 0 ;
1 p_r0_g108_h72_t36 -1 x_r0_g72 <= 0 ;
1 p_r0_g108_h72_t36 -1 x_r0_g108 -1 x_r0_g72 >= -1 ;
1 p_r0_g142_h106_t36 -1 x_r0_g142 <= 0 ;
1 p_r0_g142_h106_t36 -1 x_r0_g106 <= 0 ;
1 p_r0_g142_h106_t36 -1 x_r0_g142 -1 x_r0_g106 >= -1 ;
1 p_r1_g42_h6_t36 -1 x_r1_g42 <= 0 ;
1 p_r1_g42_h6_t36 -1 x_r1_g6 <= 0 ;
1 p_r1_g42_h6_t36 -1 x_r1_g42 -1 x_r1_g6 >= -1 ;
1 p_r1_g76_h40_t36 -1 x_r1_g76 <= 0 ;
1 p_r1_g76_h40_t36 -1 x_r1_g40 <= 0 ;
1 p_r1_g76_h40_t36 -1 x_r1_g76 -1 x_r1_g40 >= -1 ;
1 p_r1_g84_h48_t36 -1 x_r1_g84 <= 0 ;
1 p_r1_g84_h48_t36 -1 x_r1_g48 <= 0 ;
1 p_r1_g84_h48_t36 -1 x_r1_g84 -1 x_r1_g48 >= -1 ;
1 p_r1_g104_h68_t36 -1 x_r1_g104 <= 0 ;
1 p_r1_g104_h68_t36 -1 x_r1_g68 <= 0 ;
1 p_r1_g104_h68_t36 -1 x_r1_g104 -1 x_r1_g68 >= -1 ;
1 p_r1_g124_h88_t36 -1 x_r1_g124 <= 0 ;
1 p_r1_g124_h88_t36 -1 x_r1_g88 <= 0 ;
1 p_r1_g124_h88_t36 -1 x_r1_g124 -1 x_r1_g88 >= -1 ;
1 p_r1_g145_h109_t36 -1 x_r1_g145 <= 0 ;
1 p_r1_g145_h109_t36 -1 x_r1_g109 <= 0 ;
1 p_r1_g145_h109_t36 -1 x_r1_g145 -1 x_r1_g109 >= -1 ;
1 p_r1_g163_h127_t36 -1 x_r1_g163 <= 0 ;
1 p_r1_g163_h127_t36 -1 x_r1_g127 <= 0 ;
1 p_r1_g163_h127_t36 -1 x_r1_g163 -1 x_r1_g127 >= -1 ;
1 p_r2_g30_h161_t36 -1 x_r2_g30 <= 0 ;
1 p_r2_g30_h161_t36 -1 x_r2_g161 <= 0 ;
1 p_r2_g30_h161_t36 -1 x_r2_g30 -1 x_r2_g161 >= -1 ;
1 p_r2_g51_h15_t36 -1 x_r2_g51 <= 0 ;
1 p_r2_g51_h15_t36 -1 x_r2_g15 <= 0 ;
1 p_r2_g51_h15_t36 -1 x_r2_g51 -1 x_r2_g15 >= -1 ;
1 p_r2_g119_h83_t36 -1 x_r2_g119 <= 0 ;
1 p_r2_g119_h83_t36 -1 x_r2_g83 <= 0 ;
1 p_r2_g119_h83_t36 -1 x_r2_g119 -1 x_r2_g83 >= -1 ;
1 p_r2_g139_h103_t36 -1 x_r2_g139 <= 0 ;
1 p_r2_g139_h103_t36 -1 x_r2_g103 <= 0 ;
1 p_r2_g139_h103_t36 -1 x_r2_g139 -1 x_r2_g103 >= -1 ;
1 p_r2_g141_h105_t36 -1 x_r2_g141 <= 0 ;
1 p_r2_g141_h105_t36 -1 x_r2_g105 <= 0 ;
1 p_r2_g141_h105_t36 -1 x_r2_g141 -1 x_r2_g105 >= -1 ;
1 p_r2_g147_h111_t36 -1 x_r2_g147 <= 0 ;
1 p_r2_g147_h111_t36 -1 x_r2_g111 <= 0 ;
1 p_r2_g147_h111_t36 -1 x_r2_g147 -1 x_r2_g111 >= -1 ;
1 p_r3_g22_h153_t36 -1 x_r3_g22 <= 0 ;
1 p_r3_g22_h153_t36 -1 x_r3_g153 <= 0 ;
1 p_r3_g22_h153_t36 -1 x_r3_g22 -1 x_r3_g153 >= -1 ;
1 p_r3_g23_h154_t36 -1 x_r3_g23 <= 0 ;
1 p_r3_g23_h154_t36 -1 x_r3_g154 <= 0 ;
1 p_r3_g23_h154_t36 -1 x_r3_g23 -1 x_r3_g154 >= -1 ;
1 p_r3_g25_h156_t36 -1 x_r3_g25 <= 0 ;
1 p_r3_g25_h156_t36 -1 x_r3_g156 <= 0 ;
1 p_r3_g25_h156_t36 -1 x_r3_g25 -1 x_r3_g156 >= -1 ;
1 p_r3_g53_h17_t36 -1 x_r3_g53 <= 0 ;
1 p_r3_g53_h17_t36 -1 x_r3_g17 <= 0 ;
1 p_r3_g53_h17_t36 -1 x_r3_g53 -1 x_r3_g17 >= -1 ;
1 p_r3_g60_h24_t36 -1 x_r3_g60 <= 0 ;
1 p_r3_g60_h24_t36 -1 x_r3_g24 <= 0 ;
1 p_r3_g60_h24_t36 -1 x_r3_g60 -1 x_r3_g24 >= -1 ;
1 p_r3_g62_h26_t36 -1 x_r3_g62 <= 0 ;
1 p_r3_g62_h26_t36 -1 x_r3_g26 <= 0 ;
1 p_r3_g62_h26_t36 -1 x_r3_g62 -1 x_r3_g26 >= -1 ;
1 p_r3_g87_h51_t36 -1 x_r3_g87 <= 0 ;
1 p_r3_g87_h51_t36 -1 x_r3_g51 <= 0 ;
1 p_r3_g87_h51_t36 -1 x_r3_g87 -1 x_r3_g51 >= -1 ;
1 p_r3_g89_h53_t36 -1 x_r3_g89 <= 0 ;
1 p_r3_g89_h53_t36 -1 x_r3_g53 <= 0 ;
1 p_r3_g89_h53_t36 -1 x_r3_g89 -1 x_r3_g53 >= -1 ;
1 p_r3_g96_h60_t36 -1 x_r3_g96 <= 0 ;
1 p_r3_g96_h60_t36 -1 x_r3_g60 <= 0 ;
1 p_r3_g96_h60_t36 -1 x_r3_g96 -1 x_r3_g60 >= -1 ;
1 p_r3_g125_h89_t36 -1 x_r3_g125 <= 0 ;
1 p_r3_g125_h89_t36 -1 x_r3_g89 <= 0 ;
1 p_r3_g125_h89_t36 -1 x_r3_g125 -1 x_r3_g89 >= -1 ;
1 p_r3_g153_h117_t36 -1 x_r3_g153 <= 0 ;
1 p_r3_g153_h117_t36 -1 x_r3_g117 <= 0 ;
1 p_r3_g153_h117_t36 -1 x_r3_g153 -1 x_r3_g117 >= -1 ;
1 p_r3_g154_h118_t36 -1 x_r3_g154 <= 0 ;
1 p_r3_g154_h118_t36 -1 x_r3_g118 <= 0 ;
1 p_r3_g154_h118_t36 -1 x_r3_g154 -1 x_r3_g118 >= -1 ;
1 p_r3_g161_h125_t36 -1 x_r3_g161 <= 0 ;
1 p_r3_g161_h125_t36 -1 x_r3_g125 <= 0 ;
1 p_r3_g161_h125_t36 -1 x_r3_g161 -1 x_r3_g125 >= -1 ;
1 d_36 -2 x_r0_g1 -1 x_r0_g4 -1 x_r0_g7 -1 x_r0_g12 -1 x_r0_g15 -1 x_r0_g19 -1 x_r0_g24 -2 x_r0_g34 -1 x_r0_g39 -1 x_r0_g56 -1 x_r0_g65 -2 x_r0_g66 -1 x_r0_g72 -1 x_r0_g74 -1 x_r0_g79 -1 x_r0_g85 -2 x_r0_g91 -2 x_r0_g103 -1 x_r0_g106 -1 x_r0_g119 -2 x_r0_g124 -1 x_r0_g126 -1 x_r0_g136 -1 x_r0_g159 -1 x_r0_g163 -2 x_r1_g1 -1 x_r1_g21 -1 x_r1_g23 -2 x_r1_g29 -1 x_r1_g34 -1 x_r1_g42 -1 x_r1_g43 -1 x_r1_g56 -1 x_r1_g60 -1 x_r1_g61 -1 x_r1_g64 -1 x_r1_g68 -1 x_r1_g74 -1 x_r1_g76 -1 x_r1_g77 -1 x_r1_g82 -1 x_r1_g98 -1 x_r1_g104 -1 x_r1_g124 -1 x_r1_g127 -1 x_r1_g141 -1 x_r1_g148 -1 x_r1_g155 -1 x_r1_g162 -1 x_r1_g163 -1 x_r2_g13 -1 x_r2_g21 -2 x_r2_g27 -2 x_r2_g32 -1 x_r2_g34 -1 x_r2_g40 -1 x_r2_g58 -1 x_r2_g61 -1 x_r2_g74 -2 x_r2_g85 -1 x_r2_g91 -1 x_r2_g93 -2 x_r2_g101 -2 x_r2_g104 -1 x_r2_g111 -1 x_r2_g112 -1 x_r2_g118 -1 x_r2_g124 -1 x_r2_g130 -1 x_r2_g135 -2 x_r2_g157 -2 x_r2_g162 -1 x_r3_g5 -1 x_r3_g17 -1 x_r3_g23 -1 x_r3_g25 -1 x_r3_g31 -2 x_r3_g38 -1 x_r3_g39 -2 x_r3_g42 -1 x_r3_g62 -1 x_r3_g66 -1 x_r3_g68 -1 x_r3_g73 -2 x_r3_g83 -1 x_r3_g87 -1 x_r3_g117 -1 x_r3_g124 -1 x_r3_g137 -1 x_r3_g149 -1 x_r3_g151 -2 x_r3_g158 -1 x_r3_g161 -1 p_r0_g4_h135_t36 -1 p_r0_g5_h136_t36 -1 p_r0_g11_h142_t36 -1 p_r0_g12_h143_t36 -1 p_r0_g15_h146_t36 -1 p_r0_g19_h150_t36 -1 p_r0_g47_h11_t36 -1 p_r0_g89_h53_t36 -1 p_r0_g93_h57_t36 -1 p_r0_g108_h72_t36 -1 p_r0_g142_h106_t36 -1 p_r1_g42_h6_t36 -1 p_r1_g76_h40_t36 -1 p_r1_g84_h48_t36 -1 p_r1_g104_h68_t36 -1 p_r1_g124_h88_t36 -1 p_r1_g145_h109_t36 -1 p_r1_g163_h127_t36 -1 p_r2_g30_h161_t36 -1 p_r2_g51_h15_t36 -1 p_r2_g119_h83_t36 -1 p_r2_g139_h103_t36 -1 p_r2_g141_h105_t36 -1 p_r2_g147_h111_t36 -1 p_r3_g22_h153_t36 -1 p_r3_g23_h154_t36 -1 p_r3_g25_h156_t36 -1 p_r3_g53_h17_t36 -1 p_r3_g60_h24_t36 -1 p_r3_g62_h26_t36 -1 p_r3_g87_h51_t36 -1 p_r3_g89_h53_t36 -1 p_r3_g96_h60_t36 -1 p_r3_g125_h89_t36 -1 p_r3_g153_h117_t36 -1 p_r3_g154_h118_t36 -1 p_r3_g161_h125_t36 = -77 ;
1 d_36 -1 u_36 <= 0 ;
-1 d_36 -1 u_36 <= 0 ;
1 u_36 -1 M <= 0 ;
1 u_36 <= 2 ;
1 p_r0_g7_h135_t39 -1 x_r0_g7 <= 0 ;
1 p_r0_g7_h135_t39 -1 x_r0_g135 <= 0 ;
1 p_r0_g7_h135_t39 -1 x_r0_g7 -1 x_r0_g135 >= -1 ;
1 p_r0_g15_h143_t39 -1 x_r0_g15 <= 0 ;
1 p_r0_g15_h143_t39 -1 x_r0_g143 <= 0 ;
1 p_r0_g15_h143_t39 -1 x_r0_g15 -1 x_r0_g143 >= -1 ;
1 p_r0_g108_h69_t39 -1 x_r0_g108 <= 0 ;
1 p_r0_g108_h69_t39 -1 x_r0_g69 <= 0 ;
1 p_r0_g108_h69_t39 -1 x_r0_g108 -1 x_r0_g69 >= -1 ;
1 p_r0_g124_h85_t39 -1 x_r0_g124 <= 0 ;
1 p_r0_g124_h85_t39 -1 x_r0_g85 <= 0 ;
1 p_r0_g124_h85_t39 -1 x_r0_g124 -1 x_r0_g85 >= -1 ;
1 p_r0_g142_h103_t39 -1 x_r0_g142 <= 0 ;
1 p_r0_g142_h103_t39 -1 x_r0_g103 <= 0 ;
1 p_r0_g142_h103_t39 -1 x_r0_g142 -1 x_r0_g103 >= -1 ;
1 p_r0_g163_h124_t39 -1 x_r0_g163 <= 0 ;
1 p_r0_g163_h124_t39 -1 x_r0_g124 <= 0 ;
1 p_r0_g163_h124_t39 -1 x_r0_g163 -1 x_r0_g124 >= -1 ;
1 p_r1_g1_h129_t39 -1 x_r1_g1 <= 0 ;
1 p_r1_g1_h129_t39 -1 x_r1_g129 <= 0 ;
1 p_r1_g1_h129_t39 -1 x_r1_g1 -1 x_r1_g129 >= -1 ;
1 p_r1_g34_h162_t39 -1 x_r1_g34 <= 0 ;
1 p_r1_g34_h162_t39 -1 x_r1_g162 <= 0 ;
1 p_r1_g34_h162_t39 -1 x_r1_g34 -1 x_r1_g162 >= -1 ;
1 p_r1_g40_h1_t39 -1 x_r1_g40 <= 0 ;
1 p_r1_g40_h1_t39 -1 x_r1_g1 <= 0 ;
1 p_r1_g40_h1_t39 -1 x_r1_g40 -1 x_r1_g1 >= -1 ;
1 p_r1_g60_h21_t39 -1 x_r1_g60 <= 0 ;
1 p_r1_g60_h21_t39 -1 x_r1_g21 <= 0 ;
1 p_r1_g60_h21_t39 -1 x_r1_g60 -1 x_r1_g21 >= -1 ;
1 p_r1_g68_h29_t39 -1 x_r1_g68 <= 0 ;
1 p_r1_g68_h29_t39 -1 x_r1_g29 <= 0 ;
1 p_r1_g68_h29_t39 -1 x_r1_g68 -1 x_r1_g29 >= -1 ;
1 p_r1_g82_h43_t39 -1 x_r1_g82 <= 0 ;
1 p_r1_g82_h43_t39 -1 x_r1_g43 <= 0 ;
1 p_r1_g82_h43_t39 -1 x_r1_g82 -1 x_r1_g43 >= -1 ;
1 p_r1_g99_h60_t39 -1 x_r1_g99 <= 0 ;
1 p_r1_g99_h60_t39 -1 x_r1_g60 <= 0 ;
1 p_r1_g99_h60_t39 -1 x_r1_g99 -1 x_r1_g60 >= -1 ;
1 p_r1_g127_h88_t39 -1 x_r1_g127 <= 0 ;
1 p_r1_g127_h88_t39 -1 x_r1_g88 <= 0 ;
1 p_r1_g127_h88_t39 -1 x_r1_g127 -1 x_r1_g88 >= -1 ;
1 p_r1_g138_h99_t39 -1 x_r1_g138 <= 0 ;
1 p_r1_g138_h99_t39 -1 x_r1_g99 <= 0 ;
1 p_r1_g138_h99_t39 -1 x_r1_g138 -1 x_r1_g99 >= -1 ;
1 p_r1_g148_h109_t39 -1 x_r1_g148 <= 0 ;
1 p_r1_g148_h109_t39 -1 x_r1_g109 <= 0 ;
1 p_r1_g148_h109_t39 -1 x_r1_g148 -1 x_r1_g109 >= -1 ;
1 p_r1_g163_h124_t39 -1 x_r1_g163 <= 0 ;
1 p_r1_g163_h124_t39 -1 x_r1_g124 <= 0 ;
1 p_r1_g163_h124_t39 -1 x_r1_g163 -1 x_r1_g124 >= -1 ;
1 p_r2_g13_h141_t39 -1 x_r2_g13 <= 0 ;
1 p_r2_g13_h141_t39 -1 x_r2_g141 <= 0 ;
1 p_r2_g13_h141_t39 -1 x_r2_g13 -1 x_r2_g141 >= -1 ;
1 p_r2_g34_h162_t39 -1 x_r2_g34 <= 0 ;
1 p_r2_g34_h162_t39 -1 x_r2_g162 <= 0 ;
1 p_r2_g34_h162_t39 -1 x_r2_g34 -1 x_r2_g162 >= -1 ;
1 p_r2_g52_h13_t39 -1 x_r2_g52 <= 0 ;
1 p_r2_g52_h13_t39 -1 x_r2_g13 <= 0 ;
1 p_r2_g52_h13_t39 -1 x_r2_g52 -1 x_r2_g13 >= -1 ;
1 p_r2_g73_h34_t39 -1 x_r2_g73 <= 0 ;
1 p_r2_g73_h34_t39 -1 x_r2_g34 <= 0 ;
1 p_r2_g73_h34_t39 -1 x_r2_g73 -1 x_r2_g34 >= -1 ;
1 p_r2_g74_h35_t39 -1 x_r2_g74 <= 0 ;
1 p_r2_g74_h35_t39 -1 x_r2_g35 <= 0 ;
1 p_r2_g74_h35_t39 -1 x_r2_g74 -1 x_r2_g35 >= -1 ;
1 p_r2_g91_h52_t39 -1 x_r2_g91 <= 0 ;
1 p_r2_g91_h52_t39 -1 x_r2_g52 <= 0 ;
1 p_r2_g91_h52_t39 -1 x_r2_g91 -1 x_r2_g52 >= -1 ;
1 p_r2_g112_h73_t39 -1 x_r2_g112 <= 0 ;
1 p_r2_g112_h73_t39 -1 x_r2_g73 <= 0 ;
1 p_r2_g112_h73_t39 -1 x_r2_g112 -1 x_r2_g73 >= -1 ;
1 p_r2_g124_h85_t39 -1 x_r2_g124 <= 0 ;
1 p_r2_g124_h85_t39 -1 x_r2_g85 <= 0 ;
1 p_r2_g124_h85_t39 -1 x_r2_g124 -1 x_r2_g85 >= -1 ;
1 p_r2_g130_h91_t39 -1 x_r2_g130 <= 0 ;
1 p_r2_g130_h91_t39 -1 x_r2_g91 <= 0 ;
1 p_r2_g130_h91_t39 -1 x_r2_g130 -1 x_r2_g91 >= -1 ;
1 p_r2_g157_h118_t39 -1 x_r2_g157 <= 0 ;
1 p_r2_g157_h118_t39 -1 x_r2_g118 <= 0 ;
1 p_r2_g157_h118_t39 -1 x_r2_g157 -1 x_r2_g118 >= -1 ;
1 p_r3_g21_h149_t39 -1 x_r3_g21 <= 0 ;
1 p_r3_g21_h149_t39 -1 x_r3_g149 <= 0 ;
1 p_r3_g21_h149_t39 -1 x_r3_g21 -1 x_r3_g149 >= -1 ;
1 p_r3_g23_h151_t39 -1 x_r3_g23 <= 0 ;
1 p_r3_g23_h151_t39 -1 x_r3_g151 <= 0 ;
1 p_r3_g23_h151_t39 -1 x_r3_g23 -1 x_r3_g151 >= -1 ;
1 p_r3_g25_h153_t39 -1 x_r3_g25 <= 0 ;
1 p_r3_g25_h153_t39 -1 x_r3_g153 <= 0 ;
1 p_r3_g25_h153_t39 -1 x_r3_g25 -1 x_r3_g153 >= -1 ;
1 p_r3_g26_h154_t39 -1 x_r3_g26 <= 0 ;
1 p_r3_g26_h154_t39 -1 x_r3_g154 <= 0 ;
1 p_r3_g26_h154_t39 -1 x_r3_g26 -1 x_r3_g154 >= -1 ;
1 p_r3_g38_h166_t39 -1 x_r3_g38 <= 0 ;
1 p_r3_g38_h166_t39 -1 x_r3_g166 <= 0 ;
1 p_r3_g38_h166_t39 -1 x_r3_g38 -1 x_r3_g166 >= -1 ;
1 p_r3_g60_h21_t39 -1 x_r3_g60 <= 0 ;
1 p_r3_g60_h21_t39 -1 x_r3_g21 <= 0 ;
1 p_r3_g60_h21_t39 -1 x_r3_g60 -1 x_r3_g21 >= -1 ;
1 p_r3_g62_h23_t39 -1 x_r3_g62 <= 0 ;
1 p_r3_g62_h23_t39 -1 x_r3_g23 <= 0 ;
1 p_r3_g62_h23_t39 -1 x_r3_g62 -1 x_r3_g23 >= -1 ;
1 p_r3_g73_h34_t39 -1 x_r3_g73 <= 0 ;
1 p_r3_g73_h34_t39 -1 x_r3_g34 <= 0 ;
1 p_r3_g73_h34_t39 -1 x_r3_g73 -1 x_r3_g34 >= -1 ;
1 p_r3_g90_h51_t39 -1 x_r3_g90 <= 0 ;
1 p_r3_g90_h51_t39 -1 x_r3_g51 <= 0 ;
1 p_r3_g90_h51_t39 -1 x_r3_g90 -1 x_r3_g51 >= -1 ;
1 p_r3_g156_h117_t39 -1 x_r3_g156 <= 0 ;
1 p_r3_g156_h117_t39 -1 x_r3_g117 <= 0 ;
1 p_r3_g156_h117_t39 -1 x_r3_g156 -1 x_r3_g117 >= -1 ;
1 d_39 -1 x_r0_g1 -2 x_r0_g4 -1 x_r0_g7 -1 x_r0_g11 -1 x_r0_g12 -1 x_r0_g15 -1 x_r0_g19 -2 x_r0_g24 -1 x_r0_g53 -1 x_r0_g69 -1 x_r0_g72 -1 x_r0_g74 -2 x_r0_g79 -1 x_r0_g85 -1 x_r0_g91 -2 x_r0_g93 -1 x_r0_g106 -1 x_r0_g112 -1 x_r0_g119 -1 x_r0_g126 -1 x_r0_g142 -1 x_r0_g150 -1 x_r0_g159 -1 x_r1_g5 -1 x_r1_g23 -1 x_r1_g29 -1 x_r1_g36 -1 x_r1_g40 -2 x_r1_g42 -1 x_r1_g48 -2 x_r1_g50 -1 x_r1_g56 -1 x_r1_g61 -2 x_r1_g64 -1 x_r1_g68 -1 x_r1_g69 -1 x_r1_g74 -2 x_r1_g76 -1 x_r1_g77 -1 x_r1_g84 -1 x_r1_g88 -1 x_r1_g104 -1 x_r1_g109 -1 x_r1_g127 -1 x_r1_g129 -1 x_r1_g138 -1 x_r1_g148 -1 x_r1_g155 -1 x_r1_g162 -1 x_r2_g21 -1 x_r2_g30 -1 x_r2_g32 -1 x_r2_g35 -1 x_r2_g40 -1 x_r2_g51 -1 x_r2_g53 -1 x_r2_g74 -1 x_r2_g83 -1 x_r2_g85 -1 x_r2_g93 -1 x_r2_g101 -1 x_r2_g103 -1 x_r2_g104 -1 x_r2_g111 -1 x_r2_g112 -2 x_r2_g119 -1 x_r2_g124 -1 x_r2_g133 -1 x_r2_g135 -1 x_r2_g141 -2 x_r2_g161 -1 x_r3_g17 -1 x_r3_g22 -1 x_r3_g26 -1 x_r3_g34 -1 x_r3_g39 -1 x_r3_g42 -1 x_r3_g51 -1 x_r3_g60 -1 x_r3_g66 -2 x_r3_g69 -1 x_r3_g73 -1 x_r3_g83 -1 x_r3_g89 -1 x_r3_g90 -2 x_r3_g100 -1 x_r3_g117 -1 x_r3_g124 -1 x_r3_g125 -2 x_r3_g137 -1 x_r3_g149 -1 x_r3_g151 -1 x_r3_g156 -2 x_r3_g158 -1 x_r3_g161 -1 x_r3_g166 -1 p_r0_g7_h135_t39 -1 p_r0_g15_h143_t39 -1 p_r0_g108_h69_t39 -1 p_r0_g124_h85_t39 -1 p_r0_g142_h103_t39 -1 p_r0_g163_h124_t39 -1 p_r1_g1_h129_t39 -1 p_r1_g34_h162_t39 -1 p_r1_g40_h1_t39 -1 p_r1_g60_h21_t39 -1 p_r1_g68_h29_t39 -1 p_r1_g82_h43_t39 -1 p_r1_g99_h60_t39 -1 p_r1_g127_h88_t39 -1 p_r1_g138_h99_t39 -1 p_r1_g148_h109_t39 -1 p_r1_g163_h124_t39 -1 p_r2_g13_h141_t39 -1 p_r2_g34_h162_t39 -1 p_r2_g52_h13_t39 -1 p_r2_g73_h34_t39 -1 p_r2_g74_h35_t39 -1 p_r2_g91_h52_t39 -1 p_r2_g112_h73_t39 -1 p_r2_g124_h85_t39 -1 p_r2_g130_h91_t39 -1 p_r2_g157_h118_t39 -1 p_r3_g21_h149_t39 -1 p_r3_g23_h151_t39 -1 p_r3_g25_h153_t39 -1 p_r3_g26_h154_t39 -1 p_r3_g38_h166_t39 -1 p_r3_g60_h21_t39 -1 p_r3_g62_h23_t39 -1 p_r3_g73_h34_t39 -1 p_r3_g90_h51_t39 -1 p_r3_g156_h117_t39 = -63 ;
1 d_39 -1 u_39 <= 0 ;
-1 d_39 -1 u_39 <= 0 ;
1 u_39 -1 M <= 0 ;
1 u_39 <= 0 ;
1 p_r0_g15_h142_t40 -1 x_r0_g15 <= 0 ;
1 p_r0_g15_h142_t40 -1 x_r0_g142 <= 0 ;
1 p_r0_g15_h142_t40 -1 x_r0_g15 -1 x_r0_g142 >= -1 ;
1 p_r0_g19_h146_t40 -1 x_r0_g19 <= 0 ;
1 p_r0_g19_h146_t40 -1 x_r0_g146 <= 0 ;
1 p_r0_g19_h146_t40 -1 x_r0_g19 -1 x_r0_g146 >= -1 ;
1 p_r0_g47_h7_t40 -1 x_r0_g47 <= 0 ;
1 p_r0_g47_h7_t40 -1 x_r0_g7 <= 0 ;
1 p_r0_g47_h7_t40 -1 x_r0_g47 -1 x_r0_g7 >= -1 ;
1 p_r0_g74_h34_t40 -1 x_r0_g74 <= 0 ;
1 p_r0_g74_h34_t40 -1 x_r0_g34 <= 0 ;
1 p_r0_g74_h34_t40 -1 x_r0_g74 -1 x_r0_g34 >= -1 ;
1 p_r0_g79_h39_t40 -1 x_r0_g79 <= 0 ;
1 p_r0_g79_h39_t40 -1 x_r0_g39 <= 0 ;
1 p_r0_g79_h39_t40 -1 x_r0_g79 -1 x_r0_g39 >= -1 ;
1 p_r0_g93_h53_t40 -1 x_r0_g93 <= 0 ;
1 p_r0_g93_h53_t40 -1 x_r0_g53 <= 0 ;
1 p_r0_g93_h53_t40 -1 x_r0_g93 -1 x_r0_g53 >= -1 ;
1 p_r0_g106_h66_t40 -1 x_r0_g106 <= 0 ;
1 p_r0_g106_h66_t40 -1 x_r0_g66 <= 0 ;
1 p_r0_g106_h66_t40 -1 x_r0_g106 -1 x_r0_g66 >= -1 ;
1 p_r0_g112_h72_t40 -1 x_r0_g112 <= 0 ;
1 p_r0_g112_h72_t40 -1 x_r0_g72 <= 0 ;
1 p_r0_g112_h72_t40 -1 x_r0_g112 -1 x_r0_g72 >= -1 ;
1 p_r0_g119_h79_t40 -1 x_r0_g119 <= 0 ;
1 p_r0_g119_h79_t40 -1 x_r0_g79 <= 0 ;
1 p_r0_g119_h79_t40 -1 x_r0_g119 -1 x_r0_g79 >= -1 ;
1 p_r0_g143_h103_t40 -1 x_r0_g143 <= 0 ;
1 p_r0_g143_h103_t40 -1 x_r0_g103 <= 0 ;
1 p_r0_g143_h103_t40 -1 x_r0_g143 -1 x_r0_g103 >= -1 ;
1 p_r0_g146_h106_t40 -1 x_r0_g146 <= 0 ;
1 p_r0_g146_h106_t40 -1 x_r0_g106 <= 0 ;
1 p_r0_g146_h106_t40 -1 x_r0_g146 -1 x_r0_g106 >= -1 ;
1 p_r0_g159_h119_t40 -1 x_r0_g159 <= 0 ;
1 p_r0_g159_h119_t40 -1 x_r0_g119 <= 0 ;
1 p_r0_g159_h119_t40 -1 x_r0_g159 -1 x_r0_g119 >= -1 ;
1 p_r1_g21_h148_t40 -1 x_r1_g21 <= 0 ;
1 p_r1_g21_h148_t40 -1 x_r1_g148 <= 0 ;
1 p_r1_g21_h148_t40 -1 x_r1_g21 -1 x_r1_g148 >= -1 ;
1 p_r1_g34_h161_t40 -1 x_r1_g34 <= 0 ;
1 p_r1_g34_h161_t40 -1 x_r1_g161 <= 0 ;
1 p_r1_g34_h161_t40 -1 x_r1_g34 -1 x_r1_g161 >= -1 ;
1 p_r1_g36_h163_t40 -1 x_r1_g36 <= 0 ;
1 p_r1_g36_h163_t40 -1 x_r1_g163 <= 0 ;
1 p_r1_g36_h163_t40 -1 x_r1_g36 -1 x_r1_g163 >= -1 ;
1 p_r1_g61_h21_t40 -1 x_r1_g61 <= 0 ;
1 p_r1_g61_h21_t40 -1 x_r1_g21 <= 0 ;
1 p_r1_g61_h21_t40 -1 x_r1_g61 -1 x_r1_g21 >= -1 ;
1 p_r1_g69_h29_t40 -1 x_r1_g69 <= 0 ;
1 p_r1_g69_h29_t40 -1 x_r1_g29 <= 0 ;
1 p_r1_g69_h29_t40 -1 x_r1_g69 -1 x_r1_g29 >= -1 ;
1 p_r1_g74_h34_t40 -1 x_r1_g74 <= 0 ;
1 p_r1_g74_h34_t40 -1 x_r1_g34 <= 0 ;
1 p_r1_g74_h34_t40 -1 x_r1_g74 -1 x_r1_g34 >= -1 ;
1 p_r1_g76_h36_t40 -1 x_r1_g76 <= 0 ;
1 p_r1_g76_h36_t40 -1 x_r1_g36 <= 0 ;
1 p_r1_g76_h36_t40 -1 x_r1_g76 -1 x_r1_g36 >= -1 ;
1 p_r1_g82_h42_t40 -1 x_r1_g82 <= 0 ;
1 p_r1_g82_h42_t40 -1 x_r1_g42 <= 0 ;
1 p_r1_g82_h42_t40 -1 x_r1_g82 -1 x_r1_g42 >= -1 ;
1 p_r1_g88_h48_t40 -1 x_r1_g88 <= 0 ;
1 p_r1_g88_h48_t40 -1 x_r1_g48 <= 0 ;
1 p_r1_g88_h48_t40 -1 x_r1_g88 -1 x_r1_g48 >= -1 ;
1 p_r1_g104_h64_t40 -1 x_r1_g104 <= 0 ;
1 p_r1_g104_h64_t40 -1 x_r1_g64 <= 0 ;
1 p_r1_g104_h64_t40 -1 x_r1_g104 -1 x_r1_g64 >= -1 ;
1 p_r1_g109_h69_t40 -1 x_r1_g109 <= 0 ;
1 p_r1_g109_h69_t40 -1 x_r1_g69 <= 0 ;
1 p_r1_g109_h69_t40 -1 x_r1_g109 -1 x_r1_g69 >= -1 ;
1 p_r1_g124_h84_t40 -1 x_r1_g124 <= 0 ;
1 p_r1_g124_h84_t40 -1 x_r1_g84 <= 0 ;
1 p_r1_g124_h84_t40 -1 x_r1_g124 -1 x_r1_g84 >= -1 ;
1 p_r1_g138_h98_t40 -1 x_r1_g138 <= 0 ;
1 p_r1_g138_h98_t40 -1 x_r1_g98 <= 0 ;
1 p_r1_g138_h98_t40 -1 x_r1_g138 -1 x_r1_g98 >= -1 ;
1 p_r2_g30_h157_t40 -1 x_r2_g30 <= 0 ;
1 p_r2_g30_h157_t40 -1 x_r2_g157 <= 0 ;
1 p_r2_g30_h157_t40 -1 x_r2_g30 -1 x_r2_g157 >= -1 ;
1 p_r2_g34_h161_t40 -1 x_r2_g34 <= 0 ;
1 p_r2_g34_h161_t40 -1 x_r2_g161 <= 0 ;
1 p_r2_g34_h161_t40 -1 x_r2_g34 -1 x_r2_g161 >= -1 ;
1 p_r2_g35_h162_t40 -1 x_r2_g35 <= 0 ;
1 p_r2_g35_h162_t40 -1 x_r2_g162 <= 0 ;
1 p_r2_g35_h162_t40 -1 x_r2_g35 -1 x_r2_g162 >= -1 ;
1 p_r2_g53_h13_t40 -1 x_r2_g53 <= 0 ;
1 p_r2_g53_h13_t40 -1 x_r2_g13 <= 0 ;
1 p_r2_g53_h13_t40 -1 x_r2_g53 -1 x_r2_g13 >= -1 ;
1 p_r2_g61_h21_t40 -1 x_r2_g61 <= 0 ;
1 p_r2_g61_h21_t40 -1 x_r2_g21 <= 0 ;
1 p_r2_g61_h21_t40 -1 x_r2_g61 -1 x_r2_g21 >= -1 ;
1 p_r2_g74_h34_t40 -1 x_r2_g74 <= 0 ;
1 p_r2_g74_h34_t40 -1 x_r2_g34 <= 0 ;
1 p_r2_g74_h34_t40 -1 x_r2_g74 -1 x_r2_g34 >= -1 ;
1 p_r2_g85_h45_t40 -1 x_r2_g85 <= 0 ;
1 p_r2_g85_h45_t40 -1 x_r2_g45 <= 0 ;
1 p_r2_g85_h45_t40 -1 x_r2_g85 -1 x_r2_g45 >= -1 ;
1 p_r2_g91_h51_t40 -1 x_r2_g91 <= 0 ;
1 p_r2_g91_h51_t40 -1 x_r2_g51 <= 0 ;
1 p_r2_g91_h51_t40 -1 x_r2_g91 -1 x_r2_g51 >= -1 ;
1 p_r2_g93_h53_t40 -1 x_r2_g93 <= 0 ;
1 p_r2_g93_h53_t40 -1 x_r2_g53 <= 0 ;
1 p_r2_g93_h53_t40 -1 x_r2_g93 -1 x_r2_g53 >= -1 ;
1 p_r2_g101_h61_t40 -1 x_r2_g101 <= 0 ;
1 p_r2_g101_h61_t40 -1 x_r2_g61 <= 0 ;
1 p_r2_g101_h61_t40 -1 x_r2_g101 -1 x_r2_g61 >= -1 ;
1 p_r2_g133_h93_t40 -1 x_r2_g133 <= 0 ;
1 p_r2_g133_h93_t40 -1 x_r2_g93 <= 0 ;
1 p_r2_g133_h93_t40 -1 x_r2_g133 -1 x_r2_g93 >= -1 ;
1 p_r2_g141_h101_t40 -1 x_r2_g141 <= 0 ;
1 p_r2_g141_h101_t40 -1 x_r2_g101 <= 0 ;
1 p_r2_g141_h101_t40 -1 x_r2_g141 -1 x_r2_g101 >= -1 ;
1 p_r3_g22_h149_t40 -1 x_r3_g22 <= 0 ;
1 p_r3_g22_h149_t40 -1 x_r3_g149 <= 0 ;
1 p_r3_g22_h149_t40 -1 x_r3_g22 -1 x_r3_g149 >= -1 ;
1 p_r3_g24_h151_t40 -1 x_r3_g24 <= 0 ;
1 p_r3_g24_h151_t40 -1 x_r3_g151 <= 0 ;
1 p_r3_g24_h151_t40 -1 x_r3_g24 -1 x_r3_g151 >= -1 ;
1 p_r3_g26_h153_t40 -1 x_r3_g26 <= 0 ;
1 p_r3_g26_h153_t40 -1 x_r3_g153 <= 0 ;
1 p_r3_g26_h153_t40 -1 x_r3_g26 -1 x_r3_g153 >= -1 ;
1 p_r3_g31_h158_t40 -1 x_r3_g31 <= 0 ;
1 p_r3_g31_h158_t40 -1 x_r3_g158 <= 0 ;
1 p_r3_g31_h158_t40 -1 x_r3_g31 -1 x_r3_g158 >= -1 ;
1 p_r3_g34_h161_t40 -1 x_r3_g34 <= 0 ;
1 p_r3_g34_h161_t40 -1 x_r3_g161 <= 0 ;
1 p_r3_g34_h161_t40 -1 x_r3_g34 -1 x_r3_g161 >= -1 ;
1 p_r3_g39_h166_t40 -1 x_r3_g39 <= 0 ;
1 p_r3_g39_h166_t40 -1 x_r3_g166 <= 0 ;
1 p_r3_g39_h166_t40 -1 x_r3_g39 -1 x_r3_g166 >= -1 ;
1 p_r3_g62_h22_t40 -1 x_r3_g62 <= 0 ;
1 p_r3_g62_h22_t40 -1 x_r3_g22 <= 0 ;
1 p_r3_g62_h22_t40 -1 x_r3_g62 -1 x_r3_g22 >= -1 ;
1 p_r3_g66_h26_t40 -1 x_r3_g66 <= 0 ;
1 p_r3_g66_h26_t40 -1 x_r3_g26 <= 0 ;
1 p_r3_g66_h26_t40 -1 x_r3_g66 -1 x_r3_g26 >= -1 ;
1 p_r3_g100_h60_t40 -1 x_r3_g100 <= 0 ;
1 p_r3_g100_h60_t40 -1 x_r3_g60 <= 0 ;
1 p_r3_g100_h60_t40 -1 x_r3_g100 -1 x_r3_g60 >= -1 ;
1 p_r3_g158_h118_t40 -1 x_r3_g158 <= 0 ;
1 p_r3_g158_h118_t40 -1 x_r3_g118 <= 0 ;
1 p_r3_g158_h118_t40 -1 x_r3_g158 -1 x_r3_g118 >= -1 ;
1 d_40 -1 x_r0_g4 -2 x_r0_g5 -1 x_r0_g11 -2 x_r0_g12 -1 x_r0_g15 -1 x_r0_g19 -1 x_r0_g24 -1 x_r0_g53 -1 x_r0_g65 -1 x_r0_g85 -1 x_r0_g89 -2 x_r0_g91 -1 x_r0_g103 -1 x_r0_g108 -1 x_r0_g112 -1 x_r0_g142 -2 x_r0_g163 -1 x_r1_g1 -1 x_r1_g5 -1 x_r1_g6 -1 x_r1_g29 -1 x_r1_g40 -1 x_r1_g43 -2 x_r1_g50 -1 x_r1_g56 -2 x_r1_g60 -1 x_r1_g68 -1 x_r1_g74 -1 x_r1_g77 -1 x_r1_g84 -1 x_r1_g88 -1 x_r1_g124 -1 x_r1_g127 -1 x_r1_g129 -1 x_r1_g138 -1 x_r1_g145 -1 x_r1_g148 -1 x_r1_g155 -1 x_r1_g163 -1 x_r2_g13 -1 x_r2_g21 -1 x_r2_g35 -2 x_r2_g40 -2 x_r2_g58 -2 x_r2_g73 -1 x_r2_g74 -1 x_r2_g83 -1 x_r2_g103 -1 x_r2_g104 -1 x_r2_g105 -1 x_r2_g111 -1 x_r2_g112 -2 x_r2_g118 -1 x_r2_g130 -1 x_r2_g141 -1 x_r2_g147 -1 x_r2_g161 -1 x_r2_g162 -1 x_r3_g5 -1 x_r3_g17 -2 x_r3_g21 -1 x_r3_g25 -1 x_r3_g34 -1 x_r3_g38 -1 x_r3_g42 -1 x_r3_g53 -1 x_r3_g60 -1 x_r3_g66 -2 x_r3_g68 -2 x_r3_g83 -2 x_r3_g87 -2 x_r3_g89 -1 x_r3_g100 -1 x_r3_g118 -1 x_r3_g151 -1 x_r3_g154 -1 p_r0_g15_h142_t40 -1 p_r0_g19_h146_t40 -1 p_r0_g47_h7_t40 -1 p_r0_g74_h34_t40 -1 p_r0_g79_h39_t40 -1 p_r0_g93_h53_t40 -1 p_r0_g106_h66_t40 -1 p_r0_g112_h72_t40 -1 p_r0_g119_h79_t40 -1 p_r0_g143_h103_t40 -1 p_r0_g146_h106_t40 -1 p_r0_g159_h119_t40 -1 p_r1_g21_h148_t40 -1 p_r1_g34_h161_t40 -1 p_r1_g36_h163_t40 -1 p_r1_g61_h21_t40 -1 p_r1_g69_h29_t40 -1 p_r1_g74_h34_t40 -1 p_r1_g76_h36_t40 -1 p_r1_g82_h42_t40 -1 p_r1_g88_h48_t40 -1 p_r1_g104_h64_t40 -1 p_r1_g109_h69_t40 -1 p_r1_g124_h84_t40 -1 p_r1_g138_h98_t40 -1 p_r2_g30_h157_t40 -1 p_r2_g34_h161_t40 -1 p_r2_g35_h162_t40 -1 p_r2_g53_h13_t40 -1 p_r2_g61_h21_t40 -1 p_r2_g74_h34_t40 -1 p_r2_g85_h45_t40 -1 p_r2_g91_h51_t40 -1 p_r2_g93_h53_t40 -1 p_r2_g101_h61_t40 -1 p_r2_g133_h93_t40 -1 p_r2_g141_h101_t40 -1 p_r3_g22_h149_t40 -1 p_r3_g24_h151_t40 -1 p_r3_g26_h153_t40 -1 p_r3_g31_h158_t40 -1 p_r3_g34_h161_t40 -1 p_r3_g39_h166_t40 -1 p_r3_g62_h22_t40 -1 p_r3_g66_h26_t40 -1 p_r3_g100_h60_t40 -1 p_r3_g158_h118_t40 = -72 ;
1 d_40 -1 u_40 <= 0 ;
-1 d_40 -1 u_40 <= 0 ;
1 u_40 -1 M <= 0 ;
1 u_40 <= 2 ;
1 p_r0_g1_h126_t42 -1 x_r0_g1 <= 0 ;
1 p_r0_g1_h126_t42 -1 x_r0_g126 <= 0 ;
1 p_r0_g1_h126_t42 -1 x_r0_g1 -1 x_r0_g126 >= -1 ;
1 p_r0_g11_h136_t42 -1 x_r0_g11 <= 0 ;
1 p_r0_g11_h136_t42 -1 x_r0_g136 <= 0 ;
1 p_r0_g11_h136_t42 -1 x_r0_g11 -1 x_r0_g136 >= -1 ;
1 p_r0_g34_h159_t42 -1 x_r0_g34 <= 0 ;
1 p_r0_g34_h159_t42 -1 x_r0_g159 <= 0 ;
1 p_r0_g34_h159_t42 -1 x_r0_g34 -1 x_r0_g159 >= -1 ;
1 p_r0_g47_h5_t42 -1 x_r0_g47 <= 0 ;
1 p_r0_g47_h5_t42 -1 x_r0_g5 <= 0 ;
1 p_r0_g47_h5_t42 -1 x_r0_g47 -1 x_r0_g5 >= -1 ;
1 p_r0_g53_h11_t42 -1 x_r0_g53 <= 0 ;
1 p_r0_g53_h11_t42 -1 x_r0_g11 <= 0 ;
1 p_r0_g53_h11_t42 -1 x_r0_g53 -1 x_r0_g11 >= -1 ;
1 p_r0_g57_h15_t42 -1 x_r0_g57 <= 0 ;
1 p_r0_g57_h15_t42 -1 x_r0_g15 <= 0 ;
1 p_r0_g57_h15_t42 -1 x_r0_g57 -1 x_r0_g15 >= -1 ;
1 p_r0_g66_h24_t42 -1 x_r0_g66 <= 0 ;
1 p_r0_g66_h24_t42 -1 x_r0_g24 <= 0 ;
1 p_r0_g66_h24_t42 -1 x_r0_g66 -1 x_r0_g24 >= -1 ;
1 p_r0_g89_h47_t42 -1 x_r0_g89 <= 0 ;
1 p_r0_g89_h47_t42 -1 x_r0_g47 <= 0 ;
1 p_r0_g89_h47_t42 -1 x_r0_g89 -1 x_r0_g47 >= -1 ;
1 p_r0_g108_h66_t42 -1 x_r0_g108 <= 0 ;
1 p_r0_g108_h66_t42 -1 x_r0_g66 <= 0 ;
1 p_r0_g108_h66_t42 -1 x_r0_g108 -1 x_r0_g66 >= -1 ;
1 p_r0_g135_h93_t42 -1 x_r0_g135 <= 0 ;
1 p_r0_g135_h93_t42 -1 x_r0_g93 <= 0 ;
1 p_r0_g135_h93_t42 -1 x_r0_g135 -1 x_r0_g93 >= -1 ;
1 p_r0_g150_h108_t42 -1 x_r0_g150 <= 0 ;
1 p_r0_g150_h108_t42 -1 x_r0_g108 <= 0 ;
1 p_r0_g150_h108_t42 -1 x_r0_g150 -1 x_r0_g108 >= -1 ;
1 p_r1_g23_h148_t42 -1 x_r1_g23 <= 0 ;
1 p_r1_g23_h148_t42 -1 x_r1_g148 <= 0 ;
1 p_r1_g23_h148_t42 -1 x_r1_g23 -1 x_r1_g148 >= -1 ;
1 p_r1_g36_h161_t42 -1 x_r1_g36 <= 0 ;
1 p_r1_g36_h161_t42 -1 x_r1_g161 <= 0 ;
1 p_r1_g36_h161_t42 -1 x_r1_g36 -1 x_r1_g161 >= -1 ;
1 p_r1_g43_h1_t42 -1 x_r1_g43 <= 0 ;
1 p_r1_g43_h1_t42 -1 x_r1_g1 <= 0 ;
1 p_r1_g43_h1_t42 -1 x_r1_g43 -1 x_r1_g1 >= -1 ;
1 p_r1_g48_h6_t42 -1 x_r1_g48 <= 0 ;
1 p_r1_g48_h6_t42 -1 x_r1_g6 <= 0 ;
1 p_r1_g48_h6_t42 -1 x_r1_g48 -1 x_r1_g6 >= -1 ;
1 p_r1_g76_h34_t42 -1 x_r1_g76 <= 0 ;
1 p_r1_g76_h34_t42 -1 x_r1_g34 <= 0 ;
1 p_r1_g76_h34_t42 -1 x_r1_g76 -1 x_r1_g34 >= -1 ;
1 p_r1_g82_h40_t42 -1 x_r1_g82 <= 0 ;
1 p_r1_g82_h40_t42 -1 x_r1_g40 <= 0 ;
1 p_r1_g82_h40_t42 -1 x_r1_g82 -1 x_r1_g40 >= -1 ;
1 p_r1_g84_h42_t42 -1 x_r1_g84 <= 0 ;
1 p_r1_g84_h42_t42 -1 x_r1_g42 <= 0 ;
1 p_r1_g84_h42_t42 -1 x_r1_g84 -1 x_r1_g42 >= -1 ;
1 p_r1_g98_h56_t42 -1 x_r1_g98 <= 0 ;
1 p_r1_g98_h56_t42 -1 x_r1_g56 <= 0 ;
1 p_r1_g98_h56_t42 -1 x_r1_g98 -1 x_r1_g56 >= -1 ;
1 p_r1_g124_h82_t42 -1 x_r1_g124 <= 0 ;
1 p_r1_g124_h82_t42 -1 x_r1_g82 <= 0 ;
1 p_r1_g124_h82_t42 -1 x_r1_g124 -1 x_r1_g82 >= -1 ;
1 p_r1_g141_h99_t42 -1 x_r1_g141 <= 0 ;
1 p_r1_g141_h99_t42 -1 x_r1_g99 <= 0 ;
1 p_r1_g141_h99_t42 -1 x_r1_g141 -1 x_r1_g99 >= -1 ;
1 p_r2_g32_h157_t42 -1 x_r2_g32 <= 0 ;
1 p_r2_g32_h157_t42 -1 x_r2_g157 <= 0 ;
1 p_r2_g32_h157_t42 -1 x_r2_g32 -1 x_r2_g157 >= -1 ;
1 p_r2_g74_h32_t42 -1 x_r2_g74 <= 0 ;
1 p_r2_g74_h32_t42 -1 x_r2_g32 <= 0 ;
1 p_r2_g74_h32_t42 -1 x_r2_g74 -1 x_r2_g32 >= -1 ;
1 p_r2_g93_h51_t42 -1 x_r2_g93 <= 0 ;
1 p_r2_g93_h51_t42 -1 x_r2_g51 <= 0 ;
1 p_r2_g93_h51_t42 -1 x_r2_g93 -1 x_r2_g51 >= -1 ;
1 p_r2_g103_h61_t42 -1 x_r2_g103 <= 0 ;
1 p_r2_g103_h61_t42 -1 x_r2_g61 <= 0 ;
1 p_r2_g103_h61_t42 -1 x_r2_g103 -1 x_r2_g61 >= -1 ;
1 p_r2_g133_h91_t42 -1 x_r2_g133 <= 0 ;
1 p_r2_g133_h91_t42 -1 x_r2_g91 <= 0 ;
1 p_r2_g133_h91_t42 -1 x_r2_g133 -1 x_r2_g91 >= -1 ;
1 p_r2_g135_h93_t42 -1 x_r2_g135 <= 0 ;
1 p_r2_g135_h93_t42 -1 x_r2_g93 <= 0 ;
1 p_r2_g135_h93_t42 -1 x_r2_g135 -1 x_r2_g93 >= -1 ;
1 p_r2_g147_h105_t42 -1 x_r2_g147 <= 0 ;
1 p_r2_g147_h105_t42 -1 x_r2_g105 <= 0 ;
1 p_r2_g147_h105_t42 -1 x_r2_g147 -1 x_r2_g105 >= -1 ;
1 p_r2_g161_h119_t42 -1 x_r2_g161 <= 0 ;
1 p_r2_g161_h119_t42 -1 x_r2_g119 <= 0 ;
1 p_r2_g161_h119_t42 -1 x_r2_g161 -1 x_r2_g119 >= -1 ;
1 p_r3_g24_h149_t42 -1 x_r3_g24 <= 0 ;
1 p_r3_g24_h149_t42 -1 x_r3_g149 <= 0 ;
1 p_r3_g24_h149_t42 -1 x_r3_g24 -1 x_r3_g149 >= -1 ;
1 p_r3_g26_h151_t42 -1 x_r3_g26 <= 0 ;
1 p_r3_g26_h151_t42 -1 x_r3_g151 <= 0 ;
1 p_r3_g26_h151_t42 -1 x_r3_g26 -1 x_r3_g151 >= -1 ;
1 p_r3_g31_h156_t42 -1 x_r3_g31 <= 0 ;
1 p_r3_g31_h156_t42 -1 x_r3_g156 <= 0 ;
1 p_r3_g31_h156_t42 -1 x_r3_g31 -1 x_r3_g156 >= -1 ;
1 p_r3_g66_h24_t42 -1 x_r3_g66 <= 0 ;
1 p_r3_g66_h24_t42 -1 x_r3_g24 <= 0 ;
1 p_r3_g66_h24_t42 -1 x_r3_g66 -1 x_r3_g24 >= -1 ;
1 p_r3_g68_h26_t42 -1 x_r3_g68 <= 0 ;
1 p_r3_g68_h26_t42 -1 x_r3_g26 <= 0 ;
1 p_r3_g68_h26_t42 -1 x_r3_g68 -1 x_r3_g26 >= -1 ;
1 p_r3_g73_h31_t42 -1 x_r3_g73 <= 0 ;
1 p_r3_g73_h31_t42 -1 x_r3_g31 <= 0 ;
1 p_r3_g73_h31_t42 -1 x_r3_g73 -1 x_r3_g31 >= -1 ;
1 p_r3_g125_h83_t42 -1 x_r3_g125 <= 0 ;
1 p_r3_g125_h83_t42 -1 x_r3_g83 <= 0 ;
1 p_r3_g125_h83_t42 -1 x_r3_g125 -1 x_r3_g83 >= -1 ;
1 p_r3_g166_h124_t42 -1 x_r3_g166 <= 0 ;
1 p_r3_g166_h124_t42 -1 x_r3_g124 <= 0 ;
1 p_r3_g166_h124_t42 -1 x_r3_g166 -1 x_r3_g124 >= -1 ;
1 d_42 -1 x_r0_g1 -1 x_r0_g4 -2 x_r0_g7 -2 x_r0_g12 -1 x_r0_g24 -2 x_r0_g56 -1 x_r0_g69 -1 x_r0_g72 -1 x_r0_g74 -1 x_r0_g79 -2 x_r0_g85 -1 x_r0_g89 -1 x_r0_g91 -1 x_r0_g93 -1 x_r0_g112 -1 x_r0_g119 -1 x_r0_g142 -1 x_r0_g143 -1 x_r0_g150 -1 x_r0_g163 -1 x_r1_g5 -1 x_r1_g21 -1 x_r1_g23 -1 x_r1_g29 -1 x_r1_g34 -1 x_r1_g36 -1 x_r1_g48 -1 x_r1_g60 -1 x_r1_g61 -1 x_r1_g68 -1 x_r1_g69 -1 x_r1_g74 -1 x_r1_g77 -2 x_r1_g88 -1 x_r1_g98 -1 x_r1_g99 -2 x_r1_g104 -1 x_r1_g124 -1 x_r1_g129 -1 x_r1_g138 -2 x_r1_g145 -1 x_r1_g155 -1 x_r1_g161 -1 x_r1_g162 -1 x_r1_g163 -1 x_r2_g15 -1 x_r2_g21 -1 x_r2_g27 -1 x_r2_g35 -2 x_r2_g40 -1 x_r2_g52 -2 x_r2_g73 -1 x_r2_g74 -1 x_r2_g83 -2 x_r2_g85 -1 x_r2_g91 -1 x_r2_g105 -2 x_r2_g106 -1 x_r2_g111 -1 x_r2_g118 -1 x_r2_g124 -1 x_r2_g139 -1 x_r2_g157 -1 x_r2_g162 -1 x_r3_g5 -2 x_r3_g17 -1 x_r3_g21 -2 x_r3_g23 -1 x_r3_g34 -2 x_r3_g38 -1 x_r3_g39 -1 x_r3_g51 -1 x_r3_g60 -1 x_r3_g62 -1 x_r3_g66 -1 x_r3_g68 -2 x_r3_g69 -1 x_r3_g83 -2 x_r3_g87 -1 x_r3_g89 -1 x_r3_g96 -1 x_r3_g100 -1 x_r3_g117 -2 x_r3_g118 -1 x_r3_g137 -2 x_r3_g153 -1 x_r3_g154 -2 x_r3_g161 -1 x_r3_g166 -1 p_r0_g1_h126_t42 -1 p_r0_g11_h136_t42 -1 p_r0_g34_h159_t42 -1 p_r0_g47_h5_t42 -1 p_r0_g53_h11_t42 -1 p_r0_g57_h15_t42 -1 p_r0_g66_h24_t42 -1 p_r0_g89_h47_t42 -1 p_r0_g108_h66_t42 -1 p_r0_g135_h93_t42 -1 p_r0_g150_h108_t42 -1 p_r1_g23_h148_t42 -1 p_r1_g36_h161_t42 -1 p_r1_g43_h1_t42 -1 p_r1_g48_h6_t42 -1 p_r1_g76_h34_t42 -1 p_r1_g82_h40_t42 -1 p_r1_g84_h42_t42 -1 p_r1_g98_h56_t42 -1 p_r1_g124_h82_t42 -1 p_r1_g141_h99_t42 -1 p_r2_g32_h157_t42 -1 p_r2_g74_h32_t42 -1 p_r2_g93_h51_t42 -1 p_r2_g103_h61_t42 -1 p_r2_g133_h91_t42 -1 p_r2_g135_h93_t42 -1 p_r2_g147_h105_t42 -1 p_r2_g161_h119_t42 -1 p_r3_g24_h149_t42 -1 p_r3_g26_h151_t42 -1 p_r3_g31_h156_t42 -1 p_r3_g66_h24_t42 -1 p_r3_g68_h26_t42 -1 p_r3_g73_h31_t42 -1 p_r3_g125_h83_t42 -1 p_r3_g166_h124_t42 = -59 ;
1 d_42 -1 u_42 <= 0 ;
-1 d_42 -1 u_42 <= 0 ;
1 u_42 -1 M <= 0 ;
1 u_42 <= 0 ;
1 p_r0_g1_h124_t44 -1 x_r0_g1 <= 0 ;
1 p_r0_g1_h124_t44 -1 x_r0_g124 <= 0 ;
1 p_r0_g1_h124_t44 -1 x_r0_g1 -1 x_r0_g124 >= -1 ;
1 p_r0_g12_h135_t44 -1 x_r0_g12 <= 0 ;
1 p_r0_g12_h135_t44 -1 x_r0_g135 <= 0 ;
1 p_r0_g12_h135_t44 -1 x_r0_g12 -1 x_r0_g135 >= -1 ;
1 p_r0_g19_h142_t44 -1 x_r0_g19 <= 0 ;
1 p_r0_g19_h142_t44 -1 x_r0_g142 <= 0 ;
1 p_r0_g19_h142_t44 -1 x_r0_g19 -1 x_r0_g142 >= -1 ;
1 p_r0_g56_h12_t44 -1 x_r0_g56 <= 0 ;
1 p_r0_g56_h12_t44 -1 x_r0_g12 <= 0 ;
1 p_r0_g56_h12_t44 -1 x_r0_g56 -1 x_r0_g12 >= -1 ;
1 p_r0_g91_h47_t44 -1 x_r0_g91 <= 0 ;
1 p_r0_g91_h47_t44 -1 x_r0_g47 <= 0 ;
1 p_r0_g91_h47_t44 -1 x_r0_g91 -1 x_r0_g47 >= -1 ;
1 p_r0_g135_h91_t44 -1 x_r0_g135 <= 0 ;
1 p_r0_g135_h91_t44 -1 x_r0_g91 <= 0 ;
1 p_r0_g135_h91_t44 -1 x_r0_g135 -1 x_r0_g91 >= -1 ;
1 p_r0_g150_h106_t44 -1 x_r0_g150 <= 0 ;
1 p_r0_g150_h106_t44 -1 x_r0_g106 <= 0 ;
1 p_r0_g150_h106_t44 -1 x_r0_g150 -1 x_r0_g106 >= -1 ;
1 p_r0_g163_h119_t44 -1 x_r0_g163 <= 0 ;
1 p_r0_g163_h119_t44 -1 x_r0_g119 <= 0 ;
1 p_r0_g163_h119_t44 -1 x_r0_g163 -1 x_r0_g119 >= -1 ;
1 p_r1_g1_h124_t44 -1 x_r1_g1 <= 0 ;
1 p_r1_g1_h124_t44 -1 x_r1_g124 <= 0 ;
1 p_r1_g1_h124_t44 -1 x_r1_g1 -1 x_r1_g124 >= -1 ;
1 p_r1_g6_h129_t44 -1 x_r1_g6 <= 0 ;
1 p_r1_g6_h129_t44 -1 x_r1_g129 <= 0 ;
1 p_r1_g6_h129_t44 -1 x_r1_g6 -1 x_r1_g129 >= -1 ;
1 p_r1_g40_h163_t44 -1 x_r1_g40 <= 0 ;
1 p_r1_g40_h163_t44 -1 x_r1_g163 <= 0 ;
1 p_r1_g40_h163_t44 -1 x_r1_g40 -1 x_r1_g163 >= -1 ;
1 p_r1_g50_h6_t44 -1 x_r1_g50 <= 0 ;
1 p_r1_g50_h6_t44 -1 x_r1_g6 <= 0 ;
1 p_r1_g50_h6_t44 -1 x_r1_g50 -1 x_r1_g6 >= -1 ;
1 p_r1_g84_h40_t44 -1 x_r1_g84 <= 0 ;
1 p_r1_g84_h40_t44 -1 x_r1_g40 <= 0 ;
1 p_r1_g84_h40_t44 -1 x_r1_g84 -1 x_r1_g40 >= -1 ;
1 p_r1_g104_h60_t44 -1 x_r1_g104 <= 0 ;
1 p_r1_g104_h60_t44 -1 x_r1_g60 <= 0 ;
1 p_r1_g104_h60_t44 -1 x_r1_g104 -1 x_r1_g60 >= -1 ;
1 p_r1_g148_h104_t44 -1 x_r1_g148 <= 0 ;
1 p_r1_g148_h104_t44 -1 x_r1_g104 <= 0 ;
1 p_r1_g148_h104_t44 -1 x_r1_g148 -1 x_r1_g104 >= -1 ;
1 p_r2_g34_h157_t44 -1 x_r2_g34 <= 0 ;
1 p_r2_g34_h157_t44 -1 x_r2_g157 <= 0 ;
1 p_r2_g34_h157_t44 -1 x_r2_g34 -1 x_r2_g157 >= -1 ;
1 p_r2_g74_h30_t44 -1 x_r2_g74 <= 0 ;
1 p_r2_g74_h30_t44 -1 x_r2_g30 <= 0 ;
1 p_r2_g74_h30_t44 -1 x_r2_g74 -1 x_r2_g30 >= -1 ;
1 p_r2_g105_h61_t44 -1 x_r2_g105 <= 0 ;
1 p_r2_g105_h61_t44 -1 x_r2_g61 <= 0 ;
1 p_r2_g105_h61_t44 -1 x_r2_g105 -1 x_r2_g61 >= -1 ;
1 p_r2_g118_h74_t44 -1 x_r2_g118 <= 0 ;
1 p_r2_g118_h74_t44 -1 x_r2_g74 <= 0 ;
1 p_r2_g118_h74_t44 -1 x_r2_g118 -1 x_r2_g74 >= -1 ;
1 p_r2_g135_h91_t44 -1 x_r2_g135 <= 0 ;
1 p_r2_g135_h91_t44 -1 x_r2_g91 <= 0 ;
1 p_r2_g135_h91_t44 -1 x_r2_g135 -1 x_r2_g91 >= -1 ;
1 p_r2_g147_h103_t44 -1 x_r2_g147 <= 0 ;
1 p_r2_g147_h103_t44 -1 x_r2_g103 <= 0 ;
1 p_r2_g147_h103_t44 -1 x_r2_g147 -1 x_r2_g103 >= -1 ;
1 p_r2_g162_h118_t44 -1 x_r2_g162 <= 0 ;
1 p_r2_g162_h118_t44 -1 x_r2_g118 <= 0 ;
1 p_r2_g162_h118_t44 -1 x_r2_g162 -1 x_r2_g118 >= -1 ;
1 p_r3_g26_h149_t44 -1 x_r3_g26 <= 0 ;
1 p_r3_g26_h149_t44 -1 x_r3_g149 <= 0 ;
1 p_r3_g26_h149_t44 -1 x_r3_g26 -1 x_r3_g149 >= -1 ;
1 p_r3_g31_h154_t44 -1 x_r3_g31 <= 0 ;
1 p_r3_g31_h154_t44 -1 x_r3_g154 <= 0 ;
1 p_r3_g31_h154_t44 -1 x_r3_g31 -1 x_r3_g154 >= -1 ;
1 p_r3_g38_h161_t44 -1 x_r3_g38 <= 0 ;
1 p_r3_g38_h161_t44 -1 x_r3_g161 <= 0 ;
1 p_r3_g38_h161_t44 -1 x_r3_g38 -1 x_r3_g161 >= -1 ;
1 p_r3_g66_h22_t44 -1 x_r3_g66 <= 0 ;
1 p_r3_g66_h22_t44 -1 x_r3_g22 <= 0 ;
1 p_r3_g66_h22_t44 -1 x_r3_g66 -1 x_r3_g22 >= -1 ;
1 p_r3_g68_h24_t44 -1 x_r3_g68 <= 0 ;
1 p_r3_g68_h24_t44 -1 x_r3_g24 <= 0 ;
1 p_r3_g68_h24_t44 -1 x_r3_g68 -1 x_r3_g24 >= -1 ;
1 p_r3_g69_h25_t44 -1 x_r3_g69 <= 0 ;
1 p_r3_g69_h25_t44 -1 x_r3_g25 <= 0 ;
1 p_r3_g69_h25_t44 -1 x_r3_g69 -1 x_r3_g25 >= -1 ;
1 p_r3_g83_h39_t44 -1 x_r3_g83 <= 0 ;
1 p_r3_g83_h39_t44 -1 x_r3_g39 <= 0 ;
1 p_r3_g83_h39_t44 -1 x_r3_g83 -1 x_r3_g39 >= -1 ;
1 p_r3_g117_h73_t44 -1 x_r3_g117 <= 0 ;
1 p_r3_g117_h73_t44 -1 x_r3_g73 <= 0 ;
1 p_r3_g117_h73_t44 -1 x_r3_g117 -1 x_r3_g73 >= -1 ;
1 p_r3_g161_h117_t44 -1 x_r3_g161 <= 0 ;
1 p_r3_g161_h117_t44 -1 x_r3_g117 <= 0 ;
1 p_r3_g161_h117_t44 -1 x_r3_g161 -1 x_r3_g117 >= -1 ;
1 d_44 -1 x_r0_g1 -2 x_r0_g4 -1 x_r0_g5 -1 x_r0_g7 -1 x_r0_g11 -1 x_r0_g15 -1 x_r0_g19 -1 x_r0_g24 -1 x_r0_g34 -1 x_r0_g47 -1 x_r0_g56 -2 x_r0_g57 -2 x_r0_g69 -1 x_r0_g72 -2 x_r0_g74 -1 x_r0_g79 -1 x_r0_g89 -2 x_r0_g93 -1 x_r0_g103 -1 x_r0_g106 -1 x_r0_g108 -1 x_r0_g112 -1 x_r0_g126 -1 x_r0_g136 -1 x_r0_g142 -1 x_r0_g143 -1 x_r0_g146 -1 x_r0_g159 -1 x_r0_g163 -2 x_r1_g5 -1 x_r1_g21 -1 x_r1_g23 -2 x_r1_g34 -2 x_r1_g36 -2 x_r1_g43 -1 x_r1_g56 -2 x_r1_g64 -1 x_r1_g68 -2 x_r1_g69 -1 x_r1_g76 -1 x_r1_g82 -1 x_r1_g84 -2 x_r1_g88 -1 x_r1_g109 -1 x_r1_g124 -1 x_r1_g138 -1 x_r1_g141 -1 x_r1_g148 -1 x_r1_g155 -1 x_r1_g161 -1 x_r1_g162 -1 x_r1_g163 -1 x_r2_g13 -1 x_r2_g21 -1 x_r2_g27 -1 x_r2_g30 -1 x_r2_g34 -1 x_r2_g35 -1 x_r2_g40 -1 x_r2_g45 -1 x_r2_g51 -2 x_r2_g58 -2 x_r2_g83 -2 x_r2_g85 -2 x_r2_g93 -2 x_r2_g104 -1 x_r2_g106 -1 x_r2_g112 -2 x_r2_g119 -2 x_r2_g124 -2 x_r2_g130 -1 x_r2_g141 -1 x_r2_g157 -1 x_r2_g162 -2 x_r3_g5 -2 x_r3_g17 -2 x_r3_g21 -1 x_r3_g22 -1 x_r3_g23 -1 x_r3_g25 -1 x_r3_g31 -1 x_r3_g34 -1 x_r3_g39 -1 x_r3_g42 -1 x_r3_g53 -2 x_r3_g62 -1 x_r3_g66 -1 x_r3_g68 -1 x_r3_g83 -1 x_r3_g87 -1 x_r3_g89 -2 x_r3_g90 -1 x_r3_g96 -1 x_r3_g100 -2 x_r3_g118 -2 x_r3_g124 -2 x_r3_g125 -1 x_r3_g151 -1 x_r3_g153 -1 x_r3_g154 -1 x_r3_g156 -2 x_r3_g166 -1 p_r0_g1_h124_t44 -1 p_r0_g12_h135_t44 -1 p_r0_g19_h142_t44 -1 p_r0_g56_h12_t44 -1 p_r0_g91_h47_t44 -1 p_r0_g135_h91_t44 -1 p_r0_g150_h106_t44 -1 p_r0_g163_h119_t44 -1 p_r1_g1_h124_t44 -1 p_r1_g6_h129_t44 -1 p_r1_g40_h163_t44 -1 p_r1_g50_h6_t44 -1 p_r1_g84_h40_t44 -1 p_r1_g104_h60_t44 -1 p_r1_g148_h104_t44 -1 p_r2_g34_h157_t44 -1 p_r2_g74_h30_t44 -1 p_r2_g105_h61_t44 -1 p_r2_g118_h74_t44 -1 p_r2_g135_h91_t44 -1 p_r2_g147_h103_t44 -1 p_r2_g162_h118_t44 -1 p_r3_g26_h149_t44 -1 p_r3_g31_h154_t44 -1 p_r3_g38_h161_t44 -1 p_r3_g66_h22_t44 -1 p_r3_g68_h24_t44 -1 p_r3_g69_h25_t44 -1 p_r3_g83_h39_t44 -1 p_r3_g117_h73_t44 -1 p_r3_g161_h117_t44 = -87 ;
1 d_44 -1 u_44 <= 0 ;
-1 d_44 -1 u_44 <= 0 ;
1 u_44 -1 M <= 0 ;
1 u_44 <= 2 ;
1 p_r0_g4_h124_t47 -1 x_r0_g4 <= 0 ;
1 p_r0_g4_h124_t47 -1 x_r0_g124 <= 0 ;
1 p_r0_g4_h124_t47 -1 x_r0_g4 -1 x_r0_g124 >= -1 ;
1 p_r0_g15_h135_t47 -1 x_r0_g15 <= 0 ;
1 p_r0_g15_h135_t47 -1 x_r0_g135 <= 0 ;
1 p_r0_g15_h135_t47 -1 x_r0_g15 -1 x_r0_g135 >= -1 ;
1 p_r0_g39_h159_t47 -1 x_r0_g39 <= 0 ;
1 p_r0_g39_h159_t47 -1 x_r0_g159 <= 0 ;
1 p_r0_g39_h159_t47 -1 x_r0_g39 -1 x_r0_g159 >= -1 ;
1 p_r0_g66_h19_t47 -1 x_r0_g66 <= 0 ;
1 p_r0_g66_h19_t47 -1 x_r0_g19 <= 0 ;
1 p_r0_g66_h19_t47 -1 x_r0_g66 -1 x_r0_g19 >= -1 ;
1 p_r0_g103_h56_t47 -1 x_r0_g103 <= 0 ;
1 p_r0_g103_h56_t47 -1 x_r0_g56 <= 0 ;
1 p_r0_g103_h56_t47 -1 x_r0_g103 -1 x_r0_g56 >= -1 ;
1 p_r0_g112_h65_t47 -1 x_r0_g112 <= 0 ;
1 p_r0_g112_h65_t47 -1 x_r0_g65 <= 0 ;
1 p_r0_g112_h65_t47 -1 x_r0_g112 -1 x_r0_g65 >= -1 ;
1 p_r0_g119_h72_t47 -1 x_r0_g119 <= 0 ;
1 p_r0_g119_h72_t47 -1 x_r0_g72 <= 0 ;
1 p_r0_g119_h72_t47 -1 x_r0_g119 -1 x_r0_g72 >= -1 ;
1 p_r0_g126_h79_t47 -1 x_r0_g126 <= 0 ;
1 p_r0_g126_h79_t47 -1 x_r0_g79 <= 0 ;
1 p_r0_g126_h79_t47 -1 x_r0_g126 -1 x_r0_g79 >= -1 ;
1 p_r0_g136_h89_t47 -1 x_r0_g136 <= 0 ;
1 p_r0_g136_h89_t47 -1 x_r0_g89 <= 0 ;
1 p_r0_g136_h89_t47 -1 x_r0_g136 -1 x_r0_g89 >= -1 ;
1 p_r0_g150_h103_t47 -1 x_r0_g150 <= 0 ;
1 p_r0_g150_h103_t47 -1 x_r0_g103 <= 0 ;
1 p_r0_g150_h103_t47 -1 x_r0_g150 -1 x_r0_g103 >= -1 ;
1 p_r0_g159_h112_t47 -1 x_r0_g159 <= 0 ;
1 p_r0_g159_h112_t47 -1 x_r0_g112 <= 0 ;
1 p_r0_g159_h112_t47 -1 x_r0_g159 -1 x_r0_g112 >= -1 ;
1 p_r1_g21_h141_t47 -1 x_r1_g21 <= 0 ;
1 p_r1_g21_h141_t47 -1 x_r1_g141 <= 0 ;
1 p_r1_g21_h141_t47 -1 x_r1_g21 -1 x_r1_g141 >= -1 ;
1 p_r1_g42_h162_t47 -1 x_r1_g42 <= 0 ;
1 p_r1_g42_h162_t47 -1 x_r1_g162 <= 0 ;
1 p_r1_g42_h162_t47 -1 x_r1_g42 -1 x_r1_g162 >= -1 ;
1 p_r1_g43_h163_t47 -1 x_r1_g43 <= 0 ;
1 p_r1_g43_h163_t47 -1 x_r1_g163 <= 0 ;
1 p_r1_g43_h163_t47 -1 x_r1_g43 -1 x_r1_g163 >= -1 ;
1 p_r1_g48_h1_t47 -1 x_r1_g48 <= 0 ;
1 p_r1_g48_h1_t47 -1 x_r1_g1 <= 0 ;
1 p_r1_g48_h1_t47 -1 x_r1_g48 -1 x_r1_g1 >= -1 ;
1 p_r1_g68_h21_t47 -1 x_r1_g68 <= 0 ;
1 p_r1_g68_h21_t47 -1 x_r1_g21 <= 0 ;
1 p_r1_g68_h21_t47 -1 x_r1_g68 -1 x_r1_g21 >= -1 ;
1 p_r1_g76_h29_t47 -1 x_r1_g76 <= 0 ;
1 p_r1_g76_h29_t47 -1 x_r1_g29 <= 0 ;
1 p_r1_g76_h29_t47 -1 x_r1_g76 -1 x_r1_g29 >= -1 ;
1 p_r1_g124_h77_t47 -1 x_r1_g124 <= 0 ;
1 p_r1_g124_h77_t47 -1 x_r1_g77 <= 0 ;
1 p_r1_g124_h77_t47 -1 x_r1_g124 -1 x_r1_g77 >= -1 ;
1 p_r1_g129_h82_t47 -1 x_r1_g129 <= 0 ;
1 p_r1_g129_h82_t47 -1 x_r1_g82 <= 0 ;
1 p_r1_g129_h82_t47 -1 x_r1_g129 -1 x_r1_g82 >= -1 ;
1 p_r1_g145_h98_t47 -1 x_r1_g145 <= 0 ;
1 p_r1_g145_h98_t47 -1 x_r1_g98 <= 0 ;
1 p_r1_g145_h98_t47 -1 x_r1_g145 -1 x_r1_g98 >= -1 ;
1 p_r2_g13_h133_t47 -1 x_r2_g13 <= 0 ;
1 p_r2_g13_h133_t47 -1 x_r2_g133 <= 0 ;
1 p_r2_g13_h133_t47 -1 x_r2_g13 -1 x_r2_g133 >= -1 ;
1 p_r2_g15_h135_t47 -1 x_r2_g15 <= 0 ;
1 p_r2_g15_h135_t47 -1 x_r2_g135 <= 0 ;
1 p_r2_g15_h135_t47 -1 x_r2_g15 -1 x_r2_g135 >= -1 ;
1 p_r2_g21_h141_t47 -1 x_r2_g21 <= 0 ;
1 p_r2_g21_h141_t47 -1 x_r2_g141 <= 0 ;
1 p_r2_g21_h141_t47 -1 x_r2_g21 -1 x_r2_g141 >= -1 ;
1 p_r2_g27_h147_t47 -1 x_r2_g27 <= 0 ;
1 p_r2_g27_h147_t47 -1 x_r2_g147 <= 0 ;
1 p_r2_g27_h147_t47 -1 x_r2_g27 -1 x_r2_g147 >= -1 ;
1 p_r2_g74_h27_t47 -1 x_r2_g74 <= 0 ;
1 p_r2_g74_h27_t47 -1 x_r2_g27 <= 0 ;
1 p_r2_g74_h27_t47 -1 x_r2_g74 -1 x_r2_g27 >= -1 ;
1 p_r2_g105_h58_t47 -1 x_r2_g105 <= 0 ;
1 p_r2_g105_h58_t47 -1 x_r2_g58 <= 0 ;
1 p_r2_g105_h58_t47 -1 x_r2_g105 -1 x_r2_g58 >= -1 ;
1 p_r2_g130_h83_t47 -1 x_r2_g130 <= 0 ;
1 p_r2_g130_h83_t47 -1 x_r2_g83 <= 0 ;
1 p_r2_g130_h83_t47 -1 x_r2_g130 -1 x_r2_g83 >= -1 ;
1 p_r3_g5_h125_t47 -1 x_r3_g5 <= 0 ;
1 p_r3_g5_h125_t47 -1 x_r3_g125 <= 0 ;
1 p_r3_g5_h125_t47 -1 x_r3_g5 -1 x_r3_g125 >= -1 ;
1 p_r3_g17_h137_t47 -1 x_r3_g17 <= 0 ;
1 p_r3_g17_h137_t47 -1 x_r3_g137 <= 0 ;
1 p_r3_g17_h137_t47 -1 x_r3_g17 -1 x_r3_g137 >= -1 ;
1 p_r3_g31_h151_t47 -1 x_r3_g31 <= 0 ;
1 p_r3_g31_h151_t47 -1 x_r3_g151 <= 0 ;
1 p_r3_g31_h151_t47 -1 x_r3_g31 -1 x_r3_g151 >= -1 ;
1 p_r3_g34_h154_t47 -1 x_r3_g34 <= 0 ;
1 p_r3_g34_h154_t47 -1 x_r3_g154 <= 0 ;
1 p_r3_g34_h154_t47 -1 x_r3_g34 -1 x_r3_g154 >= -1 ;
1 p_r3_g38_h158_t47 -1 x_r3_g38 <= 0 ;
1 p_r3_g38_h158_t47 -1 x_r3_g158 <= 0 ;
1 p_r3_g38_h158_t47 -1 x_r3_g38 -1 x_r3_g158 >= -1 ;
1 p_r3_g68_h21_t47 -1 x_r3_g68 <= 0 ;
1 p_r3_g68_h21_t47 -1 x_r3_g21 <= 0 ;
1 p_r3_g68_h21_t47 -1 x_r3_g68 -1 x_r3_g21 >= -1 ;
1 p_r3_g69_h22_t47 -1 x_r3_g69 <= 0 ;
1 p_r3_g69_h22_t47 -1 x_r3_g22 <= 0 ;
1 p_r3_g69_h22_t47 -1 x_r3_g69 -1 x_r3_g22 >= -1 ;
1 p_r3_g73_h26_t47 -1 x_r3_g73 <= 0 ;
1 p_r3_g73_h26_t47 -1 x_r3_g26 <= 0 ;
1 p_r3_g73_h26_t47 -1 x_r3_g73 -1 x_r3_g26 >= -1 ;
1 p_r3_g89_h42_t47 -1 x_r3_g89 <= 0 ;
1 p_r3_g89_h42_t47 -1 x_r3_g42 <= 0 ;
1 p_r3_g89_h42_t47 -1 x_r3_g89 -1 x_r3_g42 >= -1 ;
1 p_r3_g100_h53_t47 -1 x_r3_g100 <= 0 ;
1 p_r3_g100_h53_t47 -1 x_r3_g53 <= 0 ;
1 p_r3_g100_h53_t47 -1 x_r3_g100 -1 x_r3_g53 >= -1 ;
1 p_r3_g137_h90_t47 -1 x_r3_g137 <= 0 ;
1 p_r3_g137_h90_t47 -1 x_r3_g90 <= 0 ;
1 p_r3_g137_h90_t47 -1 x_r3_g137 -1 x_r3_g90 >= -1 ;
1 d_47 -1 x_r0_g1 -1 x_r0_g4 -1 x_r0_g5 -2 x_r0_g7 -2 x_r0_g11 -2 x_r0_g12 -1 x_r0_g15 -1 x_r0_g19 -2 x_r0_g53 -1 x_r0_g66 -1 x_r0_g69 -1 x_r0_g72 -2 x_r0_g85 -1 x_r0_g89 -1 x_r0_g93 -1 x_r0_g106 -1 x_r0_g108 -1 x_r0_g124 -1 x_r0_g126 -1 x_r0_g135 -1 x_r0_g150 -2 x_r0_g163 -1 x_r1_g6 -1 x_r1_g23 -2 x_r1_g34 -1 x_r1_g36 -2 x_r1_g40 -1 x_r1_g42 -1 x_r1_g43 -1 x_r1_g48 -1 x_r1_g50 -1 x_r1_g56 -1 x_r1_g60 -1 x_r1_g61 -1 x_r1_g68 -1 x_r1_g74 -1 x_r1_g76 -1 x_r1_g84 -1 x_r1_g99 -1 x_r1_g104 -2 x_r1_g109 -1 x_r1_g127 -2 x_r1_g138 -1 x_r1_g145 -1 x_r1_g155 -1 x_r1_g161 -1 x_r1_g162 -1 x_r2_g13 -1 x_r2_g21 -1 x_r2_g30 -1 x_r2_g32 -1 x_r2_g35 -1 x_r2_g40 -1 x_r2_g45 -2 x_r2_g51 -1 x_r2_g61 -2 x_r2_g73 -1 x_r2_g74 -1 x_r2_g85 -2 x_r2_g93 -1 x_r2_g101 -2 x_r2_g103 -1 x_r2_g104 -1 x_r2_g105 -1 x_r2_g106 -2 x_r2_g111 -1 x_r2_g112 -1 x_r2_g118 -1 x_r2_g124 -1 x_r2_g133 -1 x_r2_g141 -1 x_r2_g157 -2 x_r2_g161 -1 x_r2_g162 -1 x_r3_g22 -1 x_r3_g23 -1 x_r3_g24 -1 x_r3_g25 -1 x_r3_g26 -1 x_r3_g31 -1 x_r3_g34 -1 x_r3_g39 -1 x_r3_g42 -2 x_r3_g51 -1 x_r3_g53 -1 x_r3_g60 -1 x_r3_g66 -1 x_r3_g83 -2 x_r3_g87 -1 x_r3_g90 -2 x_r3_g96 -1 x_r3_g124 -1 x_r3_g125 -1 x_r3_g153 -1 x_r3_g156 -1 x_r3_g158 -1 x_r3_g161 -2 x_r3_g166 -1 p_r0_g4_h124_t47 -1 p_r0_g15_h135_t47 -1 p_r0_g39_h159_t47 -1 p_r0_g66_h19_t47 -1 p_r0_g103_h56_t47 -1 p_r0_g112_h65_t47 -1 p_r0_g119_h72_t47 -1 p_r0_g126_h79_t47 -1 p_r0_g136_h89_t47 -1 p_r0_g150_h103_t47 -1 p_r0_g159_h112_t47 -1 p_r1_g21_h141_t47 -1 p_r1_g42_h162_t47 -1 p_r1_g43_h163_t47 -1 p_r1_g48_h1_t47 -1 p_r1_g68_h21_t47 -1 p_r1_g76_h29_t47 -1 p_r1_g124_h77_t47 -1 p_r1_g129_h82_t47 -1 p_r1_g145_h98_t47 -1 p_r2_g13_h133_t47 -1 p_r2_g15_h135_t47 -1 p_r2_g21_h141_t47 -1 p_r2_g27_h147_t47 -1 p_r2_g74_h27_t47 -1 p_r2_g105_h58_t47 -1 p_r2_g130_h83_t47 -1 p_r3_g5_h125_t47 -1 p_r3_g17_h137_t47 -1 p_r3_g31_h151_t47 -1 p_r3_g34_h154_t47 -1 p_r3_g38_h158_t47 -1 p_r3_g68_h21_t47 -1 p_r3_g69_h22_t47 -1 p_r3_g73_h26_t47 -1 p_r3_g89_h42_t47 -1 p_r3_g100_h53_t47 -1 p_r3_g137_h90_t47 = -56 ;
1 d_47 -1 u_47 <= 0 ;
-1 d_47 -1 u_47 <= 0 ;
1 u_47 -1 M <= 0 ;
1 u_47 <= 2 ;
1 p_r0_g7_h124_t50 -1 x_r0_g7 <= 0 ;
1 p_r0_g7_h124_t50 -1 x_r0_g124 <= 0 ;
1 p_r0_g7_h124_t50 -1 x_r0_g7 -1 x_r0_g124 >= -1 ;
1 p_r0_g19_h136_t50 -1 x_r0_g19 <= 0 ;
1 p_r0_g19_h136_t50 -1 x_r0_g136 <= 0 ;
1 p_r0_g19_h136_t50 -1 x_r0_g19 -1 x_r0_g136 >= -1 ;
1 p_r0_g57_h7_t50 -1 x_r0_g57 <= 0 ;
1 p_r0_g57_h7_t50 -1 x_r0_g7 <= 0 ;
1 p_r0_g57_h7_t50 -1 x_r0_g57 -1 x_r0_g7 >= -1 ;
1 p_r0_g65_h15_t50 -1 x_r0_g65 <= 0 ;
1 p_r0_g65_h15_t50 -1 x_r0_g15 <= 0 ;
1 p_r0_g65_h15_t50 -1 x_r0_g65 -1 x_r0_g15 >= -1 ;
1 p_r0_g69_h19_t50 -1 x_r0_g69 <= 0 ;
1 p_r0_g69_h19_t50 -1 x_r0_g19 <= 0 ;
1 p_r0_g69_h19_t50 -1 x_r0_g69 -1 x_r0_g19 >= -1 ;
1 p_r0_g74_h24_t50 -1 x_r0_g74 <= 0 ;
1 p_r0_g74_h24_t50 -1 x_r0_g24 <= 0 ;
1 p_r0_g74_h24_t50 -1 x_r0_g74 -1 x_r0_g24 >= -1 ;
1 p_r0_g89_h39_t50 -1 x_r0_g89 <= 0 ;
1 p_r0_g89_h39_t50 -1 x_r0_g39 <= 0 ;
1 p_r0_g89_h39_t50 -1 x_r0_g89 -1 x_r0_g39 >= -1 ;
1 p_r0_g103_h53_t50 -1 x_r0_g103 <= 0 ;
1 p_r0_g103_h53_t50 -1 x_r0_g53 <= 0 ;
1 p_r0_g103_h53_t50 -1 x_r0_g103 -1 x_r0_g53 >= -1 ;
1 p_r0_g106_h56_t50 -1 x_r0_g106 <= 0 ;
1 p_r0_g106_h56_t50 -1 x_r0_g56 <= 0 ;
1 p_r0_g106_h56_t50 -1 x_r0_g106 -1 x_r0_g56 >= -1 ;
1 p_r0_g119_h69_t50 -1 x_r0_g119 <= 0 ;
1 p_r0_g119_h69_t50 -1 x_r0_g69 <= 0 ;
1 p_r0_g119_h69_t50 -1 x_r0_g119 -1 x_r0_g69 >= -1 ;
1 p_r0_g124_h74_t50 -1 x_r0_g124 <= 0 ;
1 p_r0_g124_h74_t50 -1 x_r0_g74 <= 0 ;
1 p_r0_g124_h74_t50 -1 x_r0_g124 -1 x_r0_g74 >= -1 ;
1 p_r0_g135_h85_t50 -1 x_r0_g135 <= 0 ;
1 p_r0_g135_h85_t50 -1 x_r0_g85 <= 0 ;
1 p_r0_g135_h85_t50 -1 x_r0_g135 -1 x_r0_g85 >= -1 ;
1 p_r0_g143_h93_t50 -1 x_r0_g143 <= 0 ;
1 p_r0_g143_h93_t50 -1 x_r0_g93 <= 0 ;
1 p_r0_g143_h93_t50 -1 x_r0_g143 -1 x_r0_g93 >= -1 ;
1 p_r1_g21_h138_t50 -1 x_r1_g21 <= 0 ;
1 p_r1_g21_h138_t50 -1 x_r1_g138 <= 0 ;
1 p_r1_g21_h138_t50 -1 x_r1_g21 -1 x_r1_g138 >= -1 ;
1 p_r1_g56_h6_t50 -1 x_r1_g56 <= 0 ;
1 p_r1_g56_h6_t50 -1 x_r1_g6 <= 0 ;
1 p_r1_g56_h6_t50 -1 x_r1_g56 -1 x_r1_g6 >= -1 ;
1 p_r1_g84_h34_t50 -1 x_r1_g84 <= 0 ;
1 p_r1_g84_h34_t50 -1 x_r1_g34 <= 0 ;
1 p_r1_g84_h34_t50 -1 x_r1_g84 -1 x_r1_g34 >= -1 ;
1 p_r1_g98_h48_t50 -1 x_r1_g98 <= 0 ;
1 p_r1_g98_h48_t50 -1 x_r1_g48 <= 0 ;
1 p_r1_g98_h48_t50 -1 x_r1_g98 -1 x_r1_g48 >= -1 ;
1 p_r1_g124_h74_t50 -1 x_r1_g124 <= 0 ;
1 p_r1_g124_h74_t50 -1 x_r1_g74 <= 0 ;
1 p_r1_g124_h74_t50 -1 x_r1_g124 -1 x_r1_g74 >= -1 ;
1 p_r1_g127_h77_t50 -1 x_r1_g127 <= 0 ;
1 p_r1_g127_h77_t50 -1 x_r1_g77 <= 0 ;
1 p_r1_g127_h77_t50 -1 x_r1_g127 -1 x_r1_g77 >= -1 ;
1 p_r1_g138_h88_t50 -1 x_r1_g138 <= 0 ;
1 p_r1_g138_h88_t50 -1 x_r1_g88 <= 0 ;
1 p_r1_g138_h88_t50 -1 x_r1_g138 -1 x_r1_g88 >= -1 ;
1 p_r1_g148_h98_t50 -1 x_r1_g148 <= 0 ;
1 p_r1_g148_h98_t50 -1 x_r1_g98 <= 0 ;
1 p_r1_g148_h98_t50 -1 x_r1_g148 -1 x_r1_g98 >= -1 ;
1 p_r2_g13_h130_t50 -1 x_r2_g13 <= 0 ;
1 p_r2_g13_h130_t50 -1 x_r2_g130 <= 0 ;
1 p_r2_g13_h130_t50 -1 x_r2_g13 -1 x_r2_g130 >= -1 ;
1 p_r2_g30_h147_t50 -1 x_r2_g30 <= 0 ;
1 p_r2_g30_h147_t50 -1 x_r2_g147 <= 0 ;
1 p_r2_g30_h147_t50 -1 x_r2_g30 -1 x_r2_g147 >= -1 ;
1 p_r2_g40_h157_t50 -1 x_r2_g40 <= 0 ;
1 p_r2_g40_h157_t50 -1 x_r2_g157 <= 0 ;
1 p_r2_g40_h157_t50 -1 x_r2_g40 -1 x_r2_g157 >= -1 ;
1 p_r2_g45_h162_t50 -1 x_r2_g45 <= 0 ;
1 p_r2_g45_h162_t50 -1 x_r2_g162 <= 0 ;
1 p_r2_g45_h162_t50 -1 x_r2_g45 -1 x_r2_g162 >= -1 ;
1 p_r2_g85_h35_t50 -1 x_r2_g85 <= 0 ;
1 p_r2_g85_h35_t50 -1 x_r2_g35 <= 0 ;
1 p_r2_g85_h35_t50 -1 x_r2_g85 -1 x_r2_g35 >= -1 ;
1 p_r2_g101_h51_t50 -1 x_r2_g101 <= 0 ;
1 p_r2_g101_h51_t50 -1 x_r2_g51 <= 0 ;
1 p_r2_g101_h51_t50 -1 x_r2_g101 -1 x_r2_g51 >= -1 ;
1 p_r2_g103_h53_t50 -1 x_r2_g103 <= 0 ;
1 p_r2_g103_h53_t50 -1 x_r2_g53 <= 0 ;
1 p_r2_g103_h53_t50 -1 x_r2_g103 -1 x_r2_g53 >= -1 ;
1 p_r2_g111_h61_t50 -1 x_r2_g111 <= 0 ;
1 p_r2_g111_h61_t50 -1 x_r2_g61 <= 0 ;
1 p_r2_g111_h61_t50 -1 x_r2_g111 -1 x_r2_g61 >= -1 ;
1 p_r2_g124_h74_t50 -1 x_r2_g124 <= 0 ;
1 p_r2_g124_h74_t50 -1 x_r2_g74 <= 0 ;
1 p_r2_g124_h74_t50 -1 x_r2_g124 -1 x_r2_g74 >= -1 ;
1 p_r2_g133_h83_t50 -1 x_r2_g133 <= 0 ;
1 p_r2_g133_h83_t50 -1 x_r2_g83 <= 0 ;
1 p_r2_g133_h83_t50 -1 x_r2_g133 -1 x_r2_g83 >= -1 ;
1 p_r2_g135_h85_t50 -1 x_r2_g135 <= 0 ;
1 p_r2_g135_h85_t50 -1 x_r2_g85 <= 0 ;
1 p_r2_g135_h85_t50 -1 x_r2_g135 -1 x_r2_g85 >= -1 ;
1 p_r2_g141_h91_t50 -1 x_r2_g141 <= 0 ;
1 p_r2_g141_h91_t50 -1 x_r2_g91 <= 0 ;
1 p_r2_g141_h91_t50 -1 x_r2_g141 -1 x_r2_g91 >= -1 ;
1 p_r2_g161_h111_t50 -1 x_r2_g161 <= 0 ;
1 p_r2_g161_h111_t50 -1 x_r2_g111 <= 0 ;
1 p_r2_g161_h111_t50 -1 x_r2_g161 -1 x_r2_g111 >= -1 ;
1 p_r2_g162_h112_t50 -1 x_r2_g162 <= 0 ;
1 p_r2_g162_h112_t50 -1 x_r2_g112 <= 0 ;
1 p_r2_g162_h112_t50 -1 x_r2_g162 -1 x_r2_g112 >= -1 ;
1 p_r3_g34_h151_t50 -1 x_r3_g34 <= 0 ;
1 p_r3_g34_h151_t50 -1 x_r3_g151 <= 0 ;
1 p_r3_g34_h151_t50 -1 x_r3_g34 -1 x_r3_g151 >= -1 ;
1 p_r3_g39_h156_t50 -1 x_r3_g39 <= 0 ;
1 p_r3_g39_h156_t50 -1 x_r3_g156 <= 0 ;
1 p_r3_g39_h156_t50 -1 x_r3_g39 -1 x_r3_g156 >= -1 ;
1 p_r3_g73_h23_t50 -1 x_r3_g73 <= 0 ;
1 p_r3_g73_h23_t50 -1 x_r3_g23 <= 0 ;
1 p_r3_g73_h23_t50 -1 x_r3_g73 -1 x_r3_g23 >= -1 ;
1 p_r3_g89_h39_t50 -1 x_r3_g89 <= 0 ;
1 p_r3_g89_h39_t50 -1 x_r3_g39 <= 0 ;
1 p_r3_g89_h39_t50 -1 x_r3_g89 -1 x_r3_g39 >= -1 ;
1 p_r3_g118_h68_t50 -1 x_r3_g118 <= 0 ;
1 p_r3_g118_h68_t50 -1 x_r3_g68 <= 0 ;
1 p_r3_g118_h68_t50 -1 x_r3_g118 -1 x_r3_g68 >= -1 ;
1 p_r3_g137_h87_t50 -1 x_r3_g137 <= 0 ;
1 p_r3_g137_h87_t50 -1 x_r3_g87 <= 0 ;
1 p_r3_g137_h87_t50 -1 x_r3_g137 -1 x_r3_g87 >= -1 ;
1 d_50 -2 x_r0_g1 -1 x_r0_g4 -2 x_r0_g5 -1 x_r0_g12 -1 x_r0_g15 -1 x_r0_g34 -1 x_r0_g53 -1 x_r0_g56 -1 x_r0_g66 -1 x_r0_g72 -1 x_r0_g89 -1 x_r0_g93 -2 x_r0_g108 -1 x_r0_g112 -1 x_r0_g142 -1 x_r0_g150 -1 x_r0_g159 -2 x_r0_g163 -1 x_r1_g6 -1 x_r1_g23 -2 x_r1_g29 -2 x_r1_g40 -1 x_r1_g42 -1 x_r1_g43 -1 x_r1_g50 -1 x_r1_g60 -1 x_r1_g61 -1 x_r1_g64 -1 x_r1_g68 -1 x_r1_g69 -1 x_r1_g76 -1 x_r1_g77 -2 x_r1_g82 -1 x_r1_g88 -1 x_r1_g99 -1 x_r1_g104 -1 x_r1_g109 -1 x_r1_g127 -1 x_r1_g129 -1 x_r1_g141 -1 x_r1_g145 -1 x_r1_g148 -1 x_r1_g155 -1 x_r1_g161 -1 x_r1_g162 -2 x_r1_g163 -1 x_r2_g13 -2 x_r2_g15 -1 x_r2_g30 -1 x_r2_g32 -1 x_r2_g34 -1 x_r2_g35 -1 x_r2_g40 -1 x_r2_g51 -1 x_r2_g52 -1 x_r2_g83 -1 x_r2_g91 -1 x_r2_g93 -1 x_r2_g101 -1 x_r2_g103 -1 x_r2_g106 -2 x_r2_g118 -1 x_r2_g124 -1 x_r2_g130 -1 x_r2_g135 -2 x_r3_g5 -1 x_r3_g17 -1 x_r3_g21 -1 x_r3_g22 -1 x_r3_g23 -1 x_r3_g24 -2 x_r3_g25 -2 x_r3_g26 -2 x_r3_g31 -1 x_r3_g51 -1 x_r3_g60 -2 x_r3_g62 -1 x_r3_g68 -2 x_r3_g69 -1 x_r3_g73 -1 x_r3_g87 -1 x_r3_g89 -2 x_r3_g90 -2 x_r3_g96 -1 x_r3_g118 -1 x_r3_g124 -2 x_r3_g125 -1 x_r3_g137 -2 x_r3_g149 -1 x_r3_g153 -1 x_r3_g154 -1 x_r3_g156 -2 x_r3_g158 -1 x_r3_g161 -1 x_r3_g166 -1 p_r0_g7_h124_t50 -1 p_r0_g19_h136_t50 -1 p_r0_g57_h7_t50 -1 p_r0_g65_h15_t50 -1 p_r0_g69_h19_t50 -1 p_r0_g74_h24_t50 -1 p_r0_g89_h39_t50 -1 p_r0_g103_h53_t50 -1 p_r0_g106_h56_t50 -1 p_r0_g119_h69_t50 -1 p_r0_g124_h74_t50 -1 p_r0_g135_h85_t50 -1 p_r0_g143_h93_t50 -1 p_r1_g21_h138_t50 -1 p_r1_g56_h6_t50 -1 p_r1_g84_h34_t50 -1 p_r1_g98_h48_t50 -1 p_r1_g124_h74_t50 -1 p_r1_g127_h77_t50 -1 p_r1_g138_h88_t50 -1 p_r1_g148_h98_t50 -1 p_r2_g13_h130_t50 -1 p_r2_g30_h147_t50 -1 p_r2_g40_h157_t50 -1 p_r2_g45_h162_t50 -1 p_r2_g85_h35_t50 -1 p_r2_g101_h51_t50 -1 p_r2_g103_h53_t50 -1 p_r2_g111_h61_t50 -1 p_r2_g124_h74_t50 -1 p_r2_g133_h83_t50 -1 p_r2_g135_h85_t50 -1 p_r2_g141_h91_t50 -1 p_r2_g161_h111_t50 -1 p_r2_g162_h112_t50 -1 p_r3_g34_h151_t50 -1 p_r3_g39_h156_t50 -1 p_r3_g73_h23_t50 -1 p_r3_g89_h39_t50 -1 p_r3_g118_h68_t50 -1 p_r3_g137_h87_t50 = -56 ;
1 d_50 -1 u_50 <= 0 ;
-1 d_50 -1 u_50 <= 0 ;
1 u_50 -1 M <= 0 ;
1 u_50 <= 2 ;
1 p_r0_g1_h112_t56 -1 x_r0_g1 <= 0 ;
1 p_r0_g1_h112_t56 -1 x_r0_g112 <= 0 ;
1 p_r0_g1_h112_t56 -1 x_r0_g1 -1 x_r0_g112 >= -1 ;
1 p_r0_g15_h126_t56 -1 x_r0_g15 <= 0 ;
1 p_r0_g15_h126_t56 -1 x_r0_g126 <= 0 ;
1 p_r0_g15_h126_t56 -1 x_r0_g15 -1 x_r0_g126 >= -1 ;
1 p_r0_g24_h135_t56 -1 x_r0_g24 <= 0 ;
1 p_r0_g24_h135_t56 -1 x_r0_g135 <= 0 ;
1 p_r0_g24_h135_t56 -1 x_r0_g24 -1 x_r0_g135 >= -1 ;
1 p_r0_g39_h150_t56 -1 x_r0_g39 <= 0 ;
1 p_r0_g39_h150_t56 -1 x_r0_g150 <= 0 ;
1 p_r0_g39_h150_t56 -1 x_r0_g39 -1 x_r0_g150 >= -1 ;
1 p_r0_g57_h1_t56 -1 x_r0_g57 <= 0 ;
1 p_r0_g57_h1_t56 -1 x_r0_g1 <= 0 ;
1 p_r0_g57_h1_t56 -1 x_r0_g57 -1 x_r0_g1 >= -1 ;
1 p_r0_g103_h47_t56 -1 x_r0_g103 <= 0 ;
1 p_r0_g103_h47_t56 -1 x_r0_g47 <= 0 ;
1 p_r0_g103_h47_t56 -1 x_r0_g103 -1 x_r0_g47 >= -1 ;
1 p_r0_g112_h56_t56 -1 x_r0_g112 <= 0 ;
1 p_r0_g112_h56_t56 -1 x_r0_g56 <= 0 ;
1 p_r0_g112_h56_t56 -1 x_r0_g112 -1 x_r0_g56 >= -1 ;
1 p_r0_g135_h79_t56 -1 x_r0_g135 <= 0 ;
1 p_r0_g135_h79_t56 -1 x_r0_g79 <= 0 ;
1 p_r0_g135_h79_t56 -1 x_r0_g135 -1 x_r0_g79 >= -1 ;
1 p_r0_g159_h103_t56 -1 x_r0_g159 <= 0 ;
1 p_r0_g159_h103_t56 -1 x_r0_g103 <= 0 ;
1 p_r0_g159_h103_t56 -1 x_r0_g159 -1 x_r0_g103 >= -1 ;
1 p_r1_g34_h145_t56 -1 x_r1_g34 <= 0 ;
1 p_r1_g34_h145_t56 -1 x_r1_g145 <= 0 ;
1 p_r1_g34_h145_t56 -1 x_r1_g34 -1 x_r1_g145 >= -1 ;
1 p_r1_g50_h161_t56 -1 x_r1_g50 <= 0 ;
1 p_r1_g50_h161_t56 -1 x_r1_g161 <= 0 ;
1 p_r1_g50_h161_t56 -1 x_r1_g50 -1 x_r1_g161 >= -1 ;
1 p_r1_g61_h5_t56 -1 x_r1_g61 <= 0 ;
1 p_r1_g61_h5_t56 -1 x_r1_g5 <= 0 ;
1 p_r1_g61_h5_t56 -1 x_r1_g61 -1 x_r1_g5 >= -1 ;
1 p_r1_g77_h21_t56 -1 x_r1_g77 <= 0 ;
1 p_r1_g77_h21_t56 -1 x_r1_g21 <= 0 ;
1 p_r1_g77_h21_t56 -1 x_r1_g77 -1 x_r1_g21 >= -1 ;
1 p_r1_g98_h42_t56 -1 x_r1_g98 <= 0 ;
1 p_r1_g98_h42_t56 -1 x_r1_g42 <= 0 ;
1 p_r1_g98_h42_t56 -1 x_r1_g98 -1 x_r1_g42 >= -1 ;
1 p_r1_g99_h43_t56 -1 x_r1_g99 <= 0 ;
1 p_r1_g99_h43_t56 -1 x_r1_g43 <= 0 ;
1 p_r1_g99_h43_t56 -1 x_r1_g99 -1 x_r1_g43 >= -1 ;
1 p_r1_g104_h48_t56 -1 x_r1_g104 <= 0 ;
1 p_r1_g104_h48_t56 -1 x_r1_g48 <= 0 ;
1 p_r1_g104_h48_t56 -1 x_r1_g104 -1 x_r1_g48 >= -1 ;
1 p_r1_g124_h68_t56 -1 x_r1_g124 <= 0 ;
1 p_r1_g124_h68_t56 -1 x_r1_g68 <= 0 ;
1 p_r1_g124_h68_t56 -1 x_r1_g124 -1 x_r1_g68 >= -1 ;
1 p_r1_g138_h82_t56 -1 x_r1_g138 <= 0 ;
1 p_r1_g138_h82_t56 -1 x_r1_g82 <= 0 ;
1 p_r1_g138_h82_t56 -1 x_r1_g138 -1 x_r1_g82 >= -1 ;
1 p_r1_g155_h99_t56 -1 x_r1_g155 <= 0 ;
1 p_r1_g155_h99_t56 -1 x_r1_g99 <= 0 ;
1 p_r1_g155_h99_t56 -1 x_r1_g155 -1 x_r1_g99 >= -1 ;
1 p_r2_g13_h124_t56 -1 x_r2_g13 <= 0 ;
1 p_r2_g13_h124_t56 -1 x_r2_g124 <= 0 ;
1 p_r2_g13_h124_t56 -1 x_r2_g13 -1 x_r2_g124 >= -1 ;
1 p_r2_g30_h141_t56 -1 x_r2_g30 <= 0 ;
1 p_r2_g30_h141_t56 -1 x_r2_g141 <= 0 ;
1 p_r2_g30_h141_t56 -1 x_r2_g30 -1 x_r2_g141 >= -1 ;
1 p_r2_g51_h162_t56 -1 x_r2_g51 <= 0 ;
1 p_r2_g51_h162_t56 -1 x_r2_g162 <= 0 ;
1 p_r2_g51_h162_t56 -1 x_r2_g51 -1 x_r2_g162 >= -1 ;
1 p_r2_g83_h27_t56 -1 x_r2_g83 <= 0 ;
1 p_r2_g83_h27_t56 -1 x_r2_g27 <= 0 ;
1 p_r2_g83_h27_t56 -1 x_r2_g83 -1 x_r2_g27 >= -1 ;
1 p_r2_g91_h35_t56 -1 x_r2_g91 <= 0 ;
1 p_r2_g91_h35_t56 -1 x_r2_g35 <= 0 ;
1 p_r2_g91_h35_t56 -1 x_r2_g91 -1 x_r2_g35 >= -1 ;
1 p_r2_g101_h45_t56 -1 x_r2_g101 <= 0 ;
1 p_r2_g101_h45_t56 -1 x_r2_g45 <= 0 ;
1 p_r2_g101_h45_t56 -1 x_r2_g101 -1 x_r2_g45 >= -1 ;
1 p_r2_g130_h74_t56 -1 x_r2_g130 <= 0 ;
1 p_r2_g130_h74_t56 -1 x_r2_g74 <= 0 ;
1 p_r2_g130_h74_t56 -1 x_r2_g130 -1 x_r2_g74 >= -1 ;
1 p_r2_g139_h83_t56 -1 x_r2_g139 <= 0 ;
1 p_r2_g139_h83_t56 -1 x_r2_g83 <= 0 ;
1 p_r2_g139_h83_t56 -1 x_r2_g139 -1 x_r2_g83 >= -1 ;
1 p_r2_g141_h85_t56 -1 x_r2_g141 <= 0 ;
1 p_r2_g141_h85_t56 -1 x_r2_g85 <= 0 ;
1 p_r2_g141_h85_t56 -1 x_r2_g141 -1 x_r2_g85 >= -1 ;
1 p_r2_g147_h91_t56 -1 x_r2_g147 <= 0 ;
1 p_r2_g147_h91_t56 -1 x_r2_g91 <= 0 ;
1 p_r2_g147_h91_t56 -1 x_r2_g147 -1 x_r2_g91 >= -1 ;
1 p_r2_g157_h101_t56 -1 x_r2_g157 <= 0 ;
1 p_r2_g157_h101_t56 -1 x_r2_g101 <= 0 ;
1 p_r2_g157_h101_t56 -1 x_r2_g157 -1 x_r2_g101 >= -1 ;
1 p_r2_g161_h105_t56 -1 x_r2_g161 <= 0 ;
1 p_r2_g161_h105_t56 -1 x_r2_g105 <= 0 ;
1 p_r2_g161_h105_t56 -1 x_r2_g161 -1 x_r2_g105 >= -1 ;
1 p_r2_g162_h106_t56 -1 x_r2_g162 <= 0 ;
1 p_r2_g162_h106_t56 -1 x_r2_g106 <= 0 ;
1 p_r2_g162_h106_t56 -1 x_r2_g162 -1 x_r2_g106 >= -1 ;
1 p_r3_g26_h137_t56 -1 x_r3_g26 <= 0 ;
1 p_r3_g26_h137_t56 -1 x_r3_g137 <= 0 ;
1 p_r3_g26_h137_t56 -1 x_r3_g26 -1 x_r3_g137 >= -1 ;
1 p_r3_g38_h149_t56 -1 x_r3_g38 <= 0 ;
1 p_r3_g38_h149_t56 -1 x_r3_g149 <= 0 ;
1 p_r3_g38_h149_t56 -1 x_r3_g38 -1 x_r3_g149 >= -1 ;
1 p_r3_g42_h153_t56 -1 x_r3_g42 <= 0 ;
1 p_r3_g42_h153_t56 -1 x_r3_g153 <= 0 ;
1 p_r3_g42_h153_t56 -1 x_r3_g42 -1 x_r3_g153 >= -1 ;
1 p_r3_g73_h17_t56 -1 x_r3_g73 <= 0 ;
1 p_r3_g73_h17_t56 -1 x_r3_g17 <= 0 ;
1 p_r3_g73_h17_t56 -1 x_r3_g73 -1 x_r3_g17 >= -1 ;
1 p_r3_g87_h31_t56 -1 x_r3_g87 <= 0 ;
1 p_r3_g87_h31_t56 -1 x_r3_g31 <= 0 ;
1 p_r3_g87_h31_t56 -1 x_r3_g87 -1 x_r3_g31 >= -1 ;
1 p_r3_g90_h34_t56 -1 x_r3_g90 <= 0 ;
1 p_r3_g90_h34_t56 -1 x_r3_g34 <= 0 ;
1 p_r3_g90_h34_t56 -1 x_r3_g90 -1 x_r3_g34 >= -1 ;
1 p_r3_g118_h62_t56 -1 x_r3_g118 <= 0 ;
1 p_r3_g118_h62_t56 -1 x_r3_g62 <= 0 ;
1 p_r3_g118_h62_t56 -1 x_r3_g118 -1 x_r3_g62 >= -1 ;
1 p_r3_g124_h68_t56 -1 x_r3_g124 <= 0 ;
1 p_r3_g124_h68_t56 -1 x_r3_g68 <= 0 ;
1 p_r3_g124_h68_t56 -1 x_r3_g124 -1 x_r3_g68 >= -1 ;
1 p_r3_g125_h69_t56 -1 x_r3_g125 <= 0 ;
1 p_r3_g125_h69_t56 -1 x_r3_g69 <= 0 ;
1 p_r3_g125_h69_t56 -1 x_r3_g125 -1 x_r3_g69 >= -1 ;
1 p_r3_g156_h100_t56 -1 x_r3_g156 <= 0 ;
1 p_r3_g156_h100_t56 -1 x_r3_g100 <= 0 ;
1 p_r3_g156_h100_t56 -1 x_r3_g156 -1 x_r3_g100 >= -1 ;
1 d_56 -1 x_r0_g5 -2 x_r0_g7 -2 x_r0_g11 -2 x_r0_g12 -1 x_r0_g34 -1 x_r0_g47 -1 x_r0_g57 -1 x_r0_g66 -1 x_r0_g69 -2 x_r0_g93 -1 x_r0_g108 -1 x_r0_g119 -2 x_r0_g124 -1 x_r0_g126 -1 x_r0_g136 -1 x_r0_g146 -1 x_r0_g159 -1 x_r0_g163 -2 x_r1_g1 -1 x_r1_g6 -1 x_r1_g21 -1 x_r1_g23 -1 x_r1_g29 -1 x_r1_g34 -1 x_r1_g40 -1 x_r1_g43 -1 x_r1_g48 -1 x_r1_g56 -2 x_r1_g74 -2 x_r1_g76 -1 x_r1_g82 -1 x_r1_g84 -1 x_r1_g88 -1 x_r1_g98 -1 x_r1_g104 -1 x_r1_g109 -1 x_r1_g129 -1 x_r1_g138 -1 x_r1_g145 -1 x_r1_g148 -1 x_r1_g155 -1 x_r1_g163 -1 x_r2_g15 -1 x_r2_g21 -1 x_r2_g30 -1 x_r2_g34 -1 x_r2_g40 -1 x_r2_g52 -1 x_r2_g58 -1 x_r2_g73 -1 x_r2_g74 -2 x_r2_g104 -1 x_r2_g105 -1 x_r2_g111 -2 x_r2_g112 -1 x_r2_g118 -1 x_r2_g119 -1 x_r2_g124 -1 x_r2_g139 -1 x_r2_g157 -1 x_r3_g5 -1 x_r3_g17 -1 x_r3_g22 -1 x_r3_g23 -1 x_r3_g24 -1 x_r3_g25 -1 x_r3_g31 -1 x_r3_g34 -1 x_r3_g38 -1 x_r3_g42 -1 x_r3_g51 -1 x_r3_g60 -1 x_r3_g62 -1 x_r3_g66 -1 x_r3_g68 -1 x_r3_g69 -1 x_r3_g73 -2 x_r3_g83 -1 x_r3_g87 -1 x_r3_g89 -1 x_r3_g90 -1 x_r3_g96 -2 x_r3_g117 -1 x_r3_g124 -1 x_r3_g137 -1 x_r3_g151 -2 x_r3_g154 -1 x_r3_g156 -1 x_r3_g158 -2 x_r3_g166 -1 p_r0_g1_h112_t56 -1 p_r0_g15_h126_t56 -1 p_r0_g24_h135_t56 -1 p_r0_g39_h150_t56 -1 p_r0_g57_h1_t56 -1 p_r0_g103_h47_t56 -1 p_r0_g112_h56_t56 -1 p_r0_g135_h79_t56 -1 p_r0_g159_h103_t56 -1 p_r1_g34_h145_t56 -1 p_r1_g50_h161_t56 -1 p_r1_g61_h5_t56 -1 p_r1_g77_h21_t56 -1 p_r1_g98_h42_t56 -1 p_r1_g99_h43_t56 -1 p_r1_g104_h48_t56 -1 p_r1_g124_h68_t56 -1 p_r1_g138_h82_t56 -1 p_r1_g155_h99_t56 -1 p_r2_g13_h124_t56 -1 p_r2_g30_h141_t56 -1 p_r2_g51_h162_t56 -1 p_r2_g83_h27_t56 -1 p_r2_g91_h35_t56 -1 p_r2_g101_h45_t56 -1 p_r2_g130_h74_t56 -1 p_r2_g139_h83_t56 -1 p_r2_g141_h85_t56 -1 p_r2_g147_h91_t56 -1 p_r2_g157_h101_t56 -1 p_r2_g161_h105_t56 -1 p_r2_g162_h106_t56 -1 p_r3_g26_h137_t56 -1 p_r3_g38_h149_t56 -1 p_r3_g42_h153_t56 -1 p_r3_g73_h17_t56 -1 p_r3_g87_h31_t56 -1 p_r3_g90_h34_t56 -1 p_r3_g118_h62_t56 -1 p_r3_g124_h68_t56 -1 p_r3_g125_h69_t56 -1 p_r3_g156_h100_t56 = -75 ;
1 d_56 -1 u_56 <= 0 ;
-1 d_56 -1 u_56 <= 0 ;
1 u_56 -1 M <= 0 ;
1 u_56 <= 2 ;
1 p_r0_g5_h108_t64 -1 x_r0_g5 <= 0 ;
1 p_r0_g5_h108_t64 -1 x_r0_g108 <= 0 ;
1 p_r0_g5_h108_t64 -1 x_r0_g5 -1 x_r0_g108 >= -1 ;
1 p_r0_g39_h142_t64 -1 x_r0_g39 <= 0 ;
1 p_r0_g39_h142_t64 -1 x_r0_g142 <= 0 ;
1 p_r0_g39_h142_t64 -1 x_r0_g39 -1 x_r0_g142 >= -1 ;
1 p_r0_g47_h150_t64 -1 x_r0_g47 <= 0 ;
1 p_r0_g47_h150_t64 -1 x_r0_g150 <= 0 ;
1 p_r0_g47_h150_t64 -1 x_r0_g47 -1 x_r0_g150 >= -1 ;
1 p_r0_g56_h159_t64 -1 x_r0_g56 <= 0 ;
1 p_r0_g56_h159_t64 -1 x_r0_g159 <= 0 ;
1 p_r0_g56_h159_t64 -1 x_r0_g56 -1 x_r0_g159 >= -1 ;
1 p_r0_g65_h1_t64 -1 x_r0_g65 <= 0 ;
1 p_r0_g65_h1_t64 -1 x_r0_g1 <= 0 ;
1 p_r0_g65_h1_t64 -1 x_r0_g65 -1 x_r0_g1 >= -1 ;
1 p_r0_g69_h5_t64 -1 x_r0_g69 <= 0 ;
1 p_r0_g69_h5_t64 -1 x_r0_g5 <= 0 ;
1 p_r0_g69_h5_t64 -1 x_r0_g69 -1 x_r0_g5 >= -1 ;
1 p_r0_g79_h15_t64 -1 x_r0_g79 <= 0 ;
1 p_r0_g79_h15_t64 -1 x_r0_g15 <= 0 ;
1 p_r0_g79_h15_t64 -1 x_r0_g79 -1 x_r0_g15 >= -1 ;
1 p_r0_g103_h39_t64 -1 x_r0_g103 <= 0 ;
1 p_r0_g103_h39_t64 -1 x_r0_g39 <= 0 ;
1 p_r0_g103_h39_t64 -1 x_r0_g103 -1 x_r0_g39 >= -1 ;
1 p_r0_g136_h72_t64 -1 x_r0_g136 <= 0 ;
1 p_r0_g136_h72_t64 -1 x_r0_g72 <= 0 ;
1 p_r0_g136_h72_t64 -1 x_r0_g136 -1 x_r0_g72 >= -1 ;
1 p_r0_g143_h79_t64 -1 x_r0_g143 <= 0 ;
1 p_r0_g143_h79_t64 -1 x_r0_g79 <= 0 ;
1 p_r0_g143_h79_t64 -1 x_r0_g143 -1 x_r0_g79 >= -1 ;
1 p_r1_g1_h104_t64 -1 x_r1_g1 <= 0 ;
1 p_r1_g1_h104_t64 -1 x_r1_g104 <= 0 ;
1 p_r1_g1_h104_t64 -1 x_r1_g1 -1 x_r1_g104 >= -1 ;
1 p_r1_g6_h109_t64 -1 x_r1_g6 <= 0 ;
1 p_r1_g6_h109_t64 -1 x_r1_g109 <= 0 ;
1 p_r1_g6_h109_t64 -1 x_r1_g6 -1 x_r1_g109 >= -1 ;
1 p_r1_g21_h124_t64 -1 x_r1_g21 <= 0 ;
1 p_r1_g21_h124_t64 -1 x_r1_g124 <= 0 ;
1 p_r1_g21_h124_t64 -1 x_r1_g21 -1 x_r1_g124 >= -1 ;
1 p_r1_g42_h145_t64 -1 x_r1_g42 <= 0 ;
1 p_r1_g42_h145_t64 -1 x_r1_g145 <= 0 ;
1 p_r1_g42_h145_t64 -1 x_r1_g42 -1 x_r1_g145 >= -1 ;
1 p_r1_g60_h163_t64 -1 x_r1_g60 <= 0 ;
1 p_r1_g60_h163_t64 -1 x_r1_g163 <= 0 ;
1 p_r1_g60_h163_t64 -1 x_r1_g60 -1 x_r1_g163 >= -1 ;
1 p_r1_g69_h5_t64 -1 x_r1_g69 <= 0 ;
1 p_r1_g69_h5_t64 -1 x_r1_g5 <= 0 ;
1 p_r1_g69_h5_t64 -1 x_r1_g69 -1 x_r1_g5 >= -1 ;
1 p_r1_g98_h34_t64 -1 x_r1_g98 <= 0 ;
1 p_r1_g98_h34_t64 -1 x_r1_g34 <= 0 ;
1 p_r1_g98_h34_t64 -1 x_r1_g98 -1 x_r1_g34 >= -1 ;
1 p_r1_g104_h40_t64 -1 x_r1_g104 <= 0 ;
1 p_r1_g104_h40_t64 -1 x_r1_g40 <= 0 ;
1 p_r1_g104_h40_t64 -1 x_r1_g104 -1 x_r1_g40 >= -1 ;
1 p_r1_g124_h60_t64 -1 x_r1_g124 <= 0 ;
1 p_r1_g124_h60_t64 -1 x_r1_g60 <= 0 ;
1 p_r1_g124_h60_t64 -1 x_r1_g124 -1 x_r1_g60 >= -1 ;
1 p_r1_g138_h74_t64 -1 x_r1_g138 <= 0 ;
1 p_r1_g138_h74_t64 -1 x_r1_g74 <= 0 ;
1 p_r1_g138_h74_t64 -1 x_r1_g138 -1 x_r1_g74 >= -1 ;
1 p_r1_g141_h77_t64 -1 x_r1_g141 <= 0 ;
1 p_r1_g141_h77_t64 -1 x_r1_g77 <= 0 ;
1 p_r1_g141_h77_t64 -1 x_r1_g141 -1 x_r1_g77 >= -1 ;
1 p_r1_g148_h84_t64 -1 x_r1_g148 <= 0 ;
1 p_r1_g148_h84_t64 -1 x_r1_g84 <= 0 ;
1 p_r1_g148_h84_t64 -1 x_r1_g148 -1 x_r1_g84 >= -1 ;
1 p_r1_g162_h98_t64 -1 x_r1_g162 <= 0 ;
1 p_r1_g162_h98_t64 -1 x_r1_g98 <= 0 ;
1 p_r1_g162_h98_t64 -1 x_r1_g162 -1 x_r1_g98 >= -1 ;
1 p_r1_g163_h99_t64 -1 x_r1_g163 <= 0 ;
1 p_r1_g163_h99_t64 -1 x_r1_g99 <= 0 ;
1 p_r1_g163_h99_t64 -1 x_r1_g163 -1 x_r1_g99 >= -1 ;
1 p_r2_g15_h118_t64 -1 x_r2_g15 <= 0 ;
1 p_r2_g15_h118_t64 -1 x_r2_g118 <= 0 ;
1 p_r2_g15_h118_t64 -1 x_r2_g15 -1 x_r2_g118 >= -1 ;
1 p_r2_g21_h124_t64 -1 x_r2_g21 <= 0 ;
1 p_r2_g21_h124_t64 -1 x_r2_g124 <= 0 ;
1 p_r2_g21_h124_t64 -1 x_r2_g21 -1 x_r2_g124 >= -1 ;
1 p_r2_g27_h130_t64 -1 x_r2_g27 <= 0 ;
1 p_r2_g27_h130_t64 -1 x_r2_g130 <= 0 ;
1 p_r2_g27_h130_t64 -1 x_r2_g27 -1 x_r2_g130 >= -1 ;
1 p_r2_g30_h133_t64 -1 x_r2_g30 <= 0 ;
1 p_r2_g30_h133_t64 -1 x_r2_g133 <= 0 ;
1 p_r2_g30_h133_t64 -1 x_r2_g30 -1 x_r2_g133 >= -1 ;
1 p_r2_g32_h135_t64 -1 x_r2_g32 <= 0 ;
1 p_r2_g32_h135_t64 -1 x_r2_g135 <= 0 ;
1 p_r2_g32_h135_t64 -1 x_r2_g32 -1 x_r2_g135 >= -1 ;
1 p_r2_g58_h161_t64 -1 x_r2_g58 <= 0 ;
1 p_r2_g58_h161_t64 -1 x_r2_g161 <= 0 ;
1 p_r2_g58_h161_t64 -1 x_r2_g58 -1 x_r2_g161 >= -1 ;
1 p_r2_g85_h21_t64 -1 x_r2_g85 <= 0 ;
1 p_r2_g85_h21_t64 -1 x_r2_g21 <= 0 ;
1 p_r2_g85_h21_t64 -1 x_r2_g85 -1 x_r2_g21 >= -1 ;
1 p_r2_g91_h27_t64 -1 x_r2_g91 <= 0 ;
1 p_r2_g91_h27_t64 -1 x_r2_g27 <= 0 ;
1 p_r2_g91_h27_t64 -1 x_r2_g91 -1 x_r2_g27 >= -1 ;
1 p_r2_g104_h40_t64 -1 x_r2_g104 <= 0 ;
1 p_r2_g104_h40_t64 -1 x_r2_g40 <= 0 ;
1 p_r2_g104_h40_t64 -1 x_r2_g104 -1 x_r2_g40 >= -1 ;
1 p_r2_g147_h83_t64 -1 x_r2_g147 <= 0 ;
1 p_r2_g147_h83_t64 -1 x_r2_g83 <= 0 ;
1 p_r2_g147_h83_t64 -1 x_r2_g147 -1 x_r2_g83 >= -1 ;
1 p_r2_g157_h93_t64 -1 x_r2_g157 <= 0 ;
1 p_r2_g157_h93_t64 -1 x_r2_g93 <= 0 ;
1 p_r2_g157_h93_t64 -1 x_r2_g157 -1 x_r2_g93 >= -1 ;
1 p_r3_g21_h124_t64 -1 x_r3_g21 <= 0 ;
1 p_r3_g21_h124_t64 -1 x_r3_g124 <= 0 ;
1 p_r3_g21_h124_t64 -1 x_r3_g21 -1 x_r3_g124 >= -1 ;
1 p_r3_g22_h125_t64 -1 x_r3_g22 <= 0 ;
1 p_r3_g22_h125_t64 -1 x_r3_g125 <= 0 ;
1 p_r3_g22_h125_t64 -1 x_r3_g22 -1 x_r3_g125 >= -1 ;
1 p_r3_g34_h137_t64 -1 x_r3_g34 <= 0 ;
1 p_r3_g34_h137_t64 -1 x_r3_g137 <= 0 ;
1 p_r3_g34_h137_t64 -1 x_r3_g34 -1 x_r3_g137 >= -1 ;
1 p_r3_g51_h154_t64 -1 x_r3_g51 <= 0 ;
1 p_r3_g51_h154_t64 -1 x_r3_g154 <= 0 ;
1 p_r3_g51_h154_t64 -1 x_r3_g51 -1 x_r3_g154 >= -1 ;
1 p_r3_g53_h156_t64 -1 x_r3_g53 <= 0 ;
1 p_r3_g53_h156_t64 -1 x_r3_g156 <= 0 ;
1 p_r3_g53_h156_t64 -1 x_r3_g53 -1 x_r3_g156 >= -1 ;
1 p_r3_g69_h5_t64 -1 x_r3_g69 <= 0 ;
1 p_r3_g69_h5_t64 -1 x_r3_g5 <= 0 ;
1 p_r3_g69_h5_t64 -1 x_r3_g69 -1 x_r3_g5 >= -1 ;
1 p_r3_g87_h23_t64 -1 x_r3_g87 <= 0 ;
1 p_r3_g87_h23_t64 -1 x_r3_g23 <= 0 ;
1 p_r3_g87_h23_t64 -1 x_r3_g87 -1 x_r3_g23 >= -1 ;
1 p_r3_g89_h25_t64 -1 x_r3_g89 <= 0 ;
1 p_r3_g89_h25_t64 -1 x_r3_g25 <= 0 ;
1 p_r3_g89_h25_t64 -1 x_r3_g89 -1 x_r3_g25 >= -1 ;
1 p_r3_g90_h26_t64 -1 x_r3_g90 <= 0 ;
1 p_r3_g90_h26_t64 -1 x_r3_g26 <= 0 ;
1 p_r3_g90_h26_t64 -1 x_r3_g90 -1 x_r3_g26 >= -1 ;
1 p_r3_g117_h53_t64 -1 x_r3_g117 <= 0 ;
1 p_r3_g117_h53_t64 -1 x_r3_g53 <= 0 ;
1 p_r3_g117_h53_t64 -1 x_r3_g117 -1 x_r3_g53 >= -1 ;
1 p_r3_g124_h60_t64 -1 x_r3_g124 <= 0 ;
1 p_r3_g124_h60_t64 -1 x_r3_g60 <= 0 ;
1 p_r3_g124_h60_t64 -1 x_r3_g124 -1 x_r3_g60 >= -1 ;
1 p_r3_g137_h73_t64 -1 x_r3_g137 <= 0 ;
1 p_r3_g137_h73_t64 -1 x_r3_g73 <= 0 ;
1 p_r3_g137_h73_t64 -1 x_r3_g137 -1 x_r3_g73 >= -1 ;
1 p_r3_g151_h87_t64 -1 x_r3_g151 <= 0 ;
1 p_r3_g151_h87_t64 -1 x_r3_g87 <= 0 ;
1 p_r3_g151_h87_t64 -1 x_r3_g151 -1 x_r3_g87 >= -1 ;
1 p_r3_g153_h89_t64 -1 x_r3_g153 <= 0 ;
1 p_r3_g153_h89_t64 -1 x_r3_g89 <= 0 ;
1 p_r3_g153_h89_t64 -1 x_r3_g153 -1 x_r3_g89 >= -1 ;
1 p_r3_g154_h90_t64 -1 x_r3_g154 <= 0 ;
1 p_r3_g154_h90_t64 -1 x_r3_g90 <= 0 ;
1 p_r3_g154_h90_t64 -1 x_r3_g154 -1 x_r3_g90 >= -1 ;
1 d_64 -1 x_r0_g4 -1 x_r0_g15 -1 x_r0_g19 -2 x_r0_g24 -2 x_r0_g34 -1 x_r0_g47 -1 x_r0_g56 -1 x_r0_g57 -1 x_r0_g85 -1 x_r0_g89 -1 x_r0_g91 -1 x_r0_g93 -2 x_r0_g106 -1 x_r0_g112 -1 x_r0_g119 -1 x_r0_g126 -1 x_r0_g143 -1 x_r0_g146 -1 x_r1_g1 -1 x_r1_g5 -1 x_r1_g6 -1 x_r1_g23 -1 x_r1_g29 -1 x_r1_g36 -2 x_r1_g43 -1 x_r1_g48 -1 x_r1_g50 -1 x_r1_g56 -1 x_r1_g61 -1 x_r1_g64 -1 x_r1_g68 -1 x_r1_g74 -1 x_r1_g76 -2 x_r1_g82 -1 x_r1_g84 -2 x_r1_g129 -1 x_r1_g141 -1 x_r1_g145 -1 x_r1_g155 -1 x_r2_g13 -1 x_r2_g30 -2 x_r2_g34 -1 x_r2_g45 -1 x_r2_g51 -1 x_r2_g52 -1 x_r2_g58 -1 x_r2_g73 -1 x_r2_g101 -2 x_r2_g103 -1 x_r2_g104 -1 x_r2_g105 -1 x_r2_g112 -1 x_r2_g124 -1 x_r2_g139 -1 x_r2_g162 -1 x_r3_g5 -1 x_r3_g17 -1 x_r3_g22 -1 x_r3_g24 -1 x_r3_g25 -1 x_r3_g26 -1 x_r3_g31 -1 x_r3_g34 -1 x_r3_g39 -2 x_r3_g42 -1 x_r3_g60 -1 x_r3_g66 -1 x_r3_g68 -1 x_r3_g73 -1 x_r3_g83 -2 x_r3_g96 -1 x_r3_g100 -1 x_r3_g125 -1 x_r3_g149 -2 x_r3_g158 -1 p_r0_g5_h108_t64 -1 p_r0_g39_h142_t64 -1 p_r0_g47_h150_t64 -1 p_r0_g56_h159_t64 -1 p_r0_g65_h1_t64 -1 p_r0_g69_h5_t64 -1 p_r0_g79_h15_t64 -1 p_r0_g103_h39_t64 -1 p_r0_g136_h72_t64 -1 p_r0_g143_h79_t64 -1 p_r1_g1_h104_t64 -1 p_r1_g6_h109_t64 -1 p_r1_g21_h124_t64 -1 p_r1_g42_h145_t64 -1 p_r1_g60_h163_t64 -1 p_r1_g69_h5_t64 -1 p_r1_g98_h34_t64 -1 p_r1_g104_h40_t64 -1 p_r1_g124_h60_t64 -1 p_r1_g138_h74_t64 -1 p_r1_g141_h77_t64 -1 p_r1_g148_h84_t64 -1 p_r1_g162_h98_t64 -1 p_r1_g163_h99_t64 -1 p_r2_g15_h118_t64 -1 p_r2_g21_h124_t64 -1 p_r2_g27_h130_t64 -1 p_r2_g30_h133_t64 -1 p_r2_g32_h135_t64 -1 p_r2_g58_h161_t64 -1 p_r2_g85_h21_t64 -1 p_r2_g91_h27_t64 -1 p_r2_g104_h40_t64 -1 p_r2_g147_h83_t64 -1 p_r2_g157_h93_t64 -1 p_r3_g21_h124_t64 -1 p_r3_g22_h125_t64 -1 p_r3_g34_h137_t64 -1 p_r3_g51_h154_t64 -1 p_r3_g53_h156_t64 -1 p_r3_g69_h5_t64 -1 p_r3_g87_h23_t64 -1 p_r3_g89_h25_t64 -1 p_r3_g90_h26_t64 -1 p_r3_g117_h53_t64 -1 p_r3_g124_h60_t64 -1 p_r3_g137_h73_t64 -1 p_r3_g151_h87_t64 -1 p_r3_g153_h89_t64 -1 p_r3_g154_h90_t64 = -45 ;
1 d_64 -1 u_64 <= 0 ;
-1 d_64 -1 u_64 <= 0 ;
1 u_64 -1 M <= 0 ;
1 u_64 <= 2 ;
1 p_r0_g12_h112_t67 -1 x_r0_g12 <= 0 ;
1 p_r0_g12_h112_t67 -1 x_r0_g112 <= 0 ;
1 p_r0_g12_h112_t67 -1 x_r0_g12 -1 x_r0_g112 >= -1 ;
1 p_r0_g19_h119_t67 -1 x_r0_g19 <= 0 ;
1 p_r0_g19_h119_t67 -1 x_r0_g119 <= 0 ;
1 p_r0_g19_h119_t67 -1 x_r0_g19 -1 x_r0_g119 >= -1 ;
1 p_r0_g24_h124_t67 -1 x_r0_g24 <= 0 ;
1 p_r0_g24_h124_t67 -1 x_r0_g124 <= 0 ;
1 p_r0_g24_h124_t67 -1 x_r0_g24 -1 x_r0_g124 >= -1 ;
1 p_r0_g72_h5_t67 -1 x_r0_g72 <= 0 ;
1 p_r0_g72_h5_t67 -1 x_r0_g5 <= 0 ;
1 p_r0_g72_h5_t67 -1 x_r0_g72 -1 x_r0_g5 >= -1 ;
1 p_r0_g74_h7_t67 -1 x_r0_g74 <= 0 ;
1 p_r0_g74_h7_t67 -1 x_r0_g7 <= 0 ;
1 p_r0_g74_h7_t67 -1 x_r0_g74 -1 x_r0_g7 >= -1 ;
1 p_r0_g79_h12_t67 -1 x_r0_g79 <= 0 ;
1 p_r0_g79_h12_t67 -1 x_r0_g12 <= 0 ;
1 p_r0_g79_h12_t67 -1 x_r0_g79 -1 x_r0_g12 >= -1 ;
1 p_r0_g91_h24_t67 -1 x_r0_g91 <= 0 ;
1 p_r0_g91_h24_t67 -1 x_r0_g24 <= 0 ;
1 p_r0_g91_h24_t67 -1 x_r0_g91 -1 x_r0_g24 >= -1 ;
1 p_r0_g106_h39_t67 -1 x_r0_g106 <= 0 ;
1 p_r0_g106_h39_t67 -1 x_r0_g39 <= 0 ;
1 p_r0_g106_h39_t67 -1 x_r0_g106 -1 x_r0_g39 >= -1 ;
1 p_r0_g124_h57_t67 -1 x_r0_g124 <= 0 ;
1 p_r0_g124_h57_t67 -1 x_r0_g57 <= 0 ;
1 p_r0_g124_h57_t67 -1 x_r0_g124 -1 x_r0_g57 >= -1 ;
1 p_r0_g136_h69_t67 -1 x_r0_g136 <= 0 ;
1 p_r0_g136_h69_t67 -1 x_r0_g69 <= 0 ;
1 p_r0_g136_h69_t67 -1 x_r0_g136 -1 x_r0_g69 >= -1 ;
1 p_r0_g146_h79_t67 -1 x_r0_g146 <= 0 ;
1 p_r0_g146_h79_t67 -1 x_r0_g79 <= 0 ;
1 p_r0_g146_h79_t67 -1 x_r0_g146 -1 x_r0_g79 >= -1 ;
1 p_r1_g29_h129_t67 -1 x_r1_g29 <= 0 ;
1 p_r1_g29_h129_t67 -1 x_r1_g129 <= 0 ;
1 p_r1_g29_h129_t67 -1 x_r1_g29 -1 x_r1_g129 >= -1 ;
1 p_r1_g48_h148_t67 -1 x_r1_g48 <= 0 ;
1 p_r1_g48_h148_t67 -1 x_r1_g148 <= 0 ;
1 p_r1_g48_h148_t67 -1 x_r1_g48 -1 x_r1_g148 >= -1 ;
1 p_r1_g61_h161_t67 -1 x_r1_g61 <= 0 ;
1 p_r1_g61_h161_t67 -1 x_r1_g161 <= 0 ;
1 p_r1_g61_h161_t67 -1 x_r1_g61 -1 x_r1_g161 >= -1 ;
1 p_r1_g68_h1_t67 -1 x_r1_g68 <= 0 ;
1 p_r1_g68_h1_t67 -1 x_r1_g1 <= 0 ;
1 p_r1_g68_h1_t67 -1 x_r1_g68 -1 x_r1_g1 >= -1 ;
1 p_r1_g88_h21_t67 -1 x_r1_g88 <= 0 ;
1 p_r1_g88_h21_t67 -1 x_r1_g21 <= 0 ;
1 p_r1_g88_h21_t67 -1 x_r1_g88 -1 x_r1_g21 >= -1 ;
1 p_r1_g109_h42_t67 -1 x_r1_g109 <= 0 ;
1 p_r1_g109_h42_t67 -1 x_r1_g42 <= 0 ;
1 p_r1_g109_h42_t67 -1 x_r1_g109 -1 x_r1_g42 >= -1 ;
1 p_r1_g127_h60_t67 -1 x_r1_g127 <= 0 ;
1 p_r1_g127_h60_t67 -1 x_r1_g60 <= 0 ;
1 p_r1_g127_h60_t67 -1 x_r1_g127 -1 x_r1_g60 >= -1 ;
1 p_r1_g141_h74_t67 -1 x_r1_g141 <= 0 ;
1 p_r1_g141_h74_t67 -1 x_r1_g74 <= 0 ;
1 p_r1_g141_h74_t67 -1 x_r1_g141 -1 x_r1_g74 >= -1 ;
1 p_r1_g155_h88_t67 -1 x_r1_g155 <= 0 ;
1 p_r1_g155_h88_t67 -1 x_r1_g88 <= 0 ;
1 p_r1_g155_h88_t67 -1 x_r1_g155 -1 x_r1_g88 >= -1 ;
1 p_r2_g30_h130_t67 -1 x_r2_g30 <= 0 ;
1 p_r2_g30_h130_t67 -1 x_r2_g130 <= 0 ;
1 p_r2_g30_h130_t67 -1 x_r2_g30 -1 x_r2_g130 >= -1 ;
1 p_r2_g35_h135_t67 -1 x_r2_g35 <= 0 ;
1 p_r2_g35_h135_t67 -1 x_r2_g135 <= 0 ;
1 p_r2_g35_h135_t67 -1 x_r2_g35 -1 x_r2_g135 >= -1 ;
1 p_r2_g61_h161_t67 -1 x_r2_g61 <= 0 ;
1 p_r2_g61_h161_t67 -1 x_r2_g161 <= 0 ;
1 p_r2_g61_h161_t67 -1 x_r2_g61 -1 x_r2_g161 >= -1 ;
1 p_r2_g101_h34_t67 -1 x_r2_g101 <= 0 ;
1 p_r2_g101_h34_t67 -1 x_r2_g34 <= 0 ;
1 p_r2_g101_h34_t67 -1 x_r2_g101 -1 x_r2_g34 >= -1 ;
1 p_r2_g112_h45_t67 -1 x_r2_g112 <= 0 ;
1 p_r2_g112_h45_t67 -1 x_r2_g45 <= 0 ;
1 p_r2_g112_h45_t67 -1 x_r2_g112 -1 x_r2_g45 >= -1 ;
1 p_r2_g118_h51_t67 -1 x_r2_g118 <= 0 ;
1 p_r2_g118_h51_t67 -1 x_r2_g51 <= 0 ;
1 p_r2_g118_h51_t67 -1 x_r2_g118 -1 x_r2_g51 >= -1 ;
1 p_r2_g119_h52_t67 -1 x_r2_g119 <= 0 ;
1 p_r2_g119_h52_t67 -1 x_r2_g52 <= 0 ;
1 p_r2_g119_h52_t67 -1 x_r2_g119 -1 x_r2_g52 >= -1 ;
1 p_r2_g141_h74_t67 -1 x_r2_g141 <= 0 ;
1 p_r2_g141_h74_t67 -1 x_r2_g74 <= 0 ;
1 p_r2_g141_h74_t67 -1 x_r2_g141 -1 x_r2_g74 >= -1 ;
1 p_r3_g17_h117_t67 -1 x_r3_g17 <= 0 ;
1 p_r3_g17_h117_t67 -1 x_r3_g117 <= 0 ;
1 p_r3_g17_h117_t67 -1 x_r3_g17 -1 x_r3_g117 >= -1 ;
1 p_r3_g24_h124_t67 -1 x_r3_g24 <= 0 ;
1 p_r3_g24_h124_t67 -1 x_r3_g124 <= 0 ;
1 p_r3_g24_h124_t67 -1 x_r3_g24 -1 x_r3_g124 >= -1 ;
1 p_r3_g25_h125_t67 -1 x_r3_g25 <= 0 ;
1 p_r3_g25_h125_t67 -1 x_r3_g125 <= 0 ;
1 p_r3_g25_h125_t67 -1 x_r3_g25 -1 x_r3_g125 >= -1 ;
1 p_r3_g51_h151_t67 -1 x_r3_g51 <= 0 ;
1 p_r3_g51_h151_t67 -1 x_r3_g151 <= 0 ;
1 p_r3_g51_h151_t67 -1 x_r3_g51 -1 x_r3_g151 >= -1 ;
1 p_r3_g53_h153_t67 -1 x_r3_g53 <= 0 ;
1 p_r3_g53_h153_t67 -1 x_r3_g153 <= 0 ;
1 p_r3_g53_h153_t67 -1 x_r3_g53 -1 x_r3_g153 >= -1 ;
1 p_r3_g66_h166_t67 -1 x_r3_g66 <= 0 ;
1 p_r3_g66_h166_t67 -1 x_r3_g166 <= 0 ;
1 p_r3_g66_h166_t67 -1 x_r3_g66 -1 x_r3_g166 >= -1 ;
1 p_r3_g89_h22_t67 -1 x_r3_g89 <= 0 ;
1 p_r3_g89_h22_t67 -1 x_r3_g22 <= 0 ;
1 p_r3_g89_h22_t67 -1 x_r3_g89 -1 x_r3_g22 >= -1 ;
1 p_r3_g90_h23_t67 -1 x_r3_g90 <= 0 ;
1 p_r3_g90_h23_t67 -1 x_r3_g23 <= 0 ;
1 p_r3_g90_h23_t67 -1 x_r3_g90 -1 x_r3_g23 >= -1 ;
1 p_r3_g118_h51_t67 -1 x_r3_g118 <= 0 ;
1 p_r3_g118_h51_t67 -1 x_r3_g51 <= 0 ;
1 p_r3_g118_h51_t67 -1 x_r3_g118 -1 x_r3_g51 >= -1 ;
1 p_r3_g154_h87_t67 -1 x_r3_g154 <= 0 ;
1 p_r3_g154_h87_t67 -1 x_r3_g87 <= 0 ;
1 p_r3_g154_h87_t67 -1 x_r3_g154 -1 x_r3_g87 >= -1 ;
1 p_r3_g156_h89_t67 -1 x_r3_g156 <= 0 ;
1 p_r3_g156_h89_t67 -1 x_r3_g89 <= 0 ;
1 p_r3_g156_h89_t67 -1 x_r3_g156 -1 x_r3_g89 >= -1 ;
1 d_67 -2 x_r0_g1 -1 x_r0_g11 -1 x_r0_g34 -1 x_r0_g39 -1 x_r0_g53 -1 x_r0_g56 -1 x_r0_g57 -2 x_r0_g65 -1 x_r0_g72 -1 x_r0_g85 -1 x_r0_g91 -1 x_r0_g93 -2 x_r0_g103 -1 x_r0_g106 -1 x_r0_g112 -1 x_r0_g119 -1 x_r0_g126 -1 x_r0_g135 -1 x_r0_g136 -1 x_r0_g142 -1 x_r0_g143 -1 x_r0_g146 -1 x_r0_g159 -1 x_r0_g163 -2 x_r1_g23 -1 x_r1_g29 -1 x_r1_g36 -2 x_r1_g40 -1 x_r1_g48 -2 x_r1_g56 -1 x_r1_g60 -1 x_r1_g61 -1 x_r1_g64 -1 x_r1_g77 -1 x_r1_g82 -1 x_r1_g98 -2 x_r1_g99 -1 x_r1_g104 -1 x_r1_g124 -1 x_r1_g127 -1 x_r1_g129 -1 x_r1_g138 -1 x_r1_g145 -1 x_r1_g148 -2 x_r1_g162 -1 x_r1_g163 -2 x_r2_g13 -2 x_r2_g15 -1 x_r2_g21 -2 x_r2_g27 -1 x_r2_g32 -1 x_r2_g34 -1 x_r2_g35 -1 x_r2_g40 -1 x_r2_g51 -1 x_r2_g52 -2 x_r2_g53 -1 x_r2_g58 -1 x_r2_g61 -1 x_r2_g73 -1 x_r2_g74 -1 x_r2_g83 -2 x_r2_g85 -1 x_r2_g91 -2 x_r2_g93 -1 x_r2_g101 -1 x_r2_g104 -1 x_r2_g106 -1 x_r2_g118 -1 x_r2_g130 -1 x_r2_g133 -1 x_r2_g135 -1 x_r2_g139 -1 x_r2_g141 -1 x_r2_g147 -1 x_r2_g157 -1 x_r2_g161 -1 x_r3_g22 -1 x_r3_g23 -1 x_r3_g31 -1 x_r3_g34 -1 x_r3_g38 -2 x_r3_g39 -1 x_r3_g42 -2 x_r3_g60 -2 x_r3_g62 -1 x_r3_g68 -1 x_r3_g69 -2 x_r3_g73 -1 x_r3_g87 -1 x_r3_g96 -1 x_r3_g118 -1 x_r3_g137 -1 x_r3_g149 -1 x_r3_g153 -2 x_r3_g161 -1 x_r3_g166 -1 p_r0_g12_h112_t67 -1 p_r0_g19_h119_t67 -1 p_r0_g24_h124_t67 -1 p_r0_g72_h5_t67 -1 p_r0_g74_h7_t67 -1 p_r0_g79_h12_t67 -1 p_r0_g91_h24_t67 -1 p_r0_g106_h39_t67 -1 p_r0_g124_h57_t67 -1 p_r0_g136_h69_t67 -1 p_r0_g146_h79_t67 -1 p_r1_g29_h129_t67 -1 p_r1_g48_h148_t67 -1 p_r1_g61_h161_t67 -1 p_r1_g68_h1_t67 -1 p_r1_g88_h21_t67 -1 p_r1_g109_h42_t67 -1 p_r1_g127_h60_t67 -1 p_r1_g141_h74_t67 -1 p_r1_g155_h88_t67 -1 p_r2_g30_h130_t67 -1 p_r2_g35_h135_t67 -1 p_r2_g61_h161_t67 -1 p_r2_g101_h34_t67 -1 p_r2_g112_h45_t67 -1 p_r2_g118_h51_t67 -1 p_r2_g119_h52_t67 -1 p_r2_g141_h74_t67 -1 p_r3_g17_h117_t67 -1 p_r3_g24_h124_t67 -1 p_r3_g25_h125_t67 -1 p_r3_g51_h151_t67 -1 p_r3_g53_h153_t67 -1 p_r3_g66_h166_t67 -1 p_r3_g89_h22_t67 -1 p_r3_g90_h23_t67 -1 p_r3_g118_h51_t67 -1 p_r3_g154_h87_t67 -1 p_r3_g156_h89_t67 = -69 ;
1 d_67 -1 u_67 <= 0 ;
-1 d_67 -1 u_67 <= 0 ;
1 u_67 -1 M <= 0 ;
1 u_67 <= 0 ;
1 p_r0_g11_h108_t70 -1 x_r0_g11 <= 0 ;
1 p_r0_g11_h108_t70 -1 x_r0_g108 <= 0 ;
1 p_r0_g11_h108_t70 -1 x_r0_g11 -1 x_r0_g108 >= -1 ;
1 p_r0_g15_h112_t70 -1 x_r0_g15 <= 0 ;
1 p_r0_g15_h112_t70 -1 x_r0_g112 <= 0 ;
1 p_r0_g15_h112_t70 -1 x_r0_g15 -1 x_r0_g112 >= -1 ;
1 p_r0_g39_h136_t70 -1 x_r0_g39 <= 0 ;
1 p_r0_g39_h136_t70 -1 x_r0_g136 <= 0 ;
1 p_r0_g39_h136_t70 -1 x_r0_g39 -1 x_r0_g136 >= -1 ;
1 p_r0_g53_h150_t70 -1 x_r0_g53 <= 0 ;
1 p_r0_g53_h150_t70 -1 x_r0_g150 <= 0 ;
1 p_r0_g53_h150_t70 -1 x_r0_g53 -1 x_r0_g150 >= -1 ;
1 p_r0_g66_h163_t70 -1 x_r0_g66 <= 0 ;
1 p_r0_g66_h163_t70 -1 x_r0_g163 <= 0 ;
1 p_r0_g66_h163_t70 -1 x_r0_g66 -1 x_r0_g163 >= -1 ;
1 p_r0_g74_h4_t70 -1 x_r0_g74 <= 0 ;
1 p_r0_g74_h4_t70 -1 x_r0_g4 <= 0 ;
1 p_r0_g74_h4_t70 -1 x_r0_g74 -1 x_r0_g4 >= -1 ;
1 p_r0_g85_h15_t70 -1 x_r0_g85 <= 0 ;
1 p_r0_g85_h15_t70 -1 x_r0_g15 <= 0 ;
1 p_r0_g85_h15_t70 -1 x_r0_g85 -1 x_r0_g15 >= -1 ;
1 p_r0_g89_h19_t70 -1 x_r0_g89 <= 0 ;
1 p_r0_g89_h19_t70 -1 x_r0_g19 <= 0 ;
1 p_r0_g89_h19_t70 -1 x_r0_g89 -1 x_r0_g19 >= -1 ;
1 p_r0_g126_h56_t70 -1 x_r0_g126 <= 0 ;
1 p_r0_g126_h56_t70 -1 x_r0_g56 <= 0 ;
1 p_r0_g126_h56_t70 -1 x_r0_g126 -1 x_r0_g56 >= -1 ;
1 p_r0_g135_h65_t70 -1 x_r0_g135 <= 0 ;
1 p_r0_g135_h65_t70 -1 x_r0_g65 <= 0 ;
1 p_r0_g135_h65_t70 -1 x_r0_g135 -1 x_r0_g65 >= -1 ;
1 p_r0_g136_h66_t70 -1 x_r0_g136 <= 0 ;
1 p_r0_g136_h66_t70 -1 x_r0_g66 <= 0 ;
1 p_r0_g136_h66_t70 -1 x_r0_g136 -1 x_r0_g66 >= -1 ;
1 p_r0_g142_h72_t70 -1 x_r0_g142 <= 0 ;
1 p_r0_g142_h72_t70 -1 x_r0_g72 <= 0 ;
1 p_r0_g142_h72_t70 -1 x_r0_g142 -1 x_r0_g72 >= -1 ;
1 p_r0_g159_h89_t70 -1 x_r0_g159 <= 0 ;
1 p_r0_g159_h89_t70 -1 x_r0_g89 <= 0 ;
1 p_r0_g159_h89_t70 -1 x_r0_g159 -1 x_r0_g89 >= -1 ;
1 p_r0_g163_h93_t70 -1 x_r0_g163 <= 0 ;
1 p_r0_g163_h93_t70 -1 x_r0_g93 <= 0 ;
1 p_r0_g163_h93_t70 -1 x_r0_g163 -1 x_r0_g93 >= -1 ;
1 p_r1_g1_h98_t70 -1 x_r1_g1 <= 0 ;
1 p_r1_g1_h98_t70 -1 x_r1_g98 <= 0 ;
1 p_r1_g1_h98_t70 -1 x_r1_g1 -1 x_r1_g98 >= -1 ;
1 p_r1_g48_h145_t70 -1 x_r1_g48 <= 0 ;
1 p_r1_g48_h145_t70 -1 x_r1_g145 <= 0 ;
1 p_r1_g48_h145_t70 -1 x_r1_g48 -1 x_r1_g145 >= -1 ;
1 p_r1_g64_h161_t70 -1 x_r1_g64 <= 0 ;
1 p_r1_g64_h161_t70 -1 x_r1_g161 <= 0 ;
1 p_r1_g64_h161_t70 -1 x_r1_g64 -1 x_r1_g161 >= -1 ;
1 p_r1_g76_h6_t70 -1 x_r1_g76 <= 0 ;
1 p_r1_g76_h6_t70 -1 x_r1_g6 <= 0 ;
1 p_r1_g76_h6_t70 -1 x_r1_g76 -1 x_r1_g6 >= -1 ;
1 p_r1_g99_h29_t70 -1 x_r1_g99 <= 0 ;
1 p_r1_g99_h29_t70 -1 x_r1_g29 <= 0 ;
1 p_r1_g99_h29_t70 -1 x_r1_g99 -1 x_r1_g29 >= -1 ;
1 p_r1_g104_h34_t70 -1 x_r1_g104 <= 0 ;
1 p_r1_g104_h34_t70 -1 x_r1_g34 <= 0 ;
1 p_r1_g104_h34_t70 -1 x_r1_g104 -1 x_r1_g34 >= -1 ;
1 p_r1_g138_h68_t70 -1 x_r1_g138 <= 0 ;
1 p_r1_g138_h68_t70 -1 x_r1_g68 <= 0 ;
1 p_r1_g138_h68_t70 -1 x_r1_g138 -1 x_r1_g68 >= -1 ;
1 p_r2_g15_h112_t70 -1 x_r2_g15 <= 0 ;
1 p_r2_g15_h112_t70 -1 x_r2_g112 <= 0 ;
1 p_r2_g15_h112_t70 -1 x_r2_g15 -1 x_r2_g112 >= -1 ;
1 p_r2_g21_h118_t70 -1 x_r2_g21 <= 0 ;
1 p_r2_g21_h118_t70 -1 x_r2_g118 <= 0 ;
1 p_r2_g21_h118_t70 -1 x_r2_g21 -1 x_r2_g118 >= -1 ;
1 p_r2_g27_h124_t70 -1 x_r2_g27 <= 0 ;
1 p_r2_g27_h124_t70 -1 x_r2_g124 <= 0 ;
1 p_r2_g27_h124_t70 -1 x_r2_g27 -1 x_r2_g124 >= -1 ;
1 p_r2_g83_h13_t70 -1 x_r2_g83 <= 0 ;
1 p_r2_g83_h13_t70 -1 x_r2_g13 <= 0 ;
1 p_r2_g83_h13_t70 -1 x_r2_g83 -1 x_r2_g13 >= -1 ;
1 p_r2_g85_h15_t70 -1 x_r2_g85 <= 0 ;
1 p_r2_g85_h15_t70 -1 x_r2_g15 <= 0 ;
1 p_r2_g85_h15_t70 -1 x_r2_g85 -1 x_r2_g15 >= -1 ;
1 p_r2_g91_h21_t70 -1 x_r2_g91 <= 0 ;
1 p_r2_g91_h21_t70 -1 x_r2_g21 <= 0 ;
1 p_r2_g91_h21_t70 -1 x_r2_g91 -1 x_r2_g21 >= -1 ;
1 p_r2_g104_h34_t70 -1 x_r2_g104 <= 0 ;
1 p_r2_g104_h34_t70 -1 x_r2_g34 <= 0 ;
1 p_r2_g104_h34_t70 -1 x_r2_g104 -1 x_r2_g34 >= -1 ;
1 p_r2_g105_h35_t70 -1 x_r2_g105 <= 0 ;
1 p_r2_g105_h35_t70 -1 x_r2_g35 <= 0 ;
1 p_r2_g105_h35_t70 -1 x_r2_g105 -1 x_r2_g35 >= -1 ;
1 p_r2_g161_h91_t70 -1 x_r2_g161 <= 0 ;
1 p_r2_g161_h91_t70 -1 x_r2_g91 <= 0 ;
1 p_r2_g161_h91_t70 -1 x_r2_g161 -1 x_r2_g91 >= -1 ;
1 p_r3_g21_h118_t70 -1 x_r3_g21 <= 0 ;
1 p_r3_g21_h118_t70 -1 x_r3_g118 <= 0 ;
1 p_r3_g21_h118_t70 -1 x_r3_g21 -1 x_r3_g118 >= -1 ;
1 p_r3_g69_h166_t70 -1 x_r3_g69 <= 0 ;
1 p_r3_g69_h166_t70 -1 x_r3_g166 <= 0 ;
1 p_r3_g69_h166_t70 -1 x_r3_g69 -1 x_r3_g166 >= -1 ;
1 p_r3_g87_h17_t70 -1 x_r3_g87 <= 0 ;
1 p_r3_g87_h17_t70 -1 x_r3_g17 <= 0 ;
1 p_r3_g87_h17_t70 -1 x_r3_g87 -1 x_r3_g17 >= -1 ;
1 p_r3_g96_h26_t70 -1 x_r3_g96 <= 0 ;
1 p_r3_g96_h26_t70 -1 x_r3_g26 <= 0 ;
1 p_r3_g96_h26_t70 -1 x_r3_g96 -1 x_r3_g26 >= -1 ;
1 p_r3_g153_h83_t70 -1 x_r3_g153 <= 0 ;
1 p_r3_g153_h83_t70 -1 x_r3_g83 <= 0 ;
1 p_r3_g153_h83_t70 -1 x_r3_g153 -1 x_r3_g83 >= -1 ;
1 p_r3_g166_h96_t70 -1 x_r3_g166 <= 0 ;
1 p_r3_g166_h96_t70 -1 x_r3_g96 <= 0 ;
1 p_r3_g166_h96_t70 -1 x_r3_g166 -1 x_r3_g96 >= -1 ;
1 d_70 -1 x_r0_g1 -1 x_r0_g4 -1 x_r0_g5 -1 x_r0_g7 -1 x_r0_g19 -1 x_r0_g34 -1 x_r0_g53 -1 x_r0_g57 -1 x_r0_g69 -1 x_r0_g79 -1 x_r0_g85 -1 x_r0_g103 -1 x_r0_g106 -1 x_r0_g108 -1 x_r0_g112 -1 x_r0_g119 -1 x_r0_g124 -1 x_r0_g135 -1 x_r0_g142 -1 x_r0_g143 -1 x_r0_g146 -1 x_r0_g159 -1 x_r1_g6 -1 x_r1_g21 -1 x_r1_g42 -2 x_r1_g43 -2 x_r1_g60 -1 x_r1_g69 -1 x_r1_g76 -1 x_r1_g84 -1 x_r1_g88 -1 x_r1_g109 -1 x_r1_g124 -1 x_r1_g127 -1 x_r1_g129 -1 x_r1_g141 -1 x_r1_g148 -1 x_r1_g161 -1 x_r1_g162 -1 x_r1_g163 -1 x_r2_g13 -1 x_r2_g30 -2 x_r2_g32 -1 x_r2_g35 -2 x_r2_g40 -1 x_r2_g45 -2 x_r2_g51 -1 x_r2_g52 -1 x_r2_g53 -1 x_r2_g58 -1 x_r2_g61 -1 x_r2_g74 -1 x_r2_g83 -1 x_r2_g93 -2 x_r2_g101 -1 x_r2_g103 -1 x_r2_g104 -2 x_r2_g111 -1 x_r2_g118 -1 x_r2_g119 -2 x_r2_g130 -1 x_r2_g133 -1 x_r2_g135 -1 x_r2_g157 -1 x_r2_g161 -1 x_r2_g162 -1 x_r3_g5 -1 x_r3_g22 -1 x_r3_g24 -1 x_r3_g25 -1 x_r3_g26 -1 x_r3_g31 -1 x_r3_g38 -2 x_r3_g42 -1 x_r3_g51 -1 x_r3_g53 -1 x_r3_g66 -1 x_r3_g68 -1 x_r3_g69 -1 x_r3_g73 -1 x_r3_g83 -1 x_r3_g89 -2 x_r3_g90 -1 x_r3_g100 -2 x_r3_g117 -1 x_r3_g124 -2 x_r3_g125 -1 x_r3_g137 -1 x_r3_g151 -2 x_r3_g156 -1 x_r3_g158 -1 p_r0_g11_h108_t70 -1 p_r0_g15_h112_t70 -1 p_r0_g39_h136_t70 -1 p_r0_g53_h150_t70 -1 p_r0_g66_h163_t70 -1 p_r0_g74_h4_t70 -1 p_r0_g85_h15_t70 -1 p_r0_g89_h19_t70 -1 p_r0_g126_h56_t70 -1 p_r0_g135_h65_t70 -1 p_r0_g136_h66_t70 -1 p_r0_g142_h72_t70 -1 p_r0_g159_h89_t70 -1 p_r0_g163_h93_t70 -1 p_r1_g1_h98_t70 -1 p_r1_g48_h145_t70 -1 p_r1_g64_h161_t70 -1 p_r1_g76_h6_t70 -1 p_r1_g99_h29_t70 -1 p_r1_g104_h34_t70 -1 p_r1_g138_h68_t70 -1 p_r2_g15_h112_t70 -1 p_r2_g21_h118_t70 -1 p_r2_g27_h124_t70 -1 p_r2_g83_h13_t70 -1 p_r2_g85_h15_t70 -1 p_r2_g91_h21_t70 -1 p_r2_g104_h34_t70 -1 p_r2_g105_h35_t70 -1 p_r2_g161_h91_t70 -1 p_r3_g21_h118_t70 -1 p_r3_g69_h166_t70 -1 p_r3_g87_h17_t70 -1 p_r3_g96_h26_t70 -1 p_r3_g153_h83_t70 -1 p_r3_g166_h96_t70 = -50 ;
1 d_70 -1 u_70 <= 0 ;
-1 d_70 -1 u_70 <= 0 ;
1 u_70 -1 M <= 0 ;
1 u_70 <= 2 ;
1 p_r0_g7_h103_t71 -1 x_r0_g7 <= 0 ;
1 p_r0_g7_h103_t71 -1 x_r0_g103 <= 0 ;
1 p_r0_g7_h103_t71 -1 x_r0_g7 -1 x_r0_g103 >= -1 ;
1 p_r0_g12_h108_t71 -1 x_r0_g12 <= 0 ;
1 p_r0_g12_h108_t71 -1 x_r0_g108 <= 0 ;
1 p_r0_g12_h108_t71 -1 x_r0_g12 -1 x_r0_g108 >= -1 ;
1 p_r0_g39_h135_t71 -1 x_r0_g39 <= 0 ;
1 p_r0_g39_h135_t71 -1 x_r0_g135 <= 0 ;
1 p_r0_g39_h135_t71 -1 x_r0_g39 -1 x_r0_g135 >= -1 ;
1 p_r0_g47_h143_t71 -1 x_r0_g47 <= 0 ;
1 p_r0_g47_h143_t71 -1 x_r0_g143 <= 0 ;
1 p_r0_g47_h143_t71 -1 x_r0_g47 -1 x_r0_g143 >= -1 ;
1 p_r0_g72_h1_t71 -1 x_r0_g72 <= 0 ;
1 p_r0_g72_h1_t71 -1 x_r0_g1 <= 0 ;
1 p_r0_g72_h1_t71 -1 x_r0_g72 -1 x_r0_g1 >= -1 ;
1 p_r0_g124_h53_t71 -1 x_r0_g124 <= 0 ;
1 p_r0_g124_h53_t71 -1 x_r0_g53 <= 0 ;
1 p_r0_g124_h53_t71 -1 x_r0_g124 -1 x_r0_g53 >= -1 ;
1 p_r0_g136_h65_t71 -1 x_r0_g136 <= 0 ;
1 p_r0_g136_h65_t71 -1 x_r0_g65 <= 0 ;
1 p_r0_g136_h65_t71 -1 x_r0_g136 -1 x_r0_g65 >= -1 ;
1 p_r0_g143_h72_t71 -1 x_r0_g143 <= 0 ;
1 p_r0_g143_h72_t71 -1 x_r0_g72 <= 0 ;
1 p_r0_g143_h72_t71 -1 x_r0_g143 -1 x_r0_g72 >= -1 ;
1 p_r0_g150_h79_t71 -1 x_r0_g150 <= 0 ;
1 p_r0_g150_h79_t71 -1 x_r0_g79 <= 0 ;
1 p_r0_g150_h79_t71 -1 x_r0_g150 -1 x_r0_g79 >= -1 ;
1 p_r1_g42_h138_t71 -1 x_r1_g42 <= 0 ;
1 p_r1_g42_h138_t71 -1 x_r1_g138 <= 0 ;
1 p_r1_g42_h138_t71 -1 x_r1_g42 -1 x_r1_g138 >= -1 ;
1 p_r1_g76_h5_t71 -1 x_r1_g76 <= 0 ;
1 p_r1_g76_h5_t71 -1 x_r1_g5 <= 0 ;
1 p_r1_g76_h5_t71 -1 x_r1_g76 -1 x_r1_g5 >= -1 ;
1 p_r1_g77_h6_t71 -1 x_r1_g77 <= 0 ;
1 p_r1_g77_h6_t71 -1 x_r1_g6 <= 0 ;
1 p_r1_g77_h6_t71 -1 x_r1_g77 -1 x_r1_g6 >= -1 ;
1 p_r1_g127_h56_t71 -1 x_r1_g127 <= 0 ;
1 p_r1_g127_h56_t71 -1 x_r1_g56 <= 0 ;
1 p_r1_g127_h56_t71 -1 x_r1_g127 -1 x_r1_g56 >= -1 ;
1 p_r1_g145_h74_t71 -1 x_r1_g145 <= 0 ;
1 p_r1_g145_h74_t71 -1 x_r1_g74 <= 0 ;
1 p_r1_g145_h74_t71 -1 x_r1_g145 -1 x_r1_g74 >= -1 ;
1 p_r1_g148_h77_t71 -1 x_r1_g148 <= 0 ;
1 p_r1_g148_h77_t71 -1 x_r1_g77 <= 0 ;
1 p_r1_g148_h77_t71 -1 x_r1_g148 -1 x_r1_g77 >= -1 ;
1 p_r1_g155_h84_t71 -1 x_r1_g155 <= 0 ;
1 p_r1_g155_h84_t71 -1 x_r1_g84 <= 0 ;
1 p_r1_g155_h84_t71 -1 x_r1_g155 -1 x_r1_g84 >= -1 ;
1 p_r2_g15_h111_t71 -1 x_r2_g15 <= 0 ;
1 p_r2_g15_h111_t71 -1 x_r2_g111 <= 0 ;
1 p_r2_g15_h111_t71 -1 x_r2_g15 -1 x_r2_g111 >= -1 ;
1 p_r2_g34_h130_t71 -1 x_r2_g34 <= 0 ;
1 p_r2_g34_h130_t71 -1 x_r2_g130 <= 0 ;
1 p_r2_g34_h130_t71 -1 x_r2_g34 -1 x_r2_g130 >= -1 ;
1 p_r2_g45_h141_t71 -1 x_r2_g45 <= 0 ;
1 p_r2_g45_h141_t71 -1 x_r2_g141 <= 0 ;
1 p_r2_g45_h141_t71 -1 x_r2_g45 -1 x_r2_g141 >= -1 ;
1 p_r2_g51_h147_t71 -1 x_r2_g51 <= 0 ;
1 p_r2_g51_h147_t71 -1 x_r2_g147 <= 0 ;
1 p_r2_g51_h147_t71 -1 x_r2_g51 -1 x_r2_g147 >= -1 ;
1 p_r2_g61_h157_t71 -1 x_r2_g61 <= 0 ;
1 p_r2_g61_h157_t71 -1 x_r2_g157 <= 0 ;
1 p_r2_g61_h157_t71 -1 x_r2_g61 -1 x_r2_g157 >= -1 ;
1 p_r2_g101_h30_t71 -1 x_r2_g101 <= 0 ;
1 p_r2_g101_h30_t71 -1 x_r2_g30 <= 0 ;
1 p_r2_g101_h30_t71 -1 x_r2_g101 -1 x_r2_g30 >= -1 ;
1 p_r2_g103_h32_t71 -1 x_r2_g103 <= 0 ;
1 p_r2_g103_h32_t71 -1 x_r2_g32 <= 0 ;
1 p_r2_g103_h32_t71 -1 x_r2_g103 -1 x_r2_g32 >= -1 ;
1 p_r2_g105_h34_t71 -1 x_r2_g105 <= 0 ;
1 p_r2_g105_h34_t71 -1 x_r2_g34 <= 0 ;
1 p_r2_g105_h34_t71 -1 x_r2_g105 -1 x_r2_g34 >= -1 ;
1 p_r2_g106_h35_t71 -1 x_r2_g106 <= 0 ;
1 p_r2_g106_h35_t71 -1 x_r2_g35 <= 0 ;
1 p_r2_g106_h35_t71 -1 x_r2_g106 -1 x_r2_g35 >= -1 ;
1 p_r2_g111_h40_t71 -1 x_r2_g111 <= 0 ;
1 p_r2_g111_h40_t71 -1 x_r2_g40 <= 0 ;
1 p_r2_g111_h40_t71 -1 x_r2_g111 -1 x_r2_g40 >= -1 ;
1 p_r2_g124_h53_t71 -1 x_r2_g124 <= 0 ;
1 p_r2_g124_h53_t71 -1 x_r2_g53 <= 0 ;
1 p_r2_g124_h53_t71 -1 x_r2_g124 -1 x_r2_g53 >= -1 ;
1 p_r2_g162_h91_t71 -1 x_r2_g162 <= 0 ;
1 p_r2_g162_h91_t71 -1 x_r2_g91 <= 0 ;
1 p_r2_g162_h91_t71 -1 x_r2_g162 -1 x_r2_g91 >= -1 ;
1 p_r3_g21_h117_t71 -1 x_r3_g21 <= 0 ;
1 p_r3_g21_h117_t71 -1 x_r3_g117 <= 0 ;
1 p_r3_g21_h117_t71 -1 x_r3_g21 -1 x_r3_g117 >= -1 ;
1 p_r3_g22_h118_t71 -1 x_r3_g22 <= 0 ;
1 p_r3_g22_h118_t71 -1 x_r3_g118 <= 0 ;
1 p_r3_g22_h118_t71 -1 x_r3_g22 -1 x_r3_g118 >= -1 ;
1 p_r3_g53_h149_t71 -1 x_r3_g53 <= 0 ;
1 p_r3_g53_h149_t71 -1 x_r3_g149 <= 0 ;
1 p_r3_g53_h149_t71 -1 x_r3_g53 -1 x_r3_g149 >= -1 ;
1 p_r3_g60_h156_t71 -1 x_r3_g60 <= 0 ;
1 p_r3_g60_h156_t71 -1 x_r3_g156 <= 0 ;
1 p_r3_g60_h156_t71 -1 x_r3_g60 -1 x_r3_g156 >= -1 ;
1 p_r3_g62_h158_t71 -1 x_r3_g62 <= 0 ;
1 p_r3_g62_h158_t71 -1 x_r3_g158 <= 0 ;
1 p_r3_g62_h158_t71 -1 x_r3_g62 -1 x_r3_g158 >= -1 ;
1 p_r3_g96_h25_t71 -1 x_r3_g96 <= 0 ;
1 p_r3_g96_h25_t71 -1 x_r3_g25 <= 0 ;
1 p_r3_g96_h25_t71 -1 x_r3_g96 -1 x_r3_g25 >= -1 ;
1 p_r3_g124_h53_t71 -1 x_r3_g124 <= 0 ;
1 p_r3_g124_h53_t71 -1 x_r3_g53 <= 0 ;
1 p_r3_g124_h53_t71 -1 x_r3_g124 -1 x_r3_g53 >= -1 ;
1 p_r3_g137_h66_t71 -1 x_r3_g137 <= 0 ;
1 p_r3_g137_h66_t71 -1 x_r3_g66 <= 0 ;
1 p_r3_g137_h66_t71 -1 x_r3_g137 -1 x_r3_g66 >= -1 ;
1 p_r3_g154_h83_t71 -1 x_r3_g154 <= 0 ;
1 p_r3_g154_h83_t71 -1 x_r3_g83 <= 0 ;
1 p_r3_g154_h83_t71 -1 x_r3_g154 -1 x_r3_g83 >= -1 ;
1 p_r3_g158_h87_t71 -1 x_r3_g158 <= 0 ;
1 p_r3_g158_h87_t71 -1 x_r3_g87 <= 0 ;
1 p_r3_g158_h87_t71 -1 x_r3_g158 -1 x_r3_g87 >= -1 ;
1 p_r3_g161_h90_t71 -1 x_r3_g161 <= 0 ;
1 p_r3_g161_h90_t71 -1 x_r3_g90 <= 0 ;
1 p_r3_g161_h90_t71 -1 x_r3_g161 -1 x_r3_g90 >= -1 ;
1 d_71 -1 x_r0_g4 -1 x_r0_g5 -1 x_r0_g15 -1 x_r0_g19 -1 x_r0_g24 -1 x_r0_g47 -1 x_r0_g53 -2 x_r0_g56 -1 x_r0_g66 -1 x_r0_g69 -1 x_r0_g74 -1 x_r0_g85 -1 x_r0_g89 -1 x_r0_g91 -1 x_r0_g108 -1 x_r0_g119 -2 x_r0_g126 -1 x_r0_g136 -1 x_r0_g142 -1 x_r0_g150 -2 x_r0_g159 -1 x_r0_g163 -1 x_r1_g23 -1 x_r1_g29 -1 x_r1_g34 -2 x_r1_g36 -1 x_r1_g42 -1 x_r1_g43 -1 x_r1_g48 -1 x_r1_g50 -1 x_r1_g60 -2 x_r1_g61 -1 x_r1_g64 -1 x_r1_g68 -1 x_r1_g69 -1 x_r1_g74 -1 x_r1_g82 -1 x_r1_g88 -1 x_r1_g98 -1 x_r1_g99 -1 x_r1_g109 -1 x_r1_g124 -1 x_r1_g127 -1 x_r1_g141 -1 x_r1_g145 -2 x_r1_g161 -2 x_r1_g162 -1 x_r2_g15 -1 x_r2_g27 -1 x_r2_g30 -1 x_r2_g32 -1 x_r2_g40 -1 x_r2_g45 -1 x_r2_g51 -1 x_r2_g52 -1 x_r2_g58 -1 x_r2_g61 -1 x_r2_g85 -1 x_r2_g91 -1 x_r2_g103 -1 x_r2_g104 -1 x_r2_g112 -1 x_r2_g119 -1 x_r2_g124 -2 x_r2_g135 -2 x_r2_g139 -1 x_r2_g157 -2 x_r2_g161 -1 x_r3_g5 -2 x_r3_g23 -1 x_r3_g26 -1 x_r3_g31 -1 x_r3_g38 -1 x_r3_g39 -1 x_r3_g42 -1 x_r3_g51 -1 x_r3_g66 -1 x_r3_g68 -1 x_r3_g69 -2 x_r3_g73 -1 x_r3_g83 -2 x_r3_g89 -1 x_r3_g90 -1 x_r3_g100 -1 x_r3_g117 -1 x_r3_g118 -1 x_r3_g124 -1 x_r3_g137 -1 x_r3_g149 -2 x_r3_g151 -1 x_r3_g161 -1 p_r0_g7_h103_t71 -1 p_r0_g12_h108_t71 -1 p_r0_g39_h135_t71 -1 p_r0_g47_h143_t71 -1 p_r0_g72_h1_t71 -1 p_r0_g124_h53_t71 -1 p_r0_g136_h65_t71 -1 p_r0_g143_h72_t71 -1 p_r0_g150_h79_t71 -1 p_r1_g42_h138_t71 -1 p_r1_g76_h5_t71 -1 p_r1_g77_h6_t71 -1 p_r1_g127_h56_t71 -1 p_r1_g145_h74_t71 -1 p_r1_g148_h77_t71 -1 p_r1_g155_h84_t71 -1 p_r2_g15_h111_t71 -1 p_r2_g34_h130_t71 -1 p_r2_g45_h141_t71 -1 p_r2_g51_h147_t71 -1 p_r2_g61_h157_t71 -1 p_r2_g101_h30_t71 -1 p_r2_g103_h32_t71 -1 p_r2_g105_h34_t71 -1 p_r2_g106_h35_t71 -1 p_r2_g111_h40_t71 -1 p_r2_g124_h53_t71 -1 p_r2_g162_h91_t71 -1 p_r3_g21_h117_t71 -1 p_r3_g22_h118_t71 -1 p_r3_g53_h149_t71 -1 p_r3_g60_h156_t71 -1 p_r3_g62_h158_t71 -1 p_r3_g96_h25_t71 -1 p_r3_g124_h53_t71 -1 p_r3_g137_h66_t71 -1 p_r3_g154_h83_t71 -1 p_r3_g158_h87_t71 -1 p_r3_g161_h90_t71 = -73 ;
1 d_71 -1 u_71 <= 0 ;
-1 d_71 -1 u_71 <= 0 ;
1 u_71 -1 M <= 0 ;
1 u_71 <= 2 ;
1 p_r0_g1_h93_t75 -1 x_r0_g1 <= 0 ;
1 p_r0_g1_h93_t75 -1 x_r0_g93 <= 0 ;
1 p_r0_g1_h93_t75 -1 x_r0_g1 -1 x_r0_g93 >= -1 ;
1 p_r0_g11_h103_t75 -1 x_r0_g11 <= 0 ;
1 p_r0_g11_h103_t75 -1 x_r0_g103 <= 0 ;
1 p_r0_g11_h103_t75 -1 x_r0_g11 -1 x_r0_g103 >= -1 ;
1 p_r0_g34_h126_t75 -1 x_r0_g34 <= 0 ;
1 p_r0_g34_h126_t75 -1 x_r0_g126 <= 0 ;
1 p_r0_g34_h126_t75 -1 x_r0_g34 -1 x_r0_g126 >= -1 ;
1 p_r0_g79_h4_t75 -1 x_r0_g79 <= 0 ;
1 p_r0_g79_h4_t75 -1 x_r0_g4 <= 0 ;
1 p_r0_g79_h4_t75 -1 x_r0_g79 -1 x_r0_g4 >= -1 ;
1 p_r1_g6_h98_t75 -1 x_r1_g6 <= 0 ;
1 p_r1_g6_h98_t75 -1 x_r1_g98 <= 0 ;
1 p_r1_g6_h98_t75 -1 x_r1_g6 -1 x_r1_g98 >= -1 ;
1 p_r1_g56_h148_t75 -1 x_r1_g56 <= 0 ;
1 p_r1_g56_h148_t75 -1 x_r1_g148 <= 0 ;
1 p_r1_g56_h148_t75 -1 x_r1_g56 -1 x_r1_g148 >= -1 ;
1 p_r1_g69_h161_t75 -1 x_r1_g69 <= 0 ;
1 p_r1_g69_h161_t75 -1 x_r1_g161 <= 0 ;
1 p_r1_g69_h161_t75 -1 x_r1_g69 -1 x_r1_g161 >= -1 ;
1 p_r1_g76_h1_t75 -1 x_r1_g76 <= 0 ;
1 p_r1_g76_h1_t75 -1 x_r1_g1 <= 0 ;
1 p_r1_g76_h1_t75 -1 x_r1_g76 -1 x_r1_g1 >= -1 ;
1 p_r1_g98_h23_t75 -1 x_r1_g98 <= 0 ;
1 p_r1_g98_h23_t75 -1 x_r1_g23 <= 0 ;
1 p_r1_g98_h23_t75 -1 x_r1_g98 -1 x_r1_g23 >= -1 ;
1 p_r1_g104_h29_t75 -1 x_r1_g104 <= 0 ;
1 p_r1_g104_h29_t75 -1 x_r1_g29 <= 0 ;
1 p_r1_g104_h29_t75 -1 x_r1_g104 -1 x_r1_g29 >= -1 ;
1 p_r1_g109_h34_t75 -1 x_r1_g109 <= 0 ;
1 p_r1_g109_h34_t75 -1 x_r1_g34 <= 0 ;
1 p_r1_g109_h34_t75 -1 x_r1_g109 -1 x_r1_g34 >= -1 ;
1 p_r1_g163_h88_t75 -1 x_r1_g163 <= 0 ;
1 p_r1_g163_h88_t75 -1 x_r1_g88 <= 0 ;
1 p_r1_g163_h88_t75 -1 x_r1_g163 -1 x_r1_g88 >= -1 ;
1 p_r2_g13_h105_t75 -1 x_r2_g13 <= 0 ;
1 p_r2_g13_h105_t75 -1 x_r2_g105 <= 0 ;
1 p_r2_g13_h105_t75 -1 x_r2_g13 -1 x_r2_g105 >= -1 ;
1 p_r2_g27_h119_t75 -1 x_r2_g27 <= 0 ;
1 p_r2_g27_h119_t75 -1 x_r2_g119 <= 0 ;
1 p_r2_g27_h119_t75 -1 x_r2_g27 -1 x_r2_g119 >= -1 ;
1 p_r2_g32_h124_t75 -1 x_r2_g32 <= 0 ;
1 p_r2_g32_h124_t75 -1 x_r2_g124 <= 0 ;
1 p_r2_g32_h124_t75 -1 x_r2_g32 -1 x_r2_g124 >= -1 ;
1 p_r2_g105_h30_t75 -1 x_r2_g105 <= 0 ;
1 p_r2_g105_h30_t75 -1 x_r2_g30 <= 0 ;
1 p_r2_g105_h30_t75 -1 x_r2_g105 -1 x_r2_g30 >= -1 ;
1 p_r2_g133_h58_t75 -1 x_r2_g133 <= 0 ;
1 p_r2_g133_h58_t75 -1 x_r2_g58 <= 0 ;
1 p_r2_g133_h58_t75 -1 x_r2_g133 -1 x_r2_g58 >= -1 ;
1 p_r3_g25_h117_t75 -1 x_r3_g25 <= 0 ;
1 p_r3_g25_h117_t75 -1 x_r3_g117 <= 0 ;
1 p_r3_g25_h117_t75 -1 x_r3_g25 -1 x_r3_g117 >= -1 ;
1 p_r3_g26_h118_t75 -1 x_r3_g26 <= 0 ;
1 p_r3_g26_h118_t75 -1 x_r3_g118 <= 0 ;
1 p_r3_g26_h118_t75 -1 x_r3_g26 -1 x_r3_g118 >= -1 ;
1 p_r3_g62_h154_t75 -1 x_r3_g62 <= 0 ;
1 p_r3_g62_h154_t75 -1 x_r3_g154 <= 0 ;
1 p_r3_g62_h154_t75 -1 x_r3_g62 -1 x_r3_g154 >= -1 ;
1 p_r3_g66_h158_t75 -1 x_r3_g66 <= 0 ;
1 p_r3_g66_h158_t75 -1 x_r3_g158 <= 0 ;
1 p_r3_g66_h158_t75 -1 x_r3_g66 -1 x_r3_g158 >= -1 ;
1 p_r3_g69_h161_t75 -1 x_r3_g69 <= 0 ;
1 p_r3_g69_h161_t75 -1 x_r3_g161 <= 0 ;
1 p_r3_g69_h161_t75 -1 x_r3_g69 -1 x_r3_g161 >= -1 ;
1 p_r3_g96_h21_t75 -1 x_r3_g96 <= 0 ;
1 p_r3_g96_h21_t75 -1 x_r3_g21 <= 0 ;
1 p_r3_g96_h21_t75 -1 x_r3_g96 -1 x_r3_g21 >= -1 ;
1 p_r3_g100_h25_t75 -1 x_r3_g100 <= 0 ;
1 p_r3_g100_h25_t75 -1 x_r3_g25 <= 0 ;
1 p_r3_g100_h25_t75 -1 x_r3_g100 -1 x_r3_g25 >= -1 ;
1 p_r3_g117_h42_t75 -1 x_r3_g117 <= 0 ;
1 p_r3_g117_h42_t75 -1 x_r3_g42 <= 0 ;
1 p_r3_g117_h42_t75 -1 x_r3_g117 -1 x_r3_g42 >= -1 ;
1 p_r3_g137_h62_t75 -1 x_r3_g137 <= 0 ;
1 p_r3_g137_h62_t75 -1 x_r3_g62 <= 0 ;
1 p_r3_g137_h62_t75 -1 x_r3_g137 -1 x_r3_g62 >= -1 ;
1 p_r3_g158_h83_t75 -1 x_r3_g158 <= 0 ;
1 p_r3_g158_h83_t75 -1 x_r3_g83 <= 0 ;
1 p_r3_g158_h83_t75 -1 x_r3_g158 -1 x_r3_g83 >= -1 ;
1 d_75 -1 x_r0_g15 -1 x_r0_g19 -1 x_r0_g24 -1 x_r0_g39 -2 x_r0_g47 -1 x_r0_g56 -2 x_r0_g57 -1 x_r0_g65 -1 x_r0_g66 -1 x_r0_g74 -1 x_r0_g85 -1 x_r0_g89 -1 x_r0_g106 -2 x_r0_g112 -1 x_r0_g124 -1 x_r0_g126 -1 x_r0_g135 -1 x_r0_g142 -2 x_r0_g143 -1 x_r0_g146 -1 x_r0_g150 -1 x_r0_g159 -1 x_r0_g163 -1 x_r1_g5 -1 x_r1_g6 -2 x_r1_g21 -1 x_r1_g23 -1 x_r1_g36 -2 x_r1_g40 -2 x_r1_g48 -1 x_r1_g64 -1 x_r1_g68 -1 x_r1_g74 -1 x_r1_g82 -1 x_r1_g84 -2 x_r1_g124 -1 x_r1_g129 -1 x_r1_g138 -2 x_r1_g141 -2 x_r1_g145 -1 x_r1_g155 -2 x_r1_g162 -1 x_r2_g15 -1 x_r2_g21 -1 x_r2_g27 -1 x_r2_g30 -1 x_r2_g34 -2 x_r2_g35 -2 x_r2_g40 -2 x_r2_g45 -1 x_r2_g51 -1 x_r2_g52 -1 x_r2_g53 -1 x_r2_g58 -2 x_r2_g61 -2 x_r2_g73 -1 x_r2_g83 -1 x_r2_g85 -2 x_r2_g93 -1 x_r2_g101 -1 x_r2_g103 -2 x_r2_g106 -1 x_r2_g112 -2 x_r2_g118 -1 x_r2_g124 -1 x_r2_g133 -2 x_r2_g135 -1 x_r2_g139 -1 x_r2_g141 -2 x_r2_g157 -1 x_r2_g161 -1 x_r3_g5 -1 x_r3_g23 -1 x_r3_g24 -2 x_r3_g31 -1 x_r3_g42 -1 x_r3_g51 -2 x_r3_g53 -2 x_r3_g68 -1 x_r3_g69 -1 x_r3_g73 -1 x_r3_g83 -2 x_r3_g87 -1 x_r3_g96 -1 x_r3_g100 -1 x_r3_g118 -2 x_r3_g124 -1 x_r3_g137 -1 x_r3_g149 -2 x_r3_g151 -2 x_r3_g153 -1 x_r3_g156 -1 x_r3_g161 -1 x_r3_g166 -1 p_r0_g1_h93_t75 -1 p_r0_g11_h103_t75 -1 p_r0_g34_h126_t75 -1 p_r0_g79_h4_t75 -1 p_r1_g6_h98_t75 -1 p_r1_g56_h148_t75 -1 p_r1_g69_h161_t75 -1 p_r1_g76_h1_t75 -1 p_r1_g98_h23_t75 -1 p_r1_g104_h29_t75 -1 p_r1_g109_h34_t75 -1 p_r1_g163_h88_t75 -1 p_r2_g13_h105_t75 -1 p_r2_g27_h119_t75 -1 p_r2_g32_h124_t75 -1 p_r2_g105_h30_t75 -1 p_r2_g133_h58_t75 -1 p_r3_g25_h117_t75 -1 p_r3_g26_h118_t75 -1 p_r3_g62_h154_t75 -1 p_r3_g66_h158_t75 -1 p_r3_g69_h161_t75 -1 p_r3_g96_h21_t75 -1 p_r3_g100_h25_t75 -1 p_r3_g117_h42_t75 -1 p_r3_g137_h62_t75 -1 p_r3_g158_h83_t75 = -67 ;
1 d_75 -1 u_75 <= 0 ;
-1 d_75 -1 u_75 <= 0 ;
1 u_75 -1 M <= 0 ;
1 u_75 <= 0 ;
1 p_r0_g4_h91_t80 -1 x_r0_g4 <= 0 ;
1 p_r0_g4_h91_t80 -1 x_r0_g91 <= 0 ;
1 p_r0_g4_h91_t80 -1 x_r0_g4 -1 x_r0_g91 >= -1 ;
1 p_r0_g19_h106_t80 -1 x_r0_g19 <= 0 ;
1 p_r0_g19_h106_t80 -1 x_r0_g106 <= 0 ;
1 p_r0_g19_h106_t80 -1 x_r0_g19 -1 x_r0_g106 >= -1 ;
1 p_r0_g39_h126_t80 -1 x_r0_g39 <= 0 ;
1 p_r0_g39_h126_t80 -1 x_r0_g126 <= 0 ;
1 p_r0_g39_h126_t80 -1 x_r0_g39 -1 x_r0_g126 >= -1 ;
1 p_r0_g56_h143_t80 -1 x_r0_g56 <= 0 ;
1 p_r0_g56_h143_t80 -1 x_r0_g143 <= 0 ;
1 p_r0_g56_h143_t80 -1 x_r0_g56 -1 x_r0_g143 >= -1 ;
1 p_r0_g72_h159_t80 -1 x_r0_g72 <= 0 ;
1 p_r0_g72_h159_t80 -1 x_r0_g159 <= 0 ;
1 p_r0_g72_h159_t80 -1 x_r0_g72 -1 x_r0_g159 >= -1 ;
1 p_r0_g85_h5_t80 -1 x_r0_g85 <= 0 ;
1 p_r0_g85_h5_t80 -1 x_r0_g5 <= 0 ;
1 p_r0_g85_h5_t80 -1 x_r0_g85 -1 x_r0_g5 >= -1 ;
1 p_r0_g91_h11_t80 -1 x_r0_g91 <= 0 ;
1 p_r0_g91_h11_t80 -1 x_r0_g11 <= 0 ;
1 p_r0_g91_h11_t80 -1 x_r0_g91 -1 x_r0_g11 >= -1 ;
1 p_r0_g119_h39_t80 -1 x_r0_g119 <= 0 ;
1 p_r0_g119_h39_t80 -1 x_r0_g39 <= 0 ;
1 p_r0_g119_h39_t80 -1 x_r0_g119 -1 x_r0_g39 >= -1 ;
1 p_r0_g136_h56_t80 -1 x_r0_g136 <= 0 ;
1 p_r0_g136_h56_t80 -1 x_r0_g56 <= 0 ;
1 p_r0_g136_h56_t80 -1 x_r0_g136 -1 x_r0_g56 >= -1 ;
1 p_r0_g146_h66_t80 -1 x_r0_g146 <= 0 ;
1 p_r0_g146_h66_t80 -1 x_r0_g66 <= 0 ;
1 p_r0_g146_h66_t80 -1 x_r0_g146 -1 x_r0_g66 >= -1 ;
1 p_r0_g159_h79_t80 -1 x_r0_g159 <= 0 ;
1 p_r0_g159_h79_t80 -1 x_r0_g79 <= 0 ;
1 p_r0_g159_h79_t80 -1 x_r0_g159 -1 x_r0_g79 >= -1 ;
1 p_r1_g1_h88_t80 -1 x_r1_g1 <= 0 ;
1 p_r1_g1_h88_t80 -1 x_r1_g88 <= 0 ;
1 p_r1_g1_h88_t80 -1 x_r1_g1 -1 x_r1_g88 >= -1 ;
1 p_r1_g40_h127_t80 -1 x_r1_g40 <= 0 ;
1 p_r1_g40_h127_t80 -1 x_r1_g127 <= 0 ;
1 p_r1_g40_h127_t80 -1 x_r1_g40 -1 x_r1_g127 >= -1 ;
1 p_r1_g42_h129_t80 -1 x_r1_g42 <= 0 ;
1 p_r1_g42_h129_t80 -1 x_r1_g129 <= 0 ;
1 p_r1_g42_h129_t80 -1 x_r1_g42 -1 x_r1_g129 >= -1 ;
1 p_r1_g61_h148_t80 -1 x_r1_g61 <= 0 ;
1 p_r1_g61_h148_t80 -1 x_r1_g148 <= 0 ;
1 p_r1_g61_h148_t80 -1 x_r1_g61 -1 x_r1_g148 >= -1 ;
1 p_r1_g68_h155_t80 -1 x_r1_g68 <= 0 ;
1 p_r1_g68_h155_t80 -1 x_r1_g155 <= 0 ;
1 p_r1_g68_h155_t80 -1 x_r1_g68 -1 x_r1_g155 >= -1 ;
1 p_r1_g74_h161_t80 -1 x_r1_g74 <= 0 ;
1 p_r1_g74_h161_t80 -1 x_r1_g161 <= 0 ;
1 p_r1_g74_h161_t80 -1 x_r1_g74 -1 x_r1_g161 >= -1 ;
1 p_r1_g76_h163_t80 -1 x_r1_g76 <= 0 ;
1 p_r1_g76_h163_t80 -1 x_r1_g163 <= 0 ;
1 p_r1_g76_h163_t80 -1 x_r1_g76 -1 x_r1_g163 >= -1 ;
1 p_r1_g109_h29_t80 -1 x_r1_g109 <= 0 ;
1 p_r1_g109_h29_t80 -1 x_r1_g29 <= 0 ;
1 p_r1_g109_h29_t80 -1 x_r1_g109 -1 x_r1_g29 >= -1 ;
1 p_r1_g141_h61_t80 -1 x_r1_g141 <= 0 ;
1 p_r1_g141_h61_t80 -1 x_r1_g61 <= 0 ;
1 p_r1_g141_h61_t80 -1 x_r1_g141 -1 x_r1_g61 >= -1 ;
1 p_r1_g148_h68_t80 -1 x_r1_g148 <= 0 ;
1 p_r1_g148_h68_t80 -1 x_r1_g68 <= 0 ;
1 p_r1_g148_h68_t80 -1 x_r1_g148 -1 x_r1_g68 >= -1 ;
1 p_r1_g162_h82_t80 -1 x_r1_g162 <= 0 ;
1 p_r1_g162_h82_t80 -1 x_r1_g82 <= 0 ;
1 p_r1_g162_h82_t80 -1 x_r1_g162 -1 x_r1_g82 >= -1 ;
1 p_r2_g32_h119_t80 -1 x_r2_g32 <= 0 ;
1 p_r2_g32_h119_t80 -1 x_r2_g119 <= 0 ;
1 p_r2_g32_h119_t80 -1 x_r2_g32 -1 x_r2_g119 >= -1 ;
1 p_r2_g52_h139_t80 -1 x_r2_g52 <= 0 ;
1 p_r2_g52_h139_t80 -1 x_r2_g139 <= 0 ;
1 p_r2_g52_h139_t80 -1 x_r2_g52 -1 x_r2_g139 >= -1 ;
1 p_r2_g74_h161_t80 -1 x_r2_g74 <= 0 ;
1 p_r2_g74_h161_t80 -1 x_r2_g161 <= 0 ;
1 p_r2_g74_h161_t80 -1 x_r2_g74 -1 x_r2_g161 >= -1 ;
1 p_r2_g93_h13_t80 -1 x_r2_g93 <= 0 ;
1 p_r2_g93_h13_t80 -1 x_r2_g13 <= 0 ;
1 p_r2_g93_h13_t80 -1 x_r2_g93 -1 x_r2_g13 >= -1 ;
1 p_r2_g101_h21_t80 -1 x_r2_g101 <= 0 ;
1 p_r2_g101_h21_t80 -1 x_r2_g21 <= 0 ;
1 p_r2_g101_h21_t80 -1 x_r2_g101 -1 x_r2_g21 >= -1 ;
1 p_r2_g112_h32_t80 -1 x_r2_g112 <= 0 ;
1 p_r2_g112_h32_t80 -1 x_r2_g32 <= 0 ;
1 p_r2_g112_h32_t80 -1 x_r2_g112 -1 x_r2_g32 >= -1 ;
1 p_r2_g133_h53_t80 -1 x_r2_g133 <= 0 ;
1 p_r2_g133_h53_t80 -1 x_r2_g53 <= 0 ;
1 p_r2_g133_h53_t80 -1 x_r2_g133 -1 x_r2_g53 >= -1 ;
1 p_r2_g141_h61_t80 -1 x_r2_g141 <= 0 ;
1 p_r2_g141_h61_t80 -1 x_r2_g61 <= 0 ;
1 p_r2_g141_h61_t80 -1 x_r2_g141 -1 x_r2_g61 >= -1 ;
1 p_r3_g31_h118_t80 -1 x_r3_g31 <= 0 ;
1 p_r3_g31_h118_t80 -1 x_r3_g118 <= 0 ;
1 p_r3_g31_h118_t80 -1 x_r3_g31 -1 x_r3_g118 >= -1 ;
1 p_r3_g38_h125_t80 -1 x_r3_g38 <= 0 ;
1 p_r3_g38_h125_t80 -1 x_r3_g125 <= 0 ;
1 p_r3_g38_h125_t80 -1 x_r3_g38 -1 x_r3_g125 >= -1 ;
1 p_r3_g62_h149_t80 -1 x_r3_g62 <= 0 ;
1 p_r3_g62_h149_t80 -1 x_r3_g149 <= 0 ;
1 p_r3_g62_h149_t80 -1 x_r3_g62 -1 x_r3_g149 >= -1 ;
1 p_r3_g66_h153_t80 -1 x_r3_g66 <= 0 ;
1 p_r3_g66_h153_t80 -1 x_r3_g153 <= 0 ;
1 p_r3_g66_h153_t80 -1 x_r3_g66 -1 x_r3_g153 >= -1 ;
1 p_r3_g69_h156_t80 -1 x_r3_g69 <= 0 ;
1 p_r3_g69_h156_t80 -1 x_r3_g156 <= 0 ;
1 p_r3_g69_h156_t80 -1 x_r3_g69 -1 x_r3_g156 >= -1 ;
1 p_r3_g118_h38_t80 -1 x_r3_g118 <= 0 ;
1 p_r3_g118_h38_t80 -1 x_r3_g38 <= 0 ;
1 p_r3_g118_h38_t80 -1 x_r3_g118 -1 x_r3_g38 >= -1 ;
1 p_r3_g149_h69_t80 -1 x_r3_g149 <= 0 ;
1 p_r3_g149_h69_t80 -1 x_r3_g69 <= 0 ;
1 p_r3_g149_h69_t80 -1 x_r3_g149 -1 x_r3_g69 >= -1 ;
1 p_r3_g153_h73_t80 -1 x_r3_g153 <= 0 ;
1 p_r3_g153_h73_t80 -1 x_r3_g73 <= 0 ;
1 p_r3_g153_h73_t80 -1 x_r3_g153 -1 x_r3_g73 >= -1 ;
1 d_80 -1 x_r0_g1 -1 x_r0_g11 -1 x_r0_g15 -1 x_r0_g24 -1 x_r0_g47 -1 x_r0_g57 -1 x_r0_g65 -1 x_r0_g69 -1 x_r0_g72 -1 x_r0_g85 -2 x_r0_g93 -1 x_r0_g112 -1 x_r0_g124 -1 x_r0_g126 -2 x_r0_g135 -1 x_r0_g136 -2 x_r0_g142 -1 x_r0_g143 -1 x_r0_g146 -2 x_r0_g150 -1 x_r1_g1 -1 x_r1_g21 -1 x_r1_g23 -1 x_r1_g34 -1 x_r1_g36 -2 x_r1_g43 -1 x_r1_g48 -1 x_r1_g50 -1 x_r1_g60 -1 x_r1_g69 -1 x_r1_g74 -1 x_r1_g76 -2 x_r1_g77 -1 x_r1_g84 -2 x_r1_g98 -2 x_r1_g124 -1 x_r1_g129 -1 x_r1_g145 -1 x_r1_g161 -1 x_r2_g15 -1 x_r2_g27 -1 x_r2_g30 -2 x_r2_g34 -2 x_r2_g35 -2 x_r2_g40 -1 x_r2_g45 -1 x_r2_g52 -1 x_r2_g53 -1 x_r2_g61 -2 x_r2_g73 -1 x_r2_g83 -1 x_r2_g85 -1 x_r2_g91 -1 x_r2_g101 -2 x_r2_g105 -1 x_r2_g106 -1 x_r2_g111 -1 x_r2_g112 -1 x_r2_g118 -1 x_r2_g119 -1 x_r2_g130 -1 x_r2_g133 -1 x_r2_g135 -1 x_r2_g147 -2 x_r2_g162 -1 x_r3_g21 -1 x_r3_g23 -1 x_r3_g24 -1 x_r3_g25 -1 x_r3_g26 -1 x_r3_g31 -1 x_r3_g39 -2 x_r3_g42 -1 x_r3_g51 -1 x_r3_g53 -1 x_r3_g60 -1 x_r3_g62 -1 x_r3_g66 -1 x_r3_g68 -1 x_r3_g73 -1 x_r3_g83 -2 x_r3_g89 -1 x_r3_g96 -2 x_r3_g100 -2 x_r3_g117 -1 x_r3_g124 -1 x_r3_g125 -1 x_r3_g154 -1 x_r3_g156 -1 x_r3_g158 -2 x_r3_g161 -1 x_r3_g166 -1 p_r0_g4_h91_t80 -1 p_r0_g19_h106_t80 -1 p_r0_g39_h126_t80 -1 p_r0_g56_h143_t80 -1 p_r0_g72_h159_t80 -1 p_r0_g85_h5_t80 -1 p_r0_g91_h11_t80 -1 p_r0_g119_h39_t80 -1 p_r0_g136_h56_t80 -1 p_r0_g146_h66_t80 -1 p_r0_g159_h79_t80 -1 p_r1_g1_h88_t80 -1 p_r1_g40_h127_t80 -1 p_r1_g42_h129_t80 -1 p_r1_g61_h148_t80 -1 p_r1_g68_h155_t80 -1 p_r1_g74_h161_t80 -1 p_r1_g76_h163_t80 -1 p_r1_g109_h29_t80 -1 p_r1_g141_h61_t80 -1 p_r1_g148_h68_t80 -1 p_r1_g162_h82_t80 -1 p_r2_g32_h119_t80 -1 p_r2_g52_h139_t80 -1 p_r2_g74_h161_t80 -1 p_r2_g93_h13_t80 -1 p_r2_g101_h21_t80 -1 p_r2_g112_h32_t80 -1 p_r2_g133_h53_t80 -1 p_r2_g141_h61_t80 -1 p_r3_g31_h118_t80 -1 p_r3_g38_h125_t80 -1 p_r3_g62_h149_t80 -1 p_r3_g66_h153_t80 -1 p_r3_g69_h156_t80 -1 p_r3_g118_h38_t80 -1 p_r3_g149_h69_t80 -1 p_r3_g153_h73_t80 = -56 ;
1 d_80 -1 u_80 <= 0 ;
-1 d_80 -1 u_80 <= 0 ;
1 u_80 -1 M <= 0 ;
1 u_80 <= 1 ;
1 M <= 2 ;
1 F -1 x_r0_g1 -1 x_r0_g4 -1 x_r0_g24 -1 x_r0_g39 -1 x_r0_g53 -1 x_r0_g56 -1 x_r0_g57 -1 x_r0_g66 -1 x_r0_g69 -1 x_r0_g72 -1 x_r0_g79 -1 x_r0_g85 -1 x_r0_g89 -1 x_r0_g93 -1 x_r0_g106 -1 x_r0_g108 -1 x_r0_g112 -1 x_r0_g124 -1 x_r0_g135 -1 x_r0_g150 -1 x_r1_g5 -1 x_r1_g6 -1 x_r1_g21 -1 x_r1_g23 -1 x_r1_g34 -1 x_r1_g43 -1 x_r1_g48 -1 x_r1_g50 -1 x_r1_g60 -1 x_r1_g61 -1 x_r1_g74 -1 x_r1_g76 -1 x_r1_g77 -1 x_r1_g99 -1 x_r1_g104 -1 x_r1_g129 -1 x_r1_g145 -1 x_r1_g148 -1 x_r1_g161 -1 x_r1_g162 -1 x_r2_g13 -1 x_r2_g15 -1 x_r2_g32 -1 x_r2_g35 -1 x_r2_g40 -1 x_r2_g51 -1 x_r2_g52 -1 x_r2_g53 -1 x_r2_g73 -1 x_r2_g91 -1 x_r2_g93 -1 x_r2_g103 -1 x_r2_g106 -1 x_r2_g111 -1 x_r2_g118 -1 x_r2_g124 -1 x_r2_g133 -1 x_r2_g135 -1 x_r2_g147 -1 x_r2_g162 -1 x_r3_g21 -1 x_r3_g24 -1 x_r3_g25 -1 x_r3_g31 -1 x_r3_g34 -1 x_r3_g42 -1 x_r3_g51 -1 x_r3_g60 -1 x_r3_g69 -1 x_r3_g73 -1 x_r3_g87 -1 x_r3_g90 -1 x_r3_g96 -1 x_r3_g100 -1 x_r3_g117 -1 x_r3_g125 -1 x_r3_g153 -1 x_r3_g156 -1 x_r3_g158 -1 x_r3_g161 1 x_r0_g5 1 x_r0_g7 1 x_r0_g11 1 x_r0_g12 1 x_r0_g15 1 x_r0_g19 1 x_r0_g34 1 x_r0_g47 1 x_r0_g65 1 x_r0_g74 1 x_r0_g91 1 x_r0_g103 1 x_r0_g119 1 x_r0_g126 1 x_r0_g136 1 x_r0_g142 1 x_r0_g143 1 x_r0_g146 1 x_r0_g159 1 x_r0_g163 1 x_r1_g1 1 x_r1_g29 1 x_r1_g36 1 x_r1_g40 1 x_r1_g42 1 x_r1_g56 1 x_r1_g64 1 x_r1_g68 1 x_r1_g69 1 x_r1_g82 1 x_r1_g84 1 x_r1_g88 1 x_r1_g98 1 x_r1_g109 1 x_r1_g124 1 x_r1_g127 1 x_r1_g138 1 x_r1_g141 1 x_r1_g155 1 x_r1_g163 1 x_r2_g21 1 x_r2_g27 1 x_r2_g30 1 x_r2_g34 1 x_r2_g45 1 x_r2_g58 1 x_r2_g61 1 x_r2_g74 1 x_r2_g83 1 x_r2_g85 1 x_r2_g101 1 x_r2_g104 1 x_r2_g105 1 x_r2_g112 1 x_r2_g119 1 x_r2_g130 1 x_r2_g139 1 x_r2_g141 1 x_r2_g157 1 x_r2_g161 1 x_r3_g5 1 x_r3_g17 1 x_r3_g22 1 x_r3_g23 1 x_r3_g26 1 x_r3_g38 1 x_r3_g39 1 x_r3_g53 1 x_r3_g62 1 x_r3_g66 1 x_r3_g68 1 x_r3_g83 1 x_r3_g89 1 x_r3_g118 1 x_r3_g124 1 x_r3_g137 1 x_r3_g149 1 x_r3_g151 1 x_r3_g154 1 x_r3_g166 = 80 ;
1 F <= 4 ;
