* #variable= 651 #constraint= 1463
* int d_5 d_12 d_27 d_29 d_34 d_36 d_40 d_42 d_44 d_67 d_75 d_80 u_5 u_12 u_27 u_29 u_34 u_36 u_40 u_42 u_44 u_67 u_75 u_80 M F ;
min: 1 M ;
1 x_r0_g5 1 x_r0_g7 1 x_r0_g11 1 x_r0_g12 1 x_r0_g15 1 x_r0_g17 1 x_r0_g19 1 x_r0_g24 1 x_r0_g30 1 x_r0_g31 1 x_r0_g34 1 x_r0_g35 1 x_r0_g38 1 x_r0_g39 1 x_r0_g47 1 x_r0_g53 1 x_r0_g55 1 x_r0_g56 1 x_r0_g57 1 x_r0_g60 1 x_r0_g74 1 x_r0_g79 1 x_r0_g85 1 x_r0_g90 1 x_r0_g91 1 x_r0_g93 1 x_r0_g103 1 x_r0_g108 1 x_r0_g119 1 x_r0_g121 1 x_r0_g124 1 x_r0_g125 1 x_r0_g135 1 x_r0_g142 1 x_r0_g143 1 x_r0_g144 1 x_r0_g148 1 x_r0_g154 1 x_r0_g159 1 x_r0_g163 = 20 ;
1 x_r1_g6 1 x_r1_g8 1 x_r1_g21 1 x_r1_g22 1 x_r1_g23 1 x_r1_g26 1 x_r1_g29 1 x_r1_g34 1 x_r1_g35 1 x_r1_g38 1 x_r1_g39 1 x_r1_g40 1 x_r1_g42 1 x_r1_g45 1 x_r1_g48 1 x_r1_g50 1 x_r1_g61 1 x_r1_g64 1 x_r1_g68 1 x_r1_g69 1 x_r1_g74 1 x_r1_g77 1 x_r1_g80 1 x_r1_g82 1 x_r1_g85 1 x_r1_g88 1 x_r1_g99 1 x_r1_g121 1 x_r1_g124 1 x_r1_g127 1 x_r1_g128 1 x_r1_g129 1 x_r1_g130 1 x_r1_g138 1 x_r1_g141 1 x_r1_g144 1 x_r1_g155 1 x_r1_g161 1 x_r1_g162 1 x_r1_g163 = 20 ;
1 x_r2_g1 1 x_r2_g4 1 x_r2_g15 1 x_r2_g20 1 x_r2_g21 1 x_r2_g32 1 x_r2_g34 1 x_r2_g35 1 x_r2_g44 1 x_r2_g51 1 x_r2_g52 1 x_r2_g53 1 x_r2_g55 1 x_r2_g58 1 x_r2_g59 1 x_r2_g73 1 x_r2_g74 1 x_r2_g75 1 x_r2_g83 1 x_r2_g85 1 x_r2_g86 1 x_r2_g90 1 x_r2_g95 1 x_r2_g101 1 x_r2_g104 1 x_r2_g106 1 x_r2_g112 1 x_r2_g117 1 x_r2_g121 1 x_r2_g124 1 x_r2_g130 1 x_r2_g133 1 x_r2_g135 1 x_r2_g141 1 x_r2_g146 1 x_r2_g147 1 x_r2_g155 1 x_r2_g157 1 x_r2_g161 1 x_r2_g162 = 20 ;
1 x_r3_g1 1 x_r3_g2 1 x_r3_g5 1 x_r3_g7 1 x_r3_g9 1 x_r3_g17 1 x_r3_g20 1 x_r3_g21 1 x_r3_g22 1 x_r3_g25 1 x_r3_g26 1 x_r3_g31 1 x_r3_g33 1 x_r3_g39 1 x_r3_g42 1 x_r3_g44 1 x_r3_g45 1 x_r3_g49 1 x_r3_g51 1 x_r3_g52 1 x_r3_g53 1 x_r3_g59 1 x_r3_g60 1 x_r3_g62 1 x_r3_g64 1 x_r3_g66 1 x_r3_g68 1 x_r3_g69 1 x_r3_g71 1 x_r3_g73 1 x_r3_g77 1 x_r3_g83 1 x_r3_g117 1 x_r3_g118 1 x_r3_g122 1 x_r3_g132 1 x_r3_g141 1 x_r3_g156 1 x_r3_g161 1 x_r3_g166 = 20 ;
1 p_r0_g12_h7_t5 -1 x_r0_g12 <= 0 ;
1 p_r0_g12_h7_t5 -1 x_r0_g7 <= 0 ;
1 p_r0_g12_h7_t5 -1 x_r0_g12 -1 x_r0_g7 >= -1 ;
1 p_r0_g17_h12_t5 -1 x_r0_g17 <= 0 ;
1 p_r0_g17_h12_t5 -1 x_r0_g12 <= 0 ;
1 p_r0_g17_h12_t5 -1 x_r0_g17 -1 x_r0_g12 >= -1 ;
1 p_r0_g24_h19_t5 -1 x_r0_g24 <= 0 ;
1 p_r0_g24_h19_t5 -1 x_r0_g19 <= 0 ;
1 p_r0_g24_h19_t5 -1 x_r0_g24 -1 x_r0_g19 >= -1 ;
1 p_r0_g35_h30_t5 -1 x_r0_g35 <= 0 ;
1 p_r0_g35_h30_t5 -1 x_r0_g30 <= 0 ;
1 p_r0_g35_h30_t5 -1 x_r0_g35 -1 x_r0_g30 >= -1 ;
1 p_r0_g39_h34_t5 -1 x_r0_g39 <= 0 ;
1 p_r0_g39_h34_t5 -1 x_r0_g34 <= 0 ;
1 p_r0_g39_h34_t5 -1 x_r0_g39 -1 x_r0_g34 >= -1 ;
1 p_r0_g60_h55_t5 -1 x_r0_g60 <= 0 ;
1 p_r0_g60_h55_t5 -1 x_r0_g55 <= 0 ;
1 p_r0_g60_h55_t5 -1 x_r0_g60 -1 x_r0_g55 >= -1 ;
1 p_r0_g79_h74_t5 -1 x_r0_g79 <= 0 ;
1 p_r0_g79_h74_t5 -1 x_r0_g74 <= 0 ;
1 p_r0_g79_h74_t5 -1 x_r0_g79 -1 x_r0_g74 >= -1 ;
1 p_r0_g90_h85_t5 -1 x_r0_g90 <= 0 ;
1 p_r0_g90_h85_t5 -1 x_r0_g85 <= 0 ;
1 p_r0_g90_h85_t5 -1 x_r0_g90 -1 x_r0_g85 >= -1 ;
1 p_r0_g108_h103_t5 -1 x_r0_g108 <= 0 ;
1 p_r0_g108_h103_t5 -1 x_r0_g103 <= 0 ;
1 p_r0_g108_h103_t5 -1 x_r0_g108 -1 x_r0_g103 >= -1 ;
1 p_r0_g124_h119_t5 -1 x_r0_g124 <= 0 ;
1 p_r0_g124_h119_t5 -1 x_r0_g119 <= 0 ;
1 p_r0_g124_h119_t5 -1 x_r0_g124 -1 x_r0_g119 >= -1 ;
1 p_r0_g148_h143_t5 -1 x_r0_g148 <= 0 ;
1 p_r0_g148_h143_t5 -1 x_r0_g143 <= 0 ;
1 p_r0_g148_h143_t5 -1 x_r0_g148 -1 x_r0_g143 >= -1 ;
1 p_r0_g159_h154_t5 -1 x_r0_g159 <= 0 ;
1 p_r0_g159_h154_t5 -1 x_r0_g154 <= 0 ;
1 p_r0_g159_h154_t5 -1 x_r0_g159 -1 x_r0_g154 >= -1 ;
1 p_r1_g26_h21_t5 -1 x_r1_g26 <= 0 ;
1 p_r1_g26_h21_t5 -1 x_r1_g21 <= 0 ;
1 p_r1_g26_h21_t5 -1 x_r1_g26 -1 x_r1_g21 >= -1 ;
1 p_r1_g34_h29_t5 -1 x_r1_g34 <= 0 ;
1 p_r1_g34_h29_t5 -1 x_r1_g29 <= 0 ;
1 p_r1_g34_h29_t5 -1 x_r1_g34 -1 x_r1_g29 >= -1 ;
1 p_r1_g39_h34_t5 -1 x_r1_g39 <= 0 ;
1 p_r1_g39_h34_t5 -1 x_r1_g34 <= 0 ;
1 p_r1_g39_h34_t5 -1 x_r1_g39 -1 x_r1_g34 >= -1 ;
1 p_r1_g40_h35_t5 -1 x_r1_g40 <= 0 ;
1 p_r1_g40_h35_t5 -1 x_r1_g35 <= 0 ;
1 p_r1_g40_h35_t5 -1 x_r1_g40 -1 x_r1_g35 >= -1 ;
1 p_r1_g45_h40_t5 -1 x_r1_g45 <= 0 ;
1 p_r1_g45_h40_t5 -1 x_r1_g40 <= 0 ;
1 p_r1_g45_h40_t5 -1 x_r1_g45 -1 x_r1_g40 >= -1 ;
1 p_r1_g50_h45_t5 -1 x_r1_g50 <= 0 ;
1 p_r1_g50_h45_t5 -1 x_r1_g45 <= 0 ;
1 p_r1_g50_h45_t5 -1 x_r1_g50 -1 x_r1_g45 >= -1 ;
1 p_r1_g69_h64_t5 -1 x_r1_g69 <= 0 ;
1 p_r1_g69_h64_t5 -1 x_r1_g64 <= 0 ;
1 p_r1_g69_h64_t5 -1 x_r1_g69 -1 x_r1_g64 >= -1 ;
1 p_r1_g74_h69_t5 -1 x_r1_g74 <= 0 ;
1 p_r1_g74_h69_t5 -1 x_r1_g69 <= 0 ;
1 p_r1_g74_h69_t5 -1 x_r1_g74 -1 x_r1_g69 >= -1 ;
1 p_r1_g82_h77_t5 -1 x_r1_g82 <= 0 ;
1 p_r1_g82_h77_t5 -1 x_r1_g77 <= 0 ;
1 p_r1_g82_h77_t5 -1 x_r1_g82 -1 x_r1_g77 >= -1 ;
1 p_r1_g85_h80_t5 -1 x_r1_g85 <= 0 ;
1 p_r1_g85_h80_t5 -1 x_r1_g80 <= 0 ;
1 p_r1_g85_h80_t5 -1 x_r1_g85 -1 x_r1_g80 >= -1 ;
1 p_r1_g129_h124_t5 -1 x_r1_g129 <= 0 ;
1 p_r1_g129_h124_t5 -1 x_r1_g124 <= 0 ;
1 p_r1_g129_h124_t5 -1 x_r1_g129 -1 x_r1_g124 >= -1 ;
1 p_r2_g20_h15_t5 -1 x_r2_g20 <= 0 ;
1 p_r2_g20_h15_t5 -1 x_r2_g15 <= 0 ;
1 p_r2_g20_h15_t5 -1 x_r2_g20 -1 x_r2_g15 >= -1 ;
1 p_r2_g58_h53_t5 -1 x_r2_g58 <= 0 ;
1 p_r2_g58_h53_t5 -1 x_r2_g53 <= 0 ;
1 p_r2_g58_h53_t5 -1 x_r2_g58 -1 x_r2_g53 >= -1 ;
1 p_r2_g90_h85_t5 -1 x_r2_g90 <= 0 ;
1 p_r2_g90_h85_t5 -1 x_r2_g85 <= 0 ;
1 p_r2_g90_h85_t5 -1 x_r2_g90 -1 x_r2_g85 >= -1 ;
1 p_r2_g95_h90_t5 -1 x_r2_g95 <= 0 ;
1 p_r2_g95_h90_t5 -1 x_r2_g90 <= 0 ;
1 p_r2_g95_h90_t5 -1 x_r2_g95 -1 x_r2_g90 >= -1 ;
1 p_r2_g106_h101_t5 -1 x_r2_g106 <= 0 ;
1 p_r2_g106_h101_t5 -1 x_r2_g101 <= 0 ;
1 p_r2_g106_h101_t5 -1 x_r2_g106 -1 x_r2_g101 >= -1 ;
1 p_r2_g117_h112_t5 -1 x_r2_g117 <= 0 ;
1 p_r2_g117_h112_t5 -1 x_r2_g112 <= 0 ;
1 p_r2_g117_h112_t5 -1 x_r2_g117 -1 x_r2_g112 >= -1 ;
1 p_r2_g135_h130_t5 -1 x_r2_g135 <= 0 ;
1 p_r2_g135_h130_t5 -1 x_r2_g130 <= 0 ;
1 p_r2_g135_h130_t5 -1 x_r2_g135 -1 x_r2_g130 >= -1 ;
1 p_r2_g146_h141_t5 -1 x_r2_g146 <= 0 ;
1 p_r2_g146_h141_t5 -1 x_r2_g141 <= 0 ;
1 p_r2_g146_h141_t5 -1 x_r2_g146 -1 x_r2_g141 >= -1 ;
1 p_r2_g162_h157_t5 -1 x_r2_g162 <= 0 ;
1 p_r2_g162_h157_t5 -1 x_r2_g157 <= 0 ;
1 p_r2_g162_h157_t5 -1 x_r2_g162 -1 x_r2_g157 >= -1 ;
1 p_r3_g7_h2_t5 -1 x_r3_g7 <= 0 ;
1 p_r3_g7_h2_t5 -1 x_r3_g2 <= 0 ;
1 p_r3_g7_h2_t5 -1 x_r3_g7 -1 x_r3_g2 >= -1 ;
1 p_r3_g22_h17_t5 -1 x_r3_g22 <= 0 ;
1 p_r3_g22_h17_t5 -1 x_r3_g17 <= 0 ;
1 p_r3_g22_h17_t5 -1 x_r3_g22 -1 x_r3_g17 >= -1 ;
1 p_r3_g25_h20_t5 -1 x_r3_g25 <= 0 ;
1 p_r3_g25_h20_t5 -1 x_r3_g20 <= 0 ;
1 p_r3_g25_h20_t5 -1 x_r3_g25 -1 x_r3_g20 >= -1 ;
1 p_r3_g26_h21_t5 -1 x_r3_g26 <= 0 ;
1 p_r3_g26_h21_t5 -1 x_r3_g21 <= 0 ;
1 p_r3_g26_h21_t5 -1 x_r3_g26 -1 x_r3_g21 >= -1 ;
1 p_r3_g31_h26_t5 -1 x_r3_g31 <= 0 ;
1 p_r3_g31_h26_t5 -1 x_r3_g26 <= 0 ;
1 p_r3_g31_h26_t5 -1 x_r3_g31 -1 x_r3_g26 >= -1 ;
1 p_r3_g44_h39_t5 -1 x_r3_g44 <= 0 ;
1 p_r3_g44_h39_t5 -1 x_r3_g39 <= 0 ;
1 p_r3_g44_h39_t5 -1 x_r3_g44 -1 x_r3_g39 >= -1 ;
1 p_r3_g49_h44_t5 -1 x_r3_g49 <= 0 ;
1 p_r3_g49_h44_t5 -1 x_r3_g44 <= 0 ;
1 p_r3_g49_h44_t5 -1 x_r3_g49 -1 x_r3_g44 >= -1 ;
1 p_r3_g64_h59_t5 -1 x_r3_g64 <= 0 ;
1 p_r3_g64_h59_t5 -1 x_r3_g59 <= 0 ;
1 p_r3_g64_h59_t5 -1 x_r3_g64 -1 x_r3_g59 >= -1 ;
1 p_r3_g69_h64_t5 -1 x_r3_g69 <= 0 ;
1 p_r3_g69_h64_t5 -1 x_r3_g64 <= 0 ;
1 p_r3_g69_h64_t5 -1 x_r3_g69 -1 x_r3_g64 >= -1 ;
1 p_r3_g71_h66_t5 -1 x_r3_g71 <= 0 ;
1 p_r3_g71_h66_t5 -1 x_r3_g66 <= 0 ;
1 p_r3_g71_h66_t5 -1 x_r3_g71 -1 x_r3_g66 >= -1 ;
1 p_r3_g73_h68_t5 -1 x_r3_g73 <= 0 ;
1 p_r3_g73_h68_t5 -1 x_r3_g68 <= 0 ;
1 p_r3_g73_h68_t5 -1 x_r3_g73 -1 x_r3_g68 >= -1 ;
1 p_r3_g122_h117_t5 -1 x_r3_g122 <= 0 ;
1 p_r3_g122_h117_t5 -1 x_r3_g117 <= 0 ;
1 p_r3_g122_h117_t5 -1 x_r3_g122 -1 x_r3_g117 >= -1 ;
1 p_r3_g161_h156_t5 -1 x_r3_g161 <= 0 ;
1 p_r3_g161_h156_t5 -1 x_r3_g156 <= 0 ;
1 p_r3_g161_h156_t5 -1 x_r3_g161 -1 x_r3_g156 >= -1 ;
1 p_r3_g166_h161_t5 -1 x_r3_g166 <= 0 ;
1 p_r3_g166_h161_t5 -1 x_r3_g161 <= 0 ;
1 p_r3_g166_h161_t5 -1 x_r3_g166 -1 x_r3_g161 >= -1 ;
1 d_5 -1 x_r0_g11 -1 x_r0_g15 -1 x_r0_g19 -1 x_r0_g30 -1 x_r0_g31 -1 x_r0_g35 -1 x_r0_g38 -2 x_r0_g47 -2 x_r0_g53 -1 x_r0_g56 -2 x_r0_g57 -1 x_r0_g60 -2 x_r0_g93 -1 x_r0_g103 -1 x_r0_g108 -2 x_r0_g121 -1 x_r0_g125 -1 x_r0_g142 -2 x_r0_g144 -1 x_r0_g154 -1 x_r0_g163 -2 x_r1_g6 -1 x_r1_g8 -1 x_r1_g22 -1 x_r1_g23 -1 x_r1_g26 -1 x_r1_g39 -1 x_r1_g42 -1 x_r1_g48 -2 x_r1_g61 -1 x_r1_g74 -1 x_r1_g82 -1 x_r1_g85 -1 x_r1_g124 -1 x_r1_g127 -1 x_r1_g128 -1 x_r1_g141 -1 x_r1_g155 -2 x_r1_g161 -1 x_r1_g162 -1 x_r1_g163 -1 x_r2_g1 -1 x_r2_g20 -1 x_r2_g21 -1 x_r2_g32 -1 x_r2_g34 -1 x_r2_g35 -2 x_r2_g44 -2 x_r2_g51 -1 x_r2_g53 -1 x_r2_g55 -1 x_r2_g58 -1 x_r2_g59 -2 x_r2_g73 -1 x_r2_g75 -1 x_r2_g83 -1 x_r2_g85 -1 x_r2_g117 -2 x_r2_g121 -2 x_r2_g124 -1 x_r2_g133 -1 x_r2_g135 -1 x_r2_g141 -1 x_r2_g146 -1 x_r2_g147 -2 x_r2_g155 -1 x_r2_g157 -1 x_r2_g162 -2 x_r3_g1 -1 x_r3_g7 -1 x_r3_g9 -1 x_r3_g17 -1 x_r3_g22 -1 x_r3_g25 -1 x_r3_g31 -2 x_r3_g33 -2 x_r3_g42 -1 x_r3_g45 -1 x_r3_g51 -1 x_r3_g52 -2 x_r3_g60 -1 x_r3_g66 -1 x_r3_g69 -1 x_r3_g71 -1 x_r3_g73 -1 x_r3_g83 -1 x_r3_g117 -1 x_r3_g118 -1 x_r3_g122 -2 x_r3_g132 -1 x_r3_g141 -1 x_r3_g156 -1 x_r3_g166 -1 p_r0_g12_h7_t5 -1 p_r0_g17_h12_t5 -1 p_r0_g24_h19_t5 -1 p_r0_g35_h30_t5 -1 p_r0_g39_h34_t5 -1 p_r0_g60_h55_t5 -1 p_r0_g79_h74_t5 -1 p_r0_g90_h85_t5 -1 p_r0_g108_h103_t5 -1 p_r0_g124_h119_t5 -1 p_r0_g148_h143_t5 -1 p_r0_g159_h154_t5 -1 p_r1_g26_h21_t5 -1 p_r1_g34_h29_t5 -1 p_r1_g39_h34_t5 -1 p_r1_g40_h35_t5 -1 p_r1_g45_h40_t5 -1 p_r1_g50_h45_t5 -1 p_r1_g69_h64_t5 -1 p_r1_g74_h69_t5 -1 p_r1_g82_h77_t5 -1 p_r1_g85_h80_t5 -1 p_r1_g129_h124_t5 -1 p_r2_g20_h15_t5 -1 p_r2_g58_h53_t5 -1 p_r2_g90_h85_t5 -1 p_r2_g95_h90_t5 -1 p_r2_g106_h101_t5 -1 p_r2_g117_h112_t5 -1 p_r2_g135_h130_t5 -1 p_r2_g146_h141_t5 -1 p_r2_g162_h157_t5 -1 p_r3_g7_h2_t5 -1 p_r3_g22_h17_t5 -1 p_r3_g25_h20_t5 -1 p_r3_g26_h21_t5 -1 p_r3_g31_h26_t5 -1 p_r3_g44_h39_t5 -1 p_r3_g49_h44_t5 -1 p_r3_g64_h59_t5 -1 p_r3_g69_h64_t5 -1 p_r3_g71_h66_t5 -1 p_r3_g73_h68_t5 -1 p_r3_g122_h117_t5 -1 p_r3_g161_h156_t5 -1 p_r3_g166_h161_t5 = -49 ;
1 d_5 -1 u_5 <= 0 ;
-1 d_5 -1 u_5 <= 0 ;
1 u_5 -1 M <= 0 ;
1 u_5 <= 2 ;
1 p_r0_g17_h5_t12 -1 x_r0_g17 <= 0 ;
1 p_r0_g17_h5_t12 -1 x_r0_g5 <= 0 ;
1 p_r0_g17_h5_t12 -1 x_r0_g17 -1 x_r0_g5 >= -1 ;
1 p_r0_g19_h7_t12 -1 x_r0_g19 <= 0 ;
1 p_r0_g19_h7_t12 -1 x_r0_g7 <= 0 ;
1 p_r0_g19_h7_t12 -1 x_r0_g19 -1 x_r0_g7 >= -1 ;
1 p_r0_g24_h12_t12 -1 x_r0_g24 <= 0 ;
1 p_r0_g24_h12_t12 -1 x_r0_g12 <= 0 ;
1 p_r0_g24_h12_t12 -1 x_r0_g24 -1 x_r0_g12 >= -1 ;
1 p_r0_g31_h19_t12 -1 x_r0_g31 <= 0 ;
1 p_r0_g31_h19_t12 -1 x_r0_g19 <= 0 ;
1 p_r0_g31_h19_t12 -1 x_r0_g31 -1 x_r0_g19 >= -1 ;
1 p_r0_g47_h35_t12 -1 x_r0_g47 <= 0 ;
1 p_r0_g47_h35_t12 -1 x_r0_g35 <= 0 ;
1 p_r0_g47_h35_t12 -1 x_r0_g47 -1 x_r0_g35 >= -1 ;
1 p_r0_g91_h79_t12 -1 x_r0_g91 <= 0 ;
1 p_r0_g91_h79_t12 -1 x_r0_g79 <= 0 ;
1 p_r0_g91_h79_t12 -1 x_r0_g91 -1 x_r0_g79 >= -1 ;
1 p_r0_g103_h91_t12 -1 x_r0_g103 <= 0 ;
1 p_r0_g103_h91_t12 -1 x_r0_g91 <= 0 ;
1 p_r0_g103_h91_t12 -1 x_r0_g103 -1 x_r0_g91 >= -1 ;
1 p_r0_g154_h142_t12 -1 x_r0_g154 <= 0 ;
1 p_r0_g154_h142_t12 -1 x_r0_g142 <= 0 ;
1 p_r0_g154_h142_t12 -1 x_r0_g154 -1 x_r0_g142 >= -1 ;
1 p_r1_g6_h161_t12 -1 x_r1_g6 <= 0 ;
1 p_r1_g6_h161_t12 -1 x_r1_g161 <= 0 ;
1 p_r1_g6_h161_t12 -1 x_r1_g6 -1 x_r1_g161 >= -1 ;
1 p_r1_g8_h163_t12 -1 x_r1_g8 <= 0 ;
1 p_r1_g8_h163_t12 -1 x_r1_g163 <= 0 ;
1 p_r1_g8_h163_t12 -1 x_r1_g8 -1 x_r1_g163 >= -1 ;
1 p_r1_g34_h22_t12 -1 x_r1_g34 <= 0 ;
1 p_r1_g34_h22_t12 -1 x_r1_g22 <= 0 ;
1 p_r1_g34_h22_t12 -1 x_r1_g34 -1 x_r1_g22 >= -1 ;
1 p_r1_g35_h23_t12 -1 x_r1_g35 <= 0 ;
1 p_r1_g35_h23_t12 -1 x_r1_g23 <= 0 ;
1 p_r1_g35_h23_t12 -1 x_r1_g35 -1 x_r1_g23 >= -1 ;
1 p_r1_g38_h26_t12 -1 x_r1_g38 <= 0 ;
1 p_r1_g38_h26_t12 -1 x_r1_g26 <= 0 ;
1 p_r1_g38_h26_t12 -1 x_r1_g38 -1 x_r1_g26 >= -1 ;
1 p_r1_g50_h38_t12 -1 x_r1_g50 <= 0 ;
1 p_r1_g50_h38_t12 -1 x_r1_g38 <= 0 ;
1 p_r1_g50_h38_t12 -1 x_r1_g50 -1 x_r1_g38 >= -1 ;
1 p_r1_g80_h68_t12 -1 x_r1_g80 <= 0 ;
1 p_r1_g80_h68_t12 -1 x_r1_g68 <= 0 ;
1 p_r1_g80_h68_t12 -1 x_r1_g80 -1 x_r1_g68 >= -1 ;
1 p_r1_g141_h129_t12 -1 x_r1_g141 <= 0 ;
1 p_r1_g141_h129_t12 -1 x_r1_g129 <= 0 ;
1 p_r1_g141_h129_t12 -1 x_r1_g141 -1 x_r1_g129 >= -1 ;
1 p_r2_g32_h20_t12 -1 x_r2_g32 <= 0 ;
1 p_r2_g32_h20_t12 -1 x_r2_g20 <= 0 ;
1 p_r2_g32_h20_t12 -1 x_r2_g32 -1 x_r2_g20 >= -1 ;
1 p_r2_g44_h32_t12 -1 x_r2_g44 <= 0 ;
1 p_r2_g44_h32_t12 -1 x_r2_g32 <= 0 ;
1 p_r2_g44_h32_t12 -1 x_r2_g44 -1 x_r2_g32 >= -1 ;
1 p_r2_g85_h73_t12 -1 x_r2_g85 <= 0 ;
1 p_r2_g85_h73_t12 -1 x_r2_g73 <= 0 ;
1 p_r2_g85_h73_t12 -1 x_r2_g85 -1 x_r2_g73 >= -1 ;
1 p_r2_g86_h74_t12 -1 x_r2_g86 <= 0 ;
1 p_r2_g86_h74_t12 -1 x_r2_g74 <= 0 ;
1 p_r2_g86_h74_t12 -1 x_r2_g86 -1 x_r2_g74 >= -1 ;
1 p_r2_g95_h83_t12 -1 x_r2_g95 <= 0 ;
1 p_r2_g95_h83_t12 -1 x_r2_g83 <= 0 ;
1 p_r2_g95_h83_t12 -1 x_r2_g95 -1 x_r2_g83 >= -1 ;
1 p_r2_g124_h112_t12 -1 x_r2_g124 <= 0 ;
1 p_r2_g124_h112_t12 -1 x_r2_g112 <= 0 ;
1 p_r2_g124_h112_t12 -1 x_r2_g124 -1 x_r2_g112 >= -1 ;
1 p_r2_g133_h121_t12 -1 x_r2_g133 <= 0 ;
1 p_r2_g133_h121_t12 -1 x_r2_g121 <= 0 ;
1 p_r2_g133_h121_t12 -1 x_r2_g133 -1 x_r2_g121 >= -1 ;
1 p_r2_g147_h135_t12 -1 x_r2_g147 <= 0 ;
1 p_r2_g147_h135_t12 -1 x_r2_g135 <= 0 ;
1 p_r2_g147_h135_t12 -1 x_r2_g147 -1 x_r2_g135 >= -1 ;
1 p_r3_g1_h156_t12 -1 x_r3_g1 <= 0 ;
1 p_r3_g1_h156_t12 -1 x_r3_g156 <= 0 ;
1 p_r3_g1_h156_t12 -1 x_r3_g1 -1 x_r3_g156 >= -1 ;
1 p_r3_g17_h5_t12 -1 x_r3_g17 <= 0 ;
1 p_r3_g17_h5_t12 -1 x_r3_g5 <= 0 ;
1 p_r3_g17_h5_t12 -1 x_r3_g17 -1 x_r3_g5 >= -1 ;
1 p_r3_g21_h9_t12 -1 x_r3_g21 <= 0 ;
1 p_r3_g21_h9_t12 -1 x_r3_g9 <= 0 ;
1 p_r3_g21_h9_t12 -1 x_r3_g21 -1 x_r3_g9 >= -1 ;
1 p_r3_g33_h21_t12 -1 x_r3_g33 <= 0 ;
1 p_r3_g33_h21_t12 -1 x_r3_g21 <= 0 ;
1 p_r3_g33_h21_t12 -1 x_r3_g33 -1 x_r3_g21 >= -1 ;
1 p_r3_g45_h33_t12 -1 x_r3_g45 <= 0 ;
1 p_r3_g45_h33_t12 -1 x_r3_g33 <= 0 ;
1 p_r3_g45_h33_t12 -1 x_r3_g45 -1 x_r3_g33 >= -1 ;
1 p_r3_g51_h39_t12 -1 x_r3_g51 <= 0 ;
1 p_r3_g51_h39_t12 -1 x_r3_g39 <= 0 ;
1 p_r3_g51_h39_t12 -1 x_r3_g51 -1 x_r3_g39 >= -1 ;
1 p_r3_g64_h52_t12 -1 x_r3_g64 <= 0 ;
1 p_r3_g64_h52_t12 -1 x_r3_g52 <= 0 ;
1 p_r3_g64_h52_t12 -1 x_r3_g64 -1 x_r3_g52 >= -1 ;
1 p_r3_g71_h59_t12 -1 x_r3_g71 <= 0 ;
1 p_r3_g71_h59_t12 -1 x_r3_g59 <= 0 ;
1 p_r3_g71_h59_t12 -1 x_r3_g71 -1 x_r3_g59 >= -1 ;
1 p_r3_g83_h71_t12 -1 x_r3_g83 <= 0 ;
1 p_r3_g83_h71_t12 -1 x_r3_g71 <= 0 ;
1 p_r3_g83_h71_t12 -1 x_r3_g83 -1 x_r3_g71 >= -1 ;
1 d_12 -1 x_r0_g5 -1 x_r0_g15 -1 x_r0_g24 -1 x_r0_g30 -1 x_r0_g31 -1 x_r0_g34 -1 x_r0_g39 -1 x_r0_g47 -1 x_r0_g53 -2 x_r0_g55 -1 x_r0_g56 -1 x_r0_g57 -1 x_r0_g60 -1 x_r0_g74 -1 x_r0_g79 -1 x_r0_g90 -1 x_r0_g108 -1 x_r0_g119 -1 x_r0_g124 -2 x_r0_g125 -1 x_r0_g135 -2 x_r0_g143 -1 x_r0_g144 -2 x_r0_g148 -1 x_r0_g163 -1 x_r1_g6 -1 x_r1_g8 -1 x_r1_g22 -1 x_r1_g23 -1 x_r1_g34 -1 x_r1_g39 -1 x_r1_g45 -1 x_r1_g48 -1 x_r1_g50 -1 x_r1_g61 -1 x_r1_g68 -2 x_r1_g69 -1 x_r1_g74 -2 x_r1_g77 -1 x_r1_g82 -1 x_r1_g88 -1 x_r1_g99 -1 x_r1_g121 -1 x_r1_g124 -1 x_r1_g127 -1 x_r1_g128 -2 x_r1_g144 -1 x_r2_g15 -1 x_r2_g21 -1 x_r2_g34 -1 x_r2_g44 -2 x_r2_g51 -1 x_r2_g52 -2 x_r2_g53 -1 x_r2_g55 -1 x_r2_g58 -1 x_r2_g73 -1 x_r2_g75 -1 x_r2_g86 -2 x_r2_g90 -1 x_r2_g101 -1 x_r2_g104 -1 x_r2_g106 -2 x_r2_g117 -1 x_r2_g124 -2 x_r2_g141 -2 x_r2_g146 -1 x_r2_g155 -2 x_r2_g162 -1 x_r3_g1 -1 x_r3_g5 -2 x_r3_g7 -2 x_r3_g20 -2 x_r3_g25 -1 x_r3_g26 -2 x_r3_g31 -1 x_r3_g39 -1 x_r3_g42 -1 x_r3_g44 -2 x_r3_g49 -1 x_r3_g52 -2 x_r3_g53 -1 x_r3_g59 -1 x_r3_g62 -1 x_r3_g64 -1 x_r3_g66 -1 x_r3_g68 -1 x_r3_g69 -1 x_r3_g73 -2 x_r3_g77 -1 x_r3_g117 -1 x_r3_g118 -2 x_r3_g122 -1 x_r3_g132 -1 x_r3_g141 -1 x_r3_g156 -2 x_r3_g161 -1 x_r3_g166 -1 p_r0_g17_h5_t12 -1 p_r0_g19_h7_t12 -1 p_r0_g24_h12_t12 -1 p_r0_g31_h19_t12 -1 p_r0_g47_h35_t12 -1 p_r0_g91_h79_t12 -1 p_r0_g103_h91_t12 -1 p_r0_g154_h142_t12 -1 p_r1_g6_h161_t12 -1 p_r1_g8_h163_t12 -1 p_r1_g34_h22_t12 -1 p_r1_g35_h23_t12 -1 p_r1_g38_h26_t12 -1 p_r1_g50_h38_t12 -1 p_r1_g80_h68_t12 -1 p_r1_g141_h129_t12 -1 p_r2_g32_h20_t12 -1 p_r2_g44_h32_t12 -1 p_r2_g85_h73_t12 -1 p_r2_g86_h74_t12 -1 p_r2_g95_h83_t12 -1 p_r2_g124_h112_t12 -1 p_r2_g133_h121_t12 -1 p_r2_g147_h135_t12 -1 p_r3_g1_h156_t12 -1 p_r3_g17_h5_t12 -1 p_r3_g21_h9_t12 -1 p_r3_g33_h21_t12 -1 p_r3_g45_h33_t12 -1 p_r3_g51_h39_t12 -1 p_r3_g64_h52_t12 -1 p_r3_g71_h59_t12 -1 p_r3_g83_h71_t12 = -58 ;
1 d_12 -1 u_12 <= 0 ;
-1 d_12 -1 u_12 <= 0 ;
1 u_12 -1 M <= 0 ;
1 u_12 <= 1 ;
1 p_r0_g19_h159_t27 -1 x_r0_g19 <= 0 ;
1 p_r0_g19_h159_t27 -1 x_r0_g159 <= 0 ;
1 p_r0_g19_h159_t27 -1 x_r0_g19 -1 x_r0_g159 >= -1 ;
1 p_r0_g34_h7_t27 -1 x_r0_g34 <= 0 ;
1 p_r0_g34_h7_t27 -1 x_r0_g7 <= 0 ;
1 p_r0_g34_h7_t27 -1 x_r0_g34 -1 x_r0_g7 >= -1 ;
1 p_r0_g38_h11_t27 -1 x_r0_g38 <= 0 ;
1 p_r0_g38_h11_t27 -1 x_r0_g11 <= 0 ;
1 p_r0_g38_h11_t27 -1 x_r0_g38 -1 x_r0_g11 >= -1 ;
1 p_r0_g39_h12_t27 -1 x_r0_g39 <= 0 ;
1 p_r0_g39_h12_t27 -1 x_r0_g12 <= 0 ;
1 p_r0_g39_h12_t27 -1 x_r0_g39 -1 x_r0_g12 >= -1 ;
1 p_r0_g57_h30_t27 -1 x_r0_g57 <= 0 ;
1 p_r0_g57_h30_t27 -1 x_r0_g30 <= 0 ;
1 p_r0_g57_h30_t27 -1 x_r0_g57 -1 x_r0_g30 >= -1 ;
1 p_r0_g74_h47_t27 -1 x_r0_g74 <= 0 ;
1 p_r0_g74_h47_t27 -1 x_r0_g47 <= 0 ;
1 p_r0_g74_h47_t27 -1 x_r0_g74 -1 x_r0_g47 >= -1 ;
1 p_r0_g135_h108_t27 -1 x_r0_g135 <= 0 ;
1 p_r0_g135_h108_t27 -1 x_r0_g108 <= 0 ;
1 p_r0_g135_h108_t27 -1 x_r0_g135 -1 x_r0_g108 >= -1 ;
1 p_r0_g148_h121_t27 -1 x_r0_g148 <= 0 ;
1 p_r0_g148_h121_t27 -1 x_r0_g121 <= 0 ;
1 p_r0_g148_h121_t27 -1 x_r0_g148 -1 x_r0_g121 >= -1 ;
1 p_r1_g21_h161_t27 -1 x_r1_g21 <= 0 ;
1 p_r1_g21_h161_t27 -1 x_r1_g161 <= 0 ;
1 p_r1_g21_h161_t27 -1 x_r1_g21 -1 x_r1_g161 >= -1 ;
1 p_r1_g22_h162_t27 -1 x_r1_g22 <= 0 ;
1 p_r1_g22_h162_t27 -1 x_r1_g162 <= 0 ;
1 p_r1_g22_h162_t27 -1 x_r1_g22 -1 x_r1_g162 >= -1 ;
1 p_r1_g23_h163_t27 -1 x_r1_g23 <= 0 ;
1 p_r1_g23_h163_t27 -1 x_r1_g163 <= 0 ;
1 p_r1_g23_h163_t27 -1 x_r1_g23 -1 x_r1_g163 >= -1 ;
1 p_r1_g35_h8_t27 -1 x_r1_g35 <= 0 ;
1 p_r1_g35_h8_t27 -1 x_r1_g8 <= 0 ;
1 p_r1_g35_h8_t27 -1 x_r1_g35 -1 x_r1_g8 >= -1 ;
1 p_r1_g48_h21_t27 -1 x_r1_g48 <= 0 ;
1 p_r1_g48_h21_t27 -1 x_r1_g21 <= 0 ;
1 p_r1_g48_h21_t27 -1 x_r1_g48 -1 x_r1_g21 >= -1 ;
1 p_r1_g50_h23_t27 -1 x_r1_g50 <= 0 ;
1 p_r1_g50_h23_t27 -1 x_r1_g23 <= 0 ;
1 p_r1_g50_h23_t27 -1 x_r1_g50 -1 x_r1_g23 >= -1 ;
1 p_r1_g61_h34_t27 -1 x_r1_g61 <= 0 ;
1 p_r1_g61_h34_t27 -1 x_r1_g34 <= 0 ;
1 p_r1_g61_h34_t27 -1 x_r1_g61 -1 x_r1_g34 >= -1 ;
1 p_r1_g69_h42_t27 -1 x_r1_g69 <= 0 ;
1 p_r1_g69_h42_t27 -1 x_r1_g42 <= 0 ;
1 p_r1_g69_h42_t27 -1 x_r1_g69 -1 x_r1_g42 >= -1 ;
1 p_r1_g77_h50_t27 -1 x_r1_g77 <= 0 ;
1 p_r1_g77_h50_t27 -1 x_r1_g50 <= 0 ;
1 p_r1_g77_h50_t27 -1 x_r1_g77 -1 x_r1_g50 >= -1 ;
1 p_r1_g88_h61_t27 -1 x_r1_g88 <= 0 ;
1 p_r1_g88_h61_t27 -1 x_r1_g61 <= 0 ;
1 p_r1_g88_h61_t27 -1 x_r1_g88 -1 x_r1_g61 >= -1 ;
1 p_r1_g155_h128_t27 -1 x_r1_g155 <= 0 ;
1 p_r1_g155_h128_t27 -1 x_r1_g128 <= 0 ;
1 p_r1_g155_h128_t27 -1 x_r1_g155 -1 x_r1_g128 >= -1 ;
1 p_r2_g1_h141_t27 -1 x_r2_g1 <= 0 ;
1 p_r2_g1_h141_t27 -1 x_r2_g141 <= 0 ;
1 p_r2_g1_h141_t27 -1 x_r2_g1 -1 x_r2_g141 >= -1 ;
1 p_r2_g15_h155_t27 -1 x_r2_g15 <= 0 ;
1 p_r2_g15_h155_t27 -1 x_r2_g155 <= 0 ;
1 p_r2_g15_h155_t27 -1 x_r2_g15 -1 x_r2_g155 >= -1 ;
1 p_r2_g21_h161_t27 -1 x_r2_g21 <= 0 ;
1 p_r2_g21_h161_t27 -1 x_r2_g161 <= 0 ;
1 p_r2_g21_h161_t27 -1 x_r2_g21 -1 x_r2_g161 >= -1 ;
1 p_r2_g59_h32_t27 -1 x_r2_g59 <= 0 ;
1 p_r2_g59_h32_t27 -1 x_r2_g32 <= 0 ;
1 p_r2_g59_h32_t27 -1 x_r2_g59 -1 x_r2_g32 >= -1 ;
1 p_r2_g85_h58_t27 -1 x_r2_g85 <= 0 ;
1 p_r2_g85_h58_t27 -1 x_r2_g58 <= 0 ;
1 p_r2_g85_h58_t27 -1 x_r2_g85 -1 x_r2_g58 >= -1 ;
1 p_r2_g86_h59_t27 -1 x_r2_g86 <= 0 ;
1 p_r2_g86_h59_t27 -1 x_r2_g59 <= 0 ;
1 p_r2_g86_h59_t27 -1 x_r2_g86 -1 x_r2_g59 >= -1 ;
1 p_r2_g101_h74_t27 -1 x_r2_g101 <= 0 ;
1 p_r2_g101_h74_t27 -1 x_r2_g74 <= 0 ;
1 p_r2_g101_h74_t27 -1 x_r2_g101 -1 x_r2_g74 >= -1 ;
1 p_r2_g112_h85_t27 -1 x_r2_g112 <= 0 ;
1 p_r2_g112_h85_t27 -1 x_r2_g85 <= 0 ;
1 p_r2_g112_h85_t27 -1 x_r2_g112 -1 x_r2_g85 >= -1 ;
1 p_r2_g117_h90_t27 -1 x_r2_g117 <= 0 ;
1 p_r2_g117_h90_t27 -1 x_r2_g90 <= 0 ;
1 p_r2_g117_h90_t27 -1 x_r2_g117 -1 x_r2_g90 >= -1 ;
1 p_r2_g133_h106_t27 -1 x_r2_g133 <= 0 ;
1 p_r2_g133_h106_t27 -1 x_r2_g106 <= 0 ;
1 p_r2_g133_h106_t27 -1 x_r2_g133 -1 x_r2_g106 >= -1 ;
1 p_r2_g157_h130_t27 -1 x_r2_g157 <= 0 ;
1 p_r2_g157_h130_t27 -1 x_r2_g130 <= 0 ;
1 p_r2_g157_h130_t27 -1 x_r2_g157 -1 x_r2_g130 >= -1 ;
1 p_r2_g162_h135_t27 -1 x_r2_g162 <= 0 ;
1 p_r2_g162_h135_t27 -1 x_r2_g135 <= 0 ;
1 p_r2_g162_h135_t27 -1 x_r2_g162 -1 x_r2_g135 >= -1 ;
1 p_r3_g1_h141_t27 -1 x_r3_g1 <= 0 ;
1 p_r3_g1_h141_t27 -1 x_r3_g141 <= 0 ;
1 p_r3_g1_h141_t27 -1 x_r3_g1 -1 x_r3_g141 >= -1 ;
1 p_r3_g21_h161_t27 -1 x_r3_g21 <= 0 ;
1 p_r3_g21_h161_t27 -1 x_r3_g161 <= 0 ;
1 p_r3_g21_h161_t27 -1 x_r3_g21 -1 x_r3_g161 >= -1 ;
1 p_r3_g26_h166_t27 -1 x_r3_g26 <= 0 ;
1 p_r3_g26_h166_t27 -1 x_r3_g166 <= 0 ;
1 p_r3_g26_h166_t27 -1 x_r3_g26 -1 x_r3_g166 >= -1 ;
1 p_r3_g44_h17_t27 -1 x_r3_g44 <= 0 ;
1 p_r3_g44_h17_t27 -1 x_r3_g17 <= 0 ;
1 p_r3_g44_h17_t27 -1 x_r3_g44 -1 x_r3_g17 >= -1 ;
1 p_r3_g49_h22_t27 -1 x_r3_g49 <= 0 ;
1 p_r3_g49_h22_t27 -1 x_r3_g22 <= 0 ;
1 p_r3_g49_h22_t27 -1 x_r3_g49 -1 x_r3_g22 >= -1 ;
1 p_r3_g52_h25_t27 -1 x_r3_g52 <= 0 ;
1 p_r3_g52_h25_t27 -1 x_r3_g25 <= 0 ;
1 p_r3_g52_h25_t27 -1 x_r3_g52 -1 x_r3_g25 >= -1 ;
1 p_r3_g53_h26_t27 -1 x_r3_g53 <= 0 ;
1 p_r3_g53_h26_t27 -1 x_r3_g26 <= 0 ;
1 p_r3_g53_h26_t27 -1 x_r3_g53 -1 x_r3_g26 >= -1 ;
1 p_r3_g60_h33_t27 -1 x_r3_g60 <= 0 ;
1 p_r3_g60_h33_t27 -1 x_r3_g33 <= 0 ;
1 p_r3_g60_h33_t27 -1 x_r3_g60 -1 x_r3_g33 >= -1 ;
1 p_r3_g66_h39_t27 -1 x_r3_g66 <= 0 ;
1 p_r3_g66_h39_t27 -1 x_r3_g39 <= 0 ;
1 p_r3_g66_h39_t27 -1 x_r3_g66 -1 x_r3_g39 >= -1 ;
1 p_r3_g69_h42_t27 -1 x_r3_g69 <= 0 ;
1 p_r3_g69_h42_t27 -1 x_r3_g42 <= 0 ;
1 p_r3_g69_h42_t27 -1 x_r3_g69 -1 x_r3_g42 >= -1 ;
1 p_r3_g71_h44_t27 -1 x_r3_g71 <= 0 ;
1 p_r3_g71_h44_t27 -1 x_r3_g44 <= 0 ;
1 p_r3_g71_h44_t27 -1 x_r3_g71 -1 x_r3_g44 >= -1 ;
1 d_27 -1 x_r0_g11 -1 x_r0_g12 -2 x_r0_g15 -1 x_r0_g17 -1 x_r0_g19 -1 x_r0_g24 -1 x_r0_g30 -1 x_r0_g31 -1 x_r0_g35 -1 x_r0_g38 -1 x_r0_g47 -1 x_r0_g74 -1 x_r0_g79 -1 x_r0_g85 -1 x_r0_g90 -1 x_r0_g91 -1 x_r0_g93 -1 x_r0_g119 -1 x_r0_g124 -2 x_r0_g125 -2 x_r0_g143 -2 x_r0_g154 -1 x_r0_g159 -1 x_r0_g163 -1 x_r1_g6 -1 x_r1_g22 -2 x_r1_g26 -1 x_r1_g29 -1 x_r1_g35 -2 x_r1_g38 -1 x_r1_g39 -1 x_r1_g42 -1 x_r1_g45 -2 x_r1_g64 -1 x_r1_g68 -1 x_r1_g69 -2 x_r1_g80 -1 x_r1_g82 -1 x_r1_g85 -1 x_r1_g88 -2 x_r1_g127 -1 x_r1_g129 -2 x_r1_g130 -2 x_r1_g141 -1 x_r1_g155 -1 x_r2_g1 -1 x_r2_g4 -1 x_r2_g20 -1 x_r2_g21 -2 x_r2_g34 -1 x_r2_g51 -1 x_r2_g52 -2 x_r2_g53 -2 x_r2_g55 -1 x_r2_g58 -1 x_r2_g73 -2 x_r2_g75 -2 x_r2_g83 -1 x_r2_g86 -1 x_r2_g90 -2 x_r2_g95 -1 x_r2_g101 -1 x_r2_g112 -2 x_r2_g121 -1 x_r2_g124 -1 x_r2_g133 -1 x_r2_g141 -1 x_r2_g146 -2 x_r2_g147 -1 x_r2_g155 -1 x_r2_g161 -1 x_r3_g1 -1 x_r3_g2 -2 x_r3_g5 -2 x_r3_g9 -2 x_r3_g20 -1 x_r3_g22 -1 x_r3_g31 -1 x_r3_g33 -1 x_r3_g39 -1 x_r3_g45 -1 x_r3_g49 -1 x_r3_g51 -1 x_r3_g53 -2 x_r3_g59 -1 x_r3_g62 -1 x_r3_g64 -1 x_r3_g68 -1 x_r3_g71 -1 x_r3_g73 -1 x_r3_g83 -1 x_r3_g117 -1 x_r3_g118 -1 x_r3_g122 -1 x_r3_g156 -1 x_r3_g161 -1 x_r3_g166 -1 p_r0_g19_h159_t27 -1 p_r0_g34_h7_t27 -1 p_r0_g38_h11_t27 -1 p_r0_g39_h12_t27 -1 p_r0_g57_h30_t27 -1 p_r0_g74_h47_t27 -1 p_r0_g135_h108_t27 -1 p_r0_g148_h121_t27 -1 p_r1_g21_h161_t27 -1 p_r1_g22_h162_t27 -1 p_r1_g23_h163_t27 -1 p_r1_g35_h8_t27 -1 p_r1_g48_h21_t27 -1 p_r1_g50_h23_t27 -1 p_r1_g61_h34_t27 -1 p_r1_g69_h42_t27 -1 p_r1_g77_h50_t27 -1 p_r1_g88_h61_t27 -1 p_r1_g155_h128_t27 -1 p_r2_g1_h141_t27 -1 p_r2_g15_h155_t27 -1 p_r2_g21_h161_t27 -1 p_r2_g59_h32_t27 -1 p_r2_g85_h58_t27 -1 p_r2_g86_h59_t27 -1 p_r2_g101_h74_t27 -1 p_r2_g112_h85_t27 -1 p_r2_g117_h90_t27 -1 p_r2_g133_h106_t27 -1 p_r2_g157_h130_t27 -1 p_r2_g162_h135_t27 -1 p_r3_g1_h141_t27 -1 p_r3_g21_h161_t27 -1 p_r3_g26_h166_t27 -1 p_r3_g44_h17_t27 -1 p_r3_g49_h22_t27 -1 p_r3_g52_h25_t27 -1 p_r3_g53_h26_t27 -1 p_r3_g60_h33_t27 -1 p_r3_g66_h39_t27 -1 p_r3_g69_h42_t27 -1 p_r3_g71_h44_t27 = -92 ;
1 d_27 -1 u_27 <= 0 ;
-1 d_27 -1 u_27 <= 0 ;
1 u_27 -1 M <= 0 ;
1 u_27 <= 2 ;
1 p_r0_g5_h143_t29 -1 x_r0_g5 <= 0 ;
1 p_r0_g5_h143_t29 -1 x_r0_g143 <= 0 ;
1 p_r0_g5_h143_t29 -1 x_r0_g5 -1 x_r0_g143 >= -1 ;
1 p_r0_g34_h5_t29 -1 x_r0_g34 <= 0 ;
1 p_r0_g34_h5_t29 -1 x_r0_g5 <= 0 ;
1 p_r0_g34_h5_t29 -1 x_r0_g34 -1 x_r0_g5 >= -1 ;
1 p_r0_g53_h24_t29 -1 x_r0_g53 <= 0 ;
1 p_r0_g53_h24_t29 -1 x_r0_g24 <= 0 ;
1 p_r0_g53_h24_t29 -1 x_r0_g53 -1 x_r0_g24 >= -1 ;
1 p_r0_g60_h31_t29 -1 x_r0_g60 <= 0 ;
1 p_r0_g60_h31_t29 -1 x_r0_g31 <= 0 ;
1 p_r0_g60_h31_t29 -1 x_r0_g60 -1 x_r0_g31 >= -1 ;
1 p_r0_g85_h56_t29 -1 x_r0_g85 <= 0 ;
1 p_r0_g85_h56_t29 -1 x_r0_g56 <= 0 ;
1 p_r0_g85_h56_t29 -1 x_r0_g85 -1 x_r0_g56 >= -1 ;
1 p_r0_g103_h74_t29 -1 x_r0_g103 <= 0 ;
1 p_r0_g103_h74_t29 -1 x_r0_g74 <= 0 ;
1 p_r0_g103_h74_t29 -1 x_r0_g103 -1 x_r0_g74 >= -1 ;
1 p_r0_g108_h79_t29 -1 x_r0_g108 <= 0 ;
1 p_r0_g108_h79_t29 -1 x_r0_g79 <= 0 ;
1 p_r0_g108_h79_t29 -1 x_r0_g108 -1 x_r0_g79 >= -1 ;
1 p_r0_g119_h90_t29 -1 x_r0_g119 <= 0 ;
1 p_r0_g119_h90_t29 -1 x_r0_g90 <= 0 ;
1 p_r0_g119_h90_t29 -1 x_r0_g119 -1 x_r0_g90 >= -1 ;
1 p_r0_g148_h119_t29 -1 x_r0_g148 <= 0 ;
1 p_r0_g148_h119_t29 -1 x_r0_g119 <= 0 ;
1 p_r0_g148_h119_t29 -1 x_r0_g148 -1 x_r0_g119 >= -1 ;
1 p_r0_g154_h125_t29 -1 x_r0_g154 <= 0 ;
1 p_r0_g154_h125_t29 -1 x_r0_g125 <= 0 ;
1 p_r0_g154_h125_t29 -1 x_r0_g154 -1 x_r0_g125 >= -1 ;
1 p_r1_g6_h144_t29 -1 x_r1_g6 <= 0 ;
1 p_r1_g6_h144_t29 -1 x_r1_g144 <= 0 ;
1 p_r1_g6_h144_t29 -1 x_r1_g6 -1 x_r1_g144 >= -1 ;
1 p_r1_g23_h161_t29 -1 x_r1_g23 <= 0 ;
1 p_r1_g23_h161_t29 -1 x_r1_g161 <= 0 ;
1 p_r1_g23_h161_t29 -1 x_r1_g23 -1 x_r1_g161 >= -1 ;
1 p_r1_g35_h6_t29 -1 x_r1_g35 <= 0 ;
1 p_r1_g35_h6_t29 -1 x_r1_g6 <= 0 ;
1 p_r1_g35_h6_t29 -1 x_r1_g35 -1 x_r1_g6 >= -1 ;
1 p_r1_g50_h21_t29 -1 x_r1_g50 <= 0 ;
1 p_r1_g50_h21_t29 -1 x_r1_g21 <= 0 ;
1 p_r1_g50_h21_t29 -1 x_r1_g50 -1 x_r1_g21 >= -1 ;
1 p_r1_g64_h35_t29 -1 x_r1_g64 <= 0 ;
1 p_r1_g64_h35_t29 -1 x_r1_g35 <= 0 ;
1 p_r1_g64_h35_t29 -1 x_r1_g64 -1 x_r1_g35 >= -1 ;
1 p_r1_g68_h39_t29 -1 x_r1_g68 <= 0 ;
1 p_r1_g68_h39_t29 -1 x_r1_g39 <= 0 ;
1 p_r1_g68_h39_t29 -1 x_r1_g68 -1 x_r1_g39 >= -1 ;
1 p_r1_g69_h40_t29 -1 x_r1_g69 <= 0 ;
1 p_r1_g69_h40_t29 -1 x_r1_g40 <= 0 ;
1 p_r1_g69_h40_t29 -1 x_r1_g69 -1 x_r1_g40 >= -1 ;
1 p_r1_g74_h45_t29 -1 x_r1_g74 <= 0 ;
1 p_r1_g74_h45_t29 -1 x_r1_g45 <= 0 ;
1 p_r1_g74_h45_t29 -1 x_r1_g74 -1 x_r1_g45 >= -1 ;
1 p_r1_g77_h48_t29 -1 x_r1_g77 <= 0 ;
1 p_r1_g77_h48_t29 -1 x_r1_g48 <= 0 ;
1 p_r1_g77_h48_t29 -1 x_r1_g77 -1 x_r1_g48 >= -1 ;
1 p_r1_g128_h99_t29 -1 x_r1_g128 <= 0 ;
1 p_r1_g128_h99_t29 -1 x_r1_g99 <= 0 ;
1 p_r1_g128_h99_t29 -1 x_r1_g128 -1 x_r1_g99 >= -1 ;
1 p_r2_g44_h15_t29 -1 x_r2_g44 <= 0 ;
1 p_r2_g44_h15_t29 -1 x_r2_g15 <= 0 ;
1 p_r2_g44_h15_t29 -1 x_r2_g44 -1 x_r2_g15 >= -1 ;
1 p_r2_g73_h44_t29 -1 x_r2_g73 <= 0 ;
1 p_r2_g73_h44_t29 -1 x_r2_g44 <= 0 ;
1 p_r2_g73_h44_t29 -1 x_r2_g73 -1 x_r2_g44 >= -1 ;
1 p_r2_g104_h75_t29 -1 x_r2_g104 <= 0 ;
1 p_r2_g104_h75_t29 -1 x_r2_g75 <= 0 ;
1 p_r2_g104_h75_t29 -1 x_r2_g104 -1 x_r2_g75 >= -1 ;
1 p_r2_g112_h83_t29 -1 x_r2_g112 <= 0 ;
1 p_r2_g112_h83_t29 -1 x_r2_g83 <= 0 ;
1 p_r2_g112_h83_t29 -1 x_r2_g112 -1 x_r2_g83 >= -1 ;
1 p_r2_g124_h95_t29 -1 x_r2_g124 <= 0 ;
1 p_r2_g124_h95_t29 -1 x_r2_g95 <= 0 ;
1 p_r2_g124_h95_t29 -1 x_r2_g124 -1 x_r2_g95 >= -1 ;
1 p_r2_g130_h101_t29 -1 x_r2_g130 <= 0 ;
1 p_r2_g130_h101_t29 -1 x_r2_g101 <= 0 ;
1 p_r2_g130_h101_t29 -1 x_r2_g130 -1 x_r2_g101 >= -1 ;
1 p_r2_g133_h104_t29 -1 x_r2_g133 <= 0 ;
1 p_r2_g133_h104_t29 -1 x_r2_g104 <= 0 ;
1 p_r2_g133_h104_t29 -1 x_r2_g133 -1 x_r2_g104 >= -1 ;
1 p_r2_g135_h106_t29 -1 x_r2_g135 <= 0 ;
1 p_r2_g135_h106_t29 -1 x_r2_g106 <= 0 ;
1 p_r2_g135_h106_t29 -1 x_r2_g135 -1 x_r2_g106 >= -1 ;
1 p_r2_g141_h112_t29 -1 x_r2_g141 <= 0 ;
1 p_r2_g141_h112_t29 -1 x_r2_g112 <= 0 ;
1 p_r2_g141_h112_t29 -1 x_r2_g141 -1 x_r2_g112 >= -1 ;
1 p_r2_g146_h117_t29 -1 x_r2_g146 <= 0 ;
1 p_r2_g146_h117_t29 -1 x_r2_g117 <= 0 ;
1 p_r2_g146_h117_t29 -1 x_r2_g146 -1 x_r2_g117 >= -1 ;
1 p_r2_g162_h133_t29 -1 x_r2_g162 <= 0 ;
1 p_r2_g162_h133_t29 -1 x_r2_g133 <= 0 ;
1 p_r2_g162_h133_t29 -1 x_r2_g162 -1 x_r2_g133 >= -1 ;
1 p_r3_g31_h2_t29 -1 x_r3_g31 <= 0 ;
1 p_r3_g31_h2_t29 -1 x_r3_g2 <= 0 ;
1 p_r3_g31_h2_t29 -1 x_r3_g31 -1 x_r3_g2 >= -1 ;
1 p_r3_g49_h20_t29 -1 x_r3_g49 <= 0 ;
1 p_r3_g49_h20_t29 -1 x_r3_g20 <= 0 ;
1 p_r3_g49_h20_t29 -1 x_r3_g49 -1 x_r3_g20 >= -1 ;
1 p_r3_g51_h22_t29 -1 x_r3_g51 <= 0 ;
1 p_r3_g51_h22_t29 -1 x_r3_g22 <= 0 ;
1 p_r3_g51_h22_t29 -1 x_r3_g51 -1 x_r3_g22 >= -1 ;
1 p_r3_g60_h31_t29 -1 x_r3_g60 <= 0 ;
1 p_r3_g60_h31_t29 -1 x_r3_g31 <= 0 ;
1 p_r3_g60_h31_t29 -1 x_r3_g60 -1 x_r3_g31 >= -1 ;
1 p_r3_g62_h33_t29 -1 x_r3_g62 <= 0 ;
1 p_r3_g62_h33_t29 -1 x_r3_g33 <= 0 ;
1 p_r3_g62_h33_t29 -1 x_r3_g62 -1 x_r3_g33 >= -1 ;
1 p_r3_g68_h39_t29 -1 x_r3_g68 <= 0 ;
1 p_r3_g68_h39_t29 -1 x_r3_g39 <= 0 ;
1 p_r3_g68_h39_t29 -1 x_r3_g68 -1 x_r3_g39 >= -1 ;
1 p_r3_g71_h42_t29 -1 x_r3_g71 <= 0 ;
1 p_r3_g71_h42_t29 -1 x_r3_g42 <= 0 ;
1 p_r3_g71_h42_t29 -1 x_r3_g71 -1 x_r3_g42 >= -1 ;
1 p_r3_g73_h44_t29 -1 x_r3_g73 <= 0 ;
1 p_r3_g73_h44_t29 -1 x_r3_g44 <= 0 ;
1 p_r3_g73_h44_t29 -1 x_r3_g73 -1 x_r3_g44 >= -1 ;
1 p_r3_g161_h132_t29 -1 x_r3_g161 <= 0 ;
1 p_r3_g161_h132_t29 -1 x_r3_g132 <= 0 ;
1 p_r3_g161_h132_t29 -1 x_r3_g161 -1 x_r3_g132 >= -1 ;
1 d_29 -1 x_r0_g7 -2 x_r0_g11 -2 x_r0_g17 -2 x_r0_g19 -1 x_r0_g30 -1 x_r0_g34 -1 x_r0_g35 -1 x_r0_g38 -1 x_r0_g39 -1 x_r0_g74 -2 x_r0_g91 -1 x_r0_g93 -1 x_r0_g103 -1 x_r0_g108 -1 x_r0_g142 -1 x_r0_g144 -1 x_r0_g163 -2 x_r1_g8 -1 x_r1_g21 -1 x_r1_g22 -1 x_r1_g26 -1 x_r1_g39 -1 x_r1_g40 -1 x_r1_g50 -2 x_r1_g61 -1 x_r1_g69 -1 x_r1_g74 -1 x_r1_g80 -1 x_r1_g82 -2 x_r1_g85 -1 x_r1_g99 -1 x_r1_g124 -2 x_r1_g127 -1 x_r1_g128 -1 x_r1_g129 -1 x_r1_g130 -1 x_r1_g138 -2 x_r1_g141 -1 x_r1_g144 -1 x_r1_g161 -1 x_r1_g163 -2 x_r2_g1 -1 x_r2_g4 -1 x_r2_g15 -2 x_r2_g20 -1 x_r2_g32 -1 x_r2_g34 -1 x_r2_g35 -1 x_r2_g51 -1 x_r2_g53 -1 x_r2_g55 -1 x_r2_g59 -1 x_r2_g73 -1 x_r2_g74 -1 x_r2_g75 -2 x_r2_g85 -1 x_r2_g86 -2 x_r2_g90 -1 x_r2_g121 -1 x_r2_g124 -1 x_r2_g155 -1 x_r2_g157 -1 x_r2_g161 -2 x_r3_g1 -1 x_r3_g2 -1 x_r3_g5 -2 x_r3_g7 -1 x_r3_g9 -1 x_r3_g17 -1 x_r3_g22 -1 x_r3_g25 -1 x_r3_g26 -1 x_r3_g33 -1 x_r3_g42 -1 x_r3_g45 -1 x_r3_g49 -1 x_r3_g51 -2 x_r3_g52 -1 x_r3_g59 -1 x_r3_g60 -1 x_r3_g66 -2 x_r3_g69 -1 x_r3_g77 -1 x_r3_g83 -1 x_r3_g117 -1 x_r3_g118 -1 x_r3_g122 -1 x_r3_g141 -2 x_r3_g156 -1 x_r3_g161 -2 x_r3_g166 -1 p_r0_g5_h143_t29 -1 p_r0_g34_h5_t29 -1 p_r0_g53_h24_t29 -1 p_r0_g60_h31_t29 -1 p_r0_g85_h56_t29 -1 p_r0_g103_h74_t29 -1 p_r0_g108_h79_t29 -1 p_r0_g119_h90_t29 -1 p_r0_g148_h119_t29 -1 p_r0_g154_h125_t29 -1 p_r1_g6_h144_t29 -1 p_r1_g23_h161_t29 -1 p_r1_g35_h6_t29 -1 p_r1_g50_h21_t29 -1 p_r1_g64_h35_t29 -1 p_r1_g68_h39_t29 -1 p_r1_g69_h40_t29 -1 p_r1_g74_h45_t29 -1 p_r1_g77_h48_t29 -1 p_r1_g128_h99_t29 -1 p_r2_g44_h15_t29 -1 p_r2_g73_h44_t29 -1 p_r2_g104_h75_t29 -1 p_r2_g112_h83_t29 -1 p_r2_g124_h95_t29 -1 p_r2_g130_h101_t29 -1 p_r2_g133_h104_t29 -1 p_r2_g135_h106_t29 -1 p_r2_g141_h112_t29 -1 p_r2_g146_h117_t29 -1 p_r2_g162_h133_t29 -1 p_r3_g31_h2_t29 -1 p_r3_g49_h20_t29 -1 p_r3_g51_h22_t29 -1 p_r3_g60_h31_t29 -1 p_r3_g62_h33_t29 -1 p_r3_g68_h39_t29 -1 p_r3_g71_h42_t29 -1 p_r3_g73_h44_t29 -1 p_r3_g161_h132_t29 = -73 ;
1 d_29 -1 u_29 <= 0 ;
-1 d_29 -1 u_29 <= 0 ;
1 u_29 -1 M <= 0 ;
1 u_29 <= 1 ;
1 p_r0_g11_h144_t34 -1 x_r0_g11 <= 0 ;
1 p_r0_g11_h144_t34 -1 x_r0_g144 <= 0 ;
1 p_r0_g11_h144_t34 -1 x_r0_g11 -1 x_r0_g144 >= -1 ;
1 p_r0_g15_h148_t34 -1 x_r0_g15 <= 0 ;
1 p_r0_g15_h148_t34 -1 x_r0_g148 <= 0 ;
1 p_r0_g15_h148_t34 -1 x_r0_g15 -1 x_r0_g148 >= -1 ;
1 p_r0_g30_h163_t34 -1 x_r0_g30 <= 0 ;
1 p_r0_g30_h163_t34 -1 x_r0_g163 <= 0 ;
1 p_r0_g30_h163_t34 -1 x_r0_g30 -1 x_r0_g163 >= -1 ;
1 p_r0_g39_h5_t34 -1 x_r0_g39 <= 0 ;
1 p_r0_g39_h5_t34 -1 x_r0_g5 <= 0 ;
1 p_r0_g39_h5_t34 -1 x_r0_g39 -1 x_r0_g5 >= -1 ;
1 p_r0_g53_h19_t34 -1 x_r0_g53 <= 0 ;
1 p_r0_g53_h19_t34 -1 x_r0_g19 <= 0 ;
1 p_r0_g53_h19_t34 -1 x_r0_g53 -1 x_r0_g19 >= -1 ;
1 p_r0_g90_h56_t34 -1 x_r0_g90 <= 0 ;
1 p_r0_g90_h56_t34 -1 x_r0_g56 <= 0 ;
1 p_r0_g90_h56_t34 -1 x_r0_g90 -1 x_r0_g56 >= -1 ;
1 p_r0_g91_h57_t34 -1 x_r0_g91 <= 0 ;
1 p_r0_g91_h57_t34 -1 x_r0_g57 <= 0 ;
1 p_r0_g91_h57_t34 -1 x_r0_g91 -1 x_r0_g57 >= -1 ;
1 p_r0_g108_h74_t34 -1 x_r0_g108 <= 0 ;
1 p_r0_g108_h74_t34 -1 x_r0_g74 <= 0 ;
1 p_r0_g108_h74_t34 -1 x_r0_g108 -1 x_r0_g74 >= -1 ;
1 p_r0_g119_h85_t34 -1 x_r0_g119 <= 0 ;
1 p_r0_g119_h85_t34 -1 x_r0_g85 <= 0 ;
1 p_r0_g119_h85_t34 -1 x_r0_g119 -1 x_r0_g85 >= -1 ;
1 p_r0_g124_h90_t34 -1 x_r0_g124 <= 0 ;
1 p_r0_g124_h90_t34 -1 x_r0_g90 <= 0 ;
1 p_r0_g124_h90_t34 -1 x_r0_g124 -1 x_r0_g90 >= -1 ;
1 p_r0_g125_h91_t34 -1 x_r0_g125 <= 0 ;
1 p_r0_g125_h91_t34 -1 x_r0_g91 <= 0 ;
1 p_r0_g125_h91_t34 -1 x_r0_g125 -1 x_r0_g91 >= -1 ;
1 p_r0_g142_h108_t34 -1 x_r0_g142 <= 0 ;
1 p_r0_g142_h108_t34 -1 x_r0_g108 <= 0 ;
1 p_r0_g142_h108_t34 -1 x_r0_g142 -1 x_r0_g108 >= -1 ;
1 p_r0_g159_h125_t34 -1 x_r0_g159 <= 0 ;
1 p_r0_g159_h125_t34 -1 x_r0_g125 <= 0 ;
1 p_r0_g159_h125_t34 -1 x_r0_g159 -1 x_r0_g125 >= -1 ;
1 p_r1_g8_h141_t34 -1 x_r1_g8 <= 0 ;
1 p_r1_g8_h141_t34 -1 x_r1_g141 <= 0 ;
1 p_r1_g8_h141_t34 -1 x_r1_g8 -1 x_r1_g141 >= -1 ;
1 p_r1_g22_h155_t34 -1 x_r1_g22 <= 0 ;
1 p_r1_g22_h155_t34 -1 x_r1_g155 <= 0 ;
1 p_r1_g22_h155_t34 -1 x_r1_g22 -1 x_r1_g155 >= -1 ;
1 p_r1_g29_h162_t34 -1 x_r1_g29 <= 0 ;
1 p_r1_g29_h162_t34 -1 x_r1_g162 <= 0 ;
1 p_r1_g29_h162_t34 -1 x_r1_g29 -1 x_r1_g162 >= -1 ;
1 p_r1_g40_h6_t34 -1 x_r1_g40 <= 0 ;
1 p_r1_g40_h6_t34 -1 x_r1_g6 <= 0 ;
1 p_r1_g40_h6_t34 -1 x_r1_g40 -1 x_r1_g6 >= -1 ;
1 p_r1_g42_h8_t34 -1 x_r1_g42 <= 0 ;
1 p_r1_g42_h8_t34 -1 x_r1_g8 <= 0 ;
1 p_r1_g42_h8_t34 -1 x_r1_g42 -1 x_r1_g8 >= -1 ;
1 p_r1_g68_h34_t34 -1 x_r1_g68 <= 0 ;
1 p_r1_g68_h34_t34 -1 x_r1_g34 <= 0 ;
1 p_r1_g68_h34_t34 -1 x_r1_g68 -1 x_r1_g34 >= -1 ;
1 p_r1_g69_h35_t34 -1 x_r1_g69 <= 0 ;
1 p_r1_g69_h35_t34 -1 x_r1_g35 <= 0 ;
1 p_r1_g69_h35_t34 -1 x_r1_g69 -1 x_r1_g35 >= -1 ;
1 p_r1_g74_h40_t34 -1 x_r1_g74 <= 0 ;
1 p_r1_g74_h40_t34 -1 x_r1_g40 <= 0 ;
1 p_r1_g74_h40_t34 -1 x_r1_g74 -1 x_r1_g40 >= -1 ;
1 p_r1_g82_h48_t34 -1 x_r1_g82 <= 0 ;
1 p_r1_g82_h48_t34 -1 x_r1_g48 <= 0 ;
1 p_r1_g82_h48_t34 -1 x_r1_g82 -1 x_r1_g48 >= -1 ;
1 p_r1_g155_h121_t34 -1 x_r1_g155 <= 0 ;
1 p_r1_g155_h121_t34 -1 x_r1_g121 <= 0 ;
1 p_r1_g155_h121_t34 -1 x_r1_g155 -1 x_r1_g121 >= -1 ;
1 p_r1_g161_h127_t34 -1 x_r1_g161 <= 0 ;
1 p_r1_g161_h127_t34 -1 x_r1_g127 <= 0 ;
1 p_r1_g161_h127_t34 -1 x_r1_g161 -1 x_r1_g127 >= -1 ;
1 p_r1_g162_h128_t34 -1 x_r1_g162 <= 0 ;
1 p_r1_g162_h128_t34 -1 x_r1_g128 <= 0 ;
1 p_r1_g162_h128_t34 -1 x_r1_g162 -1 x_r1_g128 >= -1 ;
1 p_r1_g163_h129_t34 -1 x_r1_g163 <= 0 ;
1 p_r1_g163_h129_t34 -1 x_r1_g129 <= 0 ;
1 p_r1_g163_h129_t34 -1 x_r1_g163 -1 x_r1_g129 >= -1 ;
1 p_r2_g35_h1_t34 -1 x_r2_g35 <= 0 ;
1 p_r2_g35_h1_t34 -1 x_r2_g1 <= 0 ;
1 p_r2_g35_h1_t34 -1 x_r2_g35 -1 x_r2_g1 >= -1 ;
1 p_r2_g55_h21_t34 -1 x_r2_g55 <= 0 ;
1 p_r2_g55_h21_t34 -1 x_r2_g21 <= 0 ;
1 p_r2_g55_h21_t34 -1 x_r2_g55 -1 x_r2_g21 >= -1 ;
1 p_r2_g85_h51_t34 -1 x_r2_g85 <= 0 ;
1 p_r2_g85_h51_t34 -1 x_r2_g51 <= 0 ;
1 p_r2_g85_h51_t34 -1 x_r2_g85 -1 x_r2_g51 >= -1 ;
1 p_r2_g86_h52_t34 -1 x_r2_g86 <= 0 ;
1 p_r2_g86_h52_t34 -1 x_r2_g52 <= 0 ;
1 p_r2_g86_h52_t34 -1 x_r2_g86 -1 x_r2_g52 >= -1 ;
1 p_r2_g117_h83_t34 -1 x_r2_g117 <= 0 ;
1 p_r2_g117_h83_t34 -1 x_r2_g83 <= 0 ;
1 p_r2_g117_h83_t34 -1 x_r2_g117 -1 x_r2_g83 >= -1 ;
1 p_r2_g124_h90_t34 -1 x_r2_g124 <= 0 ;
1 p_r2_g124_h90_t34 -1 x_r2_g90 <= 0 ;
1 p_r2_g124_h90_t34 -1 x_r2_g124 -1 x_r2_g90 >= -1 ;
1 p_r2_g135_h101_t34 -1 x_r2_g135 <= 0 ;
1 p_r2_g135_h101_t34 -1 x_r2_g101 <= 0 ;
1 p_r2_g135_h101_t34 -1 x_r2_g135 -1 x_r2_g101 >= -1 ;
1 p_r2_g146_h112_t34 -1 x_r2_g146 <= 0 ;
1 p_r2_g146_h112_t34 -1 x_r2_g112 <= 0 ;
1 p_r2_g146_h112_t34 -1 x_r2_g146 -1 x_r2_g112 >= -1 ;
1 p_r2_g155_h121_t34 -1 x_r2_g155 <= 0 ;
1 p_r2_g155_h121_t34 -1 x_r2_g121 <= 0 ;
1 p_r2_g155_h121_t34 -1 x_r2_g155 -1 x_r2_g121 >= -1 ;
1 p_r3_g33_h166_t34 -1 x_r3_g33 <= 0 ;
1 p_r3_g33_h166_t34 -1 x_r3_g166 <= 0 ;
1 p_r3_g33_h166_t34 -1 x_r3_g33 -1 x_r3_g166 >= -1 ;
1 p_r3_g39_h5_t34 -1 x_r3_g39 <= 0 ;
1 p_r3_g39_h5_t34 -1 x_r3_g5 <= 0 ;
1 p_r3_g39_h5_t34 -1 x_r3_g39 -1 x_r3_g5 >= -1 ;
1 p_r3_g51_h17_t34 -1 x_r3_g51 <= 0 ;
1 p_r3_g51_h17_t34 -1 x_r3_g17 <= 0 ;
1 p_r3_g51_h17_t34 -1 x_r3_g51 -1 x_r3_g17 >= -1 ;
1 p_r3_g59_h25_t34 -1 x_r3_g59 <= 0 ;
1 p_r3_g59_h25_t34 -1 x_r3_g25 <= 0 ;
1 p_r3_g59_h25_t34 -1 x_r3_g59 -1 x_r3_g25 >= -1 ;
1 p_r3_g60_h26_t34 -1 x_r3_g60 <= 0 ;
1 p_r3_g60_h26_t34 -1 x_r3_g26 <= 0 ;
1 p_r3_g60_h26_t34 -1 x_r3_g60 -1 x_r3_g26 >= -1 ;
1 p_r3_g73_h39_t34 -1 x_r3_g73 <= 0 ;
1 p_r3_g73_h39_t34 -1 x_r3_g39 <= 0 ;
1 p_r3_g73_h39_t34 -1 x_r3_g73 -1 x_r3_g39 >= -1 ;
1 p_r3_g83_h49_t34 -1 x_r3_g83 <= 0 ;
1 p_r3_g83_h49_t34 -1 x_r3_g49 <= 0 ;
1 p_r3_g83_h49_t34 -1 x_r3_g83 -1 x_r3_g49 >= -1 ;
1 p_r3_g117_h83_t34 -1 x_r3_g117 <= 0 ;
1 p_r3_g117_h83_t34 -1 x_r3_g83 <= 0 ;
1 p_r3_g117_h83_t34 -1 x_r3_g117 -1 x_r3_g83 >= -1 ;
1 p_r3_g156_h122_t34 -1 x_r3_g156 <= 0 ;
1 p_r3_g156_h122_t34 -1 x_r3_g122 <= 0 ;
1 p_r3_g156_h122_t34 -1 x_r3_g156 -1 x_r3_g122 >= -1 ;
1 p_r3_g166_h132_t34 -1 x_r3_g166 <= 0 ;
1 p_r3_g166_h132_t34 -1 x_r3_g132 <= 0 ;
1 p_r3_g166_h132_t34 -1 x_r3_g166 -1 x_r3_g132 >= -1 ;
1 d_34 -1 x_r0_g11 -1 x_r0_g12 -1 x_r0_g15 -1 x_r0_g17 -1 x_r0_g19 -2 x_r0_g24 -1 x_r0_g31 -1 x_r0_g34 -1 x_r0_g47 -1 x_r0_g74 -2 x_r0_g79 -1 x_r0_g85 -2 x_r0_g93 -1 x_r0_g103 -1 x_r0_g121 -1 x_r0_g124 -1 x_r0_g135 -1 x_r0_g154 -1 x_r1_g21 -1 x_r1_g22 -2 x_r1_g23 -1 x_r1_g26 -1 x_r1_g35 -2 x_r1_g45 -1 x_r1_g50 -2 x_r1_g61 -1 x_r1_g64 -1 x_r1_g69 -1 x_r1_g74 -2 x_r1_g80 -1 x_r1_g85 -1 x_r1_g99 -1 x_r1_g121 -1 x_r1_g124 -1 x_r1_g129 -2 x_r1_g130 -1 x_r1_g141 -1 x_r1_g144 -1 x_r2_g1 -1 x_r2_g4 -2 x_r2_g15 -1 x_r2_g20 -1 x_r2_g32 -2 x_r2_g34 -1 x_r2_g44 -1 x_r2_g52 -1 x_r2_g59 -1 x_r2_g73 -1 x_r2_g75 -1 x_r2_g83 -1 x_r2_g85 -1 x_r2_g86 -1 x_r2_g90 -2 x_r2_g95 -1 x_r2_g106 -1 x_r2_g112 -1 x_r2_g117 -1 x_r2_g124 -1 x_r2_g133 -2 x_r2_g147 -2 x_r2_g161 -1 x_r2_g162 -1 x_r3_g1 -1 x_r3_g2 -1 x_r3_g5 -2 x_r3_g7 -2 x_r3_g9 -2 x_r3_g21 -1 x_r3_g31 -2 x_r3_g42 -1 x_r3_g44 -2 x_r3_g52 -1 x_r3_g53 -1 x_r3_g60 -1 x_r3_g62 -2 x_r3_g64 -1 x_r3_g66 -1 x_r3_g71 -2 x_r3_g77 -1 x_r3_g117 -1 x_r3_g132 -1 x_r3_g141 -1 x_r3_g156 -2 x_r3_g161 -1 p_r0_g11_h144_t34 -1 p_r0_g15_h148_t34 -1 p_r0_g30_h163_t34 -1 p_r0_g39_h5_t34 -1 p_r0_g53_h19_t34 -1 p_r0_g90_h56_t34 -1 p_r0_g91_h57_t34 -1 p_r0_g108_h74_t34 -1 p_r0_g119_h85_t34 -1 p_r0_g124_h90_t34 -1 p_r0_g125_h91_t34 -1 p_r0_g142_h108_t34 -1 p_r0_g159_h125_t34 -1 p_r1_g8_h141_t34 -1 p_r1_g22_h155_t34 -1 p_r1_g29_h162_t34 -1 p_r1_g40_h6_t34 -1 p_r1_g42_h8_t34 -1 p_r1_g68_h34_t34 -1 p_r1_g69_h35_t34 -1 p_r1_g74_h40_t34 -1 p_r1_g82_h48_t34 -1 p_r1_g155_h121_t34 -1 p_r1_g161_h127_t34 -1 p_r1_g162_h128_t34 -1 p_r1_g163_h129_t34 -1 p_r2_g35_h1_t34 -1 p_r2_g55_h21_t34 -1 p_r2_g85_h51_t34 -1 p_r2_g86_h52_t34 -1 p_r2_g117_h83_t34 -1 p_r2_g124_h90_t34 -1 p_r2_g135_h101_t34 -1 p_r2_g146_h112_t34 -1 p_r2_g155_h121_t34 -1 p_r3_g33_h166_t34 -1 p_r3_g39_h5_t34 -1 p_r3_g51_h17_t34 -1 p_r3_g59_h25_t34 -1 p_r3_g60_h26_t34 -1 p_r3_g73_h39_t34 -1 p_r3_g83_h49_t34 -1 p_r3_g117_h83_t34 -1 p_r3_g156_h122_t34 -1 p_r3_g166_h132_t34 = -43 ;
1 d_34 -1 u_34 <= 0 ;
-1 d_34 -1 u_34 <= 0 ;
1 u_34 -1 M <= 0 ;
1 u_34 <= 2 ;
1 p_r0_g11_h142_t36 -1 x_r0_g11 <= 0 ;
1 p_r0_g11_h142_t36 -1 x_r0_g142 <= 0 ;
1 p_r0_g11_h142_t36 -1 x_r0_g11 -1 x_r0_g142 >= -1 ;
1 p_r0_g12_h143_t36 -1 x_r0_g12 <= 0 ;
1 p_r0_g12_h143_t36 -1 x_r0_g143 <= 0 ;
1 p_r0_g12_h143_t36 -1 x_r0_g12 -1 x_r0_g143 >= -1 ;
1 p_r0_g17_h148_t36 -1 x_r0_g17 <= 0 ;
1 p_r0_g17_h148_t36 -1 x_r0_g148 <= 0 ;
1 p_r0_g17_h148_t36 -1 x_r0_g17 -1 x_r0_g148 >= -1 ;
1 p_r0_g47_h11_t36 -1 x_r0_g47 <= 0 ;
1 p_r0_g47_h11_t36 -1 x_r0_g11 <= 0 ;
1 p_r0_g47_h11_t36 -1 x_r0_g47 -1 x_r0_g11 >= -1 ;
1 p_r0_g53_h17_t36 -1 x_r0_g53 <= 0 ;
1 p_r0_g53_h17_t36 -1 x_r0_g17 <= 0 ;
1 p_r0_g53_h17_t36 -1 x_r0_g53 -1 x_r0_g17 >= -1 ;
1 p_r0_g55_h19_t36 -1 x_r0_g55 <= 0 ;
1 p_r0_g55_h19_t36 -1 x_r0_g19 <= 0 ;
1 p_r0_g55_h19_t36 -1 x_r0_g55 -1 x_r0_g19 >= -1 ;
1 p_r0_g60_h24_t36 -1 x_r0_g60 <= 0 ;
1 p_r0_g60_h24_t36 -1 x_r0_g24 <= 0 ;
1 p_r0_g60_h24_t36 -1 x_r0_g60 -1 x_r0_g24 >= -1 ;
1 p_r0_g74_h38_t36 -1 x_r0_g74 <= 0 ;
1 p_r0_g74_h38_t36 -1 x_r0_g38 <= 0 ;
1 p_r0_g74_h38_t36 -1 x_r0_g74 -1 x_r0_g38 >= -1 ;
1 p_r0_g91_h55_t36 -1 x_r0_g91 <= 0 ;
1 p_r0_g91_h55_t36 -1 x_r0_g55 <= 0 ;
1 p_r0_g91_h55_t36 -1 x_r0_g91 -1 x_r0_g55 >= -1 ;
1 p_r0_g93_h57_t36 -1 x_r0_g93 <= 0 ;
1 p_r0_g93_h57_t36 -1 x_r0_g57 <= 0 ;
1 p_r0_g93_h57_t36 -1 x_r0_g93 -1 x_r0_g57 >= -1 ;
1 p_r0_g121_h85_t36 -1 x_r0_g121 <= 0 ;
1 p_r0_g121_h85_t36 -1 x_r0_g85 <= 0 ;
1 p_r0_g121_h85_t36 -1 x_r0_g121 -1 x_r0_g85 >= -1 ;
1 p_r0_g144_h108_t36 -1 x_r0_g144 <= 0 ;
1 p_r0_g144_h108_t36 -1 x_r0_g108 <= 0 ;
1 p_r0_g144_h108_t36 -1 x_r0_g144 -1 x_r0_g108 >= -1 ;
1 p_r1_g42_h6_t36 -1 x_r1_g42 <= 0 ;
1 p_r1_g42_h6_t36 -1 x_r1_g6 <= 0 ;
1 p_r1_g42_h6_t36 -1 x_r1_g42 -1 x_r1_g6 >= -1 ;
1 p_r1_g74_h38_t36 -1 x_r1_g74 <= 0 ;
1 p_r1_g74_h38_t36 -1 x_r1_g38 <= 0 ;
1 p_r1_g74_h38_t36 -1 x_r1_g74 -1 x_r1_g38 >= -1 ;
1 p_r1_g121_h85_t36 -1 x_r1_g121 <= 0 ;
1 p_r1_g121_h85_t36 -1 x_r1_g85 <= 0 ;
1 p_r1_g121_h85_t36 -1 x_r1_g121 -1 x_r1_g85 >= -1 ;
1 p_r1_g124_h88_t36 -1 x_r1_g124 <= 0 ;
1 p_r1_g124_h88_t36 -1 x_r1_g88 <= 0 ;
1 p_r1_g124_h88_t36 -1 x_r1_g124 -1 x_r1_g88 >= -1 ;
1 p_r1_g163_h127_t36 -1 x_r1_g163 <= 0 ;
1 p_r1_g163_h127_t36 -1 x_r1_g127 <= 0 ;
1 p_r1_g163_h127_t36 -1 x_r1_g163 -1 x_r1_g127 >= -1 ;
1 p_r2_g4_h135_t36 -1 x_r2_g4 <= 0 ;
1 p_r2_g4_h135_t36 -1 x_r2_g135 <= 0 ;
1 p_r2_g4_h135_t36 -1 x_r2_g4 -1 x_r2_g135 >= -1 ;
1 p_r2_g15_h146_t36 -1 x_r2_g15 <= 0 ;
1 p_r2_g15_h146_t36 -1 x_r2_g146 <= 0 ;
1 p_r2_g15_h146_t36 -1 x_r2_g15 -1 x_r2_g146 >= -1 ;
1 p_r2_g51_h15_t36 -1 x_r2_g51 <= 0 ;
1 p_r2_g51_h15_t36 -1 x_r2_g15 <= 0 ;
1 p_r2_g51_h15_t36 -1 x_r2_g51 -1 x_r2_g15 >= -1 ;
1 p_r2_g95_h59_t36 -1 x_r2_g95 <= 0 ;
1 p_r2_g95_h59_t36 -1 x_r2_g59 <= 0 ;
1 p_r2_g95_h59_t36 -1 x_r2_g95 -1 x_r2_g59 >= -1 ;
1 p_r2_g121_h85_t36 -1 x_r2_g121 <= 0 ;
1 p_r2_g121_h85_t36 -1 x_r2_g85 <= 0 ;
1 p_r2_g121_h85_t36 -1 x_r2_g121 -1 x_r2_g85 >= -1 ;
1 p_r2_g157_h121_t36 -1 x_r2_g157 <= 0 ;
1 p_r2_g157_h121_t36 -1 x_r2_g121 <= 0 ;
1 p_r2_g157_h121_t36 -1 x_r2_g157 -1 x_r2_g121 >= -1 ;
1 p_r3_g1_h132_t36 -1 x_r3_g1 <= 0 ;
1 p_r3_g1_h132_t36 -1 x_r3_g132 <= 0 ;
1 p_r3_g1_h132_t36 -1 x_r3_g1 -1 x_r3_g132 >= -1 ;
1 p_r3_g25_h156_t36 -1 x_r3_g25 <= 0 ;
1 p_r3_g25_h156_t36 -1 x_r3_g156 <= 0 ;
1 p_r3_g25_h156_t36 -1 x_r3_g25 -1 x_r3_g156 >= -1 ;
1 p_r3_g45_h9_t36 -1 x_r3_g45 <= 0 ;
1 p_r3_g45_h9_t36 -1 x_r3_g9 <= 0 ;
1 p_r3_g45_h9_t36 -1 x_r3_g45 -1 x_r3_g9 >= -1 ;
1 p_r3_g53_h17_t36 -1 x_r3_g53 <= 0 ;
1 p_r3_g53_h17_t36 -1 x_r3_g17 <= 0 ;
1 p_r3_g53_h17_t36 -1 x_r3_g53 -1 x_r3_g17 >= -1 ;
1 p_r3_g62_h26_t36 -1 x_r3_g62 <= 0 ;
1 p_r3_g62_h26_t36 -1 x_r3_g26 <= 0 ;
1 p_r3_g62_h26_t36 -1 x_r3_g62 -1 x_r3_g26 >= -1 ;
1 p_r3_g69_h33_t36 -1 x_r3_g69 <= 0 ;
1 p_r3_g69_h33_t36 -1 x_r3_g33 <= 0 ;
1 p_r3_g69_h33_t36 -1 x_r3_g69 -1 x_r3_g33 >= -1 ;
1 d_36 -1 x_r0_g5 -1 x_r0_g7 -1 x_r0_g12 -2 x_r0_g15 -1 x_r0_g24 -1 x_r0_g31 -2 x_r0_g34 -1 x_r0_g39 -1 x_r0_g56 -1 x_r0_g79 -1 x_r0_g85 -2 x_r0_g90 -1 x_r0_g91 -2 x_r0_g103 -1 x_r0_g119 -1 x_r0_g121 -2 x_r0_g124 -1 x_r0_g144 -1 x_r0_g154 -1 x_r0_g159 -1 x_r0_g163 -1 x_r1_g8 -1 x_r1_g21 -1 x_r1_g23 -2 x_r1_g26 -2 x_r1_g29 -1 x_r1_g34 -1 x_r1_g35 -1 x_r1_g39 -1 x_r1_g42 -1 x_r1_g45 -1 x_r1_g48 -1 x_r1_g61 -1 x_r1_g64 -1 x_r1_g68 -1 x_r1_g77 -1 x_r1_g80 -1 x_r1_g82 -1 x_r1_g85 -1 x_r1_g121 -1 x_r1_g124 -1 x_r1_g127 -1 x_r1_g128 -1 x_r1_g130 -1 x_r1_g141 -1 x_r1_g144 -1 x_r1_g155 -1 x_r1_g162 -1 x_r1_g163 -1 x_r2_g1 -2 x_r2_g20 -1 x_r2_g21 -2 x_r2_g32 -1 x_r2_g34 -1 x_r2_g44 -1 x_r2_g58 -1 x_r2_g74 -1 x_r2_g75 -1 x_r2_g83 -1 x_r2_g85 -1 x_r2_g86 -1 x_r2_g90 -2 x_r2_g101 -2 x_r2_g104 -1 x_r2_g112 -1 x_r2_g117 -1 x_r2_g124 -1 x_r2_g130 -1 x_r2_g141 -1 x_r2_g146 -1 x_r2_g155 -1 x_r2_g157 -1 x_r2_g161 -2 x_r2_g162 -1 x_r3_g1 -1 x_r3_g2 -1 x_r3_g5 -2 x_r3_g7 -1 x_r3_g9 -1 x_r3_g17 -1 x_r3_g20 -1 x_r3_g25 -1 x_r3_g31 -1 x_r3_g39 -2 x_r3_g42 -2 x_r3_g44 -1 x_r3_g45 -1 x_r3_g49 -1 x_r3_g53 -1 x_r3_g59 -1 x_r3_g62 -1 x_r3_g64 -1 x_r3_g66 -1 x_r3_g68 -1 x_r3_g73 -1 x_r3_g77 -2 x_r3_g83 -1 x_r3_g117 -1 x_r3_g118 -1 x_r3_g122 -1 x_r3_g161 -1 p_r0_g11_h142_t36 -1 p_r0_g12_h143_t36 -1 p_r0_g17_h148_t36 -1 p_r0_g47_h11_t36 -1 p_r0_g53_h17_t36 -1 p_r0_g55_h19_t36 -1 p_r0_g60_h24_t36 -1 p_r0_g74_h38_t36 -1 p_r0_g91_h55_t36 -1 p_r0_g93_h57_t36 -1 p_r0_g121_h85_t36 -1 p_r0_g144_h108_t36 -1 p_r1_g42_h6_t36 -1 p_r1_g74_h38_t36 -1 p_r1_g121_h85_t36 -1 p_r1_g124_h88_t36 -1 p_r1_g163_h127_t36 -1 p_r2_g4_h135_t36 -1 p_r2_g15_h146_t36 -1 p_r2_g51_h15_t36 -1 p_r2_g95_h59_t36 -1 p_r2_g121_h85_t36 -1 p_r2_g157_h121_t36 -1 p_r3_g1_h132_t36 -1 p_r3_g25_h156_t36 -1 p_r3_g45_h9_t36 -1 p_r3_g53_h17_t36 -1 p_r3_g62_h26_t36 -1 p_r3_g69_h33_t36 = -82 ;
1 d_36 -1 u_36 <= 0 ;
-1 d_36 -1 u_36 <= 0 ;
1 u_36 -1 M <= 0 ;
1 u_36 <= 2 ;
1 p_r0_g15_h142_t40 -1 x_r0_g15 <= 0 ;
1 p_r0_g15_h142_t40 -1 x_r0_g142 <= 0 ;
1 p_r0_g15_h142_t40 -1 x_r0_g15 -1 x_r0_g142 >= -1 ;
1 p_r0_g17_h144_t40 -1 x_r0_g17 <= 0 ;
1 p_r0_g17_h144_t40 -1 x_r0_g144 <= 0 ;
1 p_r0_g17_h144_t40 -1 x_r0_g17 -1 x_r0_g144 >= -1 ;
1 p_r0_g47_h7_t40 -1 x_r0_g47 <= 0 ;
1 p_r0_g47_h7_t40 -1 x_r0_g7 <= 0 ;
1 p_r0_g47_h7_t40 -1 x_r0_g47 -1 x_r0_g7 >= -1 ;
1 p_r0_g55_h15_t40 -1 x_r0_g55 <= 0 ;
1 p_r0_g55_h15_t40 -1 x_r0_g15 <= 0 ;
1 p_r0_g55_h15_t40 -1 x_r0_g55 -1 x_r0_g15 >= -1 ;
1 p_r0_g57_h17_t40 -1 x_r0_g57 <= 0 ;
1 p_r0_g57_h17_t40 -1 x_r0_g17 <= 0 ;
1 p_r0_g57_h17_t40 -1 x_r0_g57 -1 x_r0_g17 >= -1 ;
1 p_r0_g74_h34_t40 -1 x_r0_g74 <= 0 ;
1 p_r0_g74_h34_t40 -1 x_r0_g34 <= 0 ;
1 p_r0_g74_h34_t40 -1 x_r0_g74 -1 x_r0_g34 >= -1 ;
1 p_r0_g79_h39_t40 -1 x_r0_g79 <= 0 ;
1 p_r0_g79_h39_t40 -1 x_r0_g39 <= 0 ;
1 p_r0_g79_h39_t40 -1 x_r0_g79 -1 x_r0_g39 >= -1 ;
1 p_r0_g93_h53_t40 -1 x_r0_g93 <= 0 ;
1 p_r0_g93_h53_t40 -1 x_r0_g53 <= 0 ;
1 p_r0_g93_h53_t40 -1 x_r0_g93 -1 x_r0_g53 >= -1 ;
1 p_r0_g119_h79_t40 -1 x_r0_g119 <= 0 ;
1 p_r0_g119_h79_t40 -1 x_r0_g79 <= 0 ;
1 p_r0_g119_h79_t40 -1 x_r0_g119 -1 x_r0_g79 >= -1 ;
1 p_r0_g125_h85_t40 -1 x_r0_g125 <= 0 ;
1 p_r0_g125_h85_t40 -1 x_r0_g85 <= 0 ;
1 p_r0_g125_h85_t40 -1 x_r0_g125 -1 x_r0_g85 >= -1 ;
1 p_r0_g143_h103_t40 -1 x_r0_g143 <= 0 ;
1 p_r0_g143_h103_t40 -1 x_r0_g103 <= 0 ;
1 p_r0_g143_h103_t40 -1 x_r0_g143 -1 x_r0_g103 >= -1 ;
1 p_r0_g148_h108_t40 -1 x_r0_g148 <= 0 ;
1 p_r0_g148_h108_t40 -1 x_r0_g108 <= 0 ;
1 p_r0_g148_h108_t40 -1 x_r0_g148 -1 x_r0_g108 >= -1 ;
1 p_r0_g159_h119_t40 -1 x_r0_g159 <= 0 ;
1 p_r0_g159_h119_t40 -1 x_r0_g119 <= 0 ;
1 p_r0_g159_h119_t40 -1 x_r0_g159 -1 x_r0_g119 >= -1 ;
1 p_r1_g34_h161_t40 -1 x_r1_g34 <= 0 ;
1 p_r1_g34_h161_t40 -1 x_r1_g161 <= 0 ;
1 p_r1_g34_h161_t40 -1 x_r1_g34 -1 x_r1_g161 >= -1 ;
1 p_r1_g35_h162_t40 -1 x_r1_g35 <= 0 ;
1 p_r1_g35_h162_t40 -1 x_r1_g162 <= 0 ;
1 p_r1_g35_h162_t40 -1 x_r1_g35 -1 x_r1_g162 >= -1 ;
1 p_r1_g48_h8_t40 -1 x_r1_g48 <= 0 ;
1 p_r1_g48_h8_t40 -1 x_r1_g8 <= 0 ;
1 p_r1_g48_h8_t40 -1 x_r1_g48 -1 x_r1_g8 >= -1 ;
1 p_r1_g61_h21_t40 -1 x_r1_g61 <= 0 ;
1 p_r1_g61_h21_t40 -1 x_r1_g21 <= 0 ;
1 p_r1_g61_h21_t40 -1 x_r1_g61 -1 x_r1_g21 >= -1 ;
1 p_r1_g69_h29_t40 -1 x_r1_g69 <= 0 ;
1 p_r1_g69_h29_t40 -1 x_r1_g29 <= 0 ;
1 p_r1_g69_h29_t40 -1 x_r1_g69 -1 x_r1_g29 >= -1 ;
1 p_r1_g74_h34_t40 -1 x_r1_g74 <= 0 ;
1 p_r1_g74_h34_t40 -1 x_r1_g34 <= 0 ;
1 p_r1_g74_h34_t40 -1 x_r1_g74 -1 x_r1_g34 >= -1 ;
1 p_r1_g80_h40_t40 -1 x_r1_g80 <= 0 ;
1 p_r1_g80_h40_t40 -1 x_r1_g40 <= 0 ;
1 p_r1_g80_h40_t40 -1 x_r1_g80 -1 x_r1_g40 >= -1 ;
1 p_r1_g82_h42_t40 -1 x_r1_g82 <= 0 ;
1 p_r1_g82_h42_t40 -1 x_r1_g42 <= 0 ;
1 p_r1_g82_h42_t40 -1 x_r1_g82 -1 x_r1_g42 >= -1 ;
1 p_r1_g85_h45_t40 -1 x_r1_g85 <= 0 ;
1 p_r1_g85_h45_t40 -1 x_r1_g45 <= 0 ;
1 p_r1_g85_h45_t40 -1 x_r1_g85 -1 x_r1_g45 >= -1 ;
1 p_r1_g88_h48_t40 -1 x_r1_g88 <= 0 ;
1 p_r1_g88_h48_t40 -1 x_r1_g48 <= 0 ;
1 p_r1_g88_h48_t40 -1 x_r1_g88 -1 x_r1_g48 >= -1 ;
1 p_r1_g128_h88_t40 -1 x_r1_g128 <= 0 ;
1 p_r1_g128_h88_t40 -1 x_r1_g88 <= 0 ;
1 p_r1_g128_h88_t40 -1 x_r1_g128 -1 x_r1_g88 >= -1 ;
1 p_r1_g161_h121_t40 -1 x_r1_g161 <= 0 ;
1 p_r1_g161_h121_t40 -1 x_r1_g121 <= 0 ;
1 p_r1_g161_h121_t40 -1 x_r1_g161 -1 x_r1_g121 >= -1 ;
1 p_r2_g20_h147_t40 -1 x_r2_g20 <= 0 ;
1 p_r2_g20_h147_t40 -1 x_r2_g147 <= 0 ;
1 p_r2_g20_h147_t40 -1 x_r2_g20 -1 x_r2_g147 >= -1 ;
1 p_r2_g34_h161_t40 -1 x_r2_g34 <= 0 ;
1 p_r2_g34_h161_t40 -1 x_r2_g161 <= 0 ;
1 p_r2_g34_h161_t40 -1 x_r2_g34 -1 x_r2_g161 >= -1 ;
1 p_r2_g35_h162_t40 -1 x_r2_g35 <= 0 ;
1 p_r2_g35_h162_t40 -1 x_r2_g162 <= 0 ;
1 p_r2_g35_h162_t40 -1 x_r2_g35 -1 x_r2_g162 >= -1 ;
1 p_r2_g44_h4_t40 -1 x_r2_g44 <= 0 ;
1 p_r2_g44_h4_t40 -1 x_r2_g4 <= 0 ;
1 p_r2_g44_h4_t40 -1 x_r2_g44 -1 x_r2_g4 >= -1 ;
1 p_r2_g55_h15_t40 -1 x_r2_g55 <= 0 ;
1 p_r2_g55_h15_t40 -1 x_r2_g15 <= 0 ;
1 p_r2_g55_h15_t40 -1 x_r2_g55 -1 x_r2_g15 >= -1 ;
1 p_r2_g74_h34_t40 -1 x_r2_g74 <= 0 ;
1 p_r2_g74_h34_t40 -1 x_r2_g34 <= 0 ;
1 p_r2_g74_h34_t40 -1 x_r2_g74 -1 x_r2_g34 >= -1 ;
1 p_r2_g75_h35_t40 -1 x_r2_g75 <= 0 ;
1 p_r2_g75_h35_t40 -1 x_r2_g35 <= 0 ;
1 p_r2_g75_h35_t40 -1 x_r2_g75 -1 x_r2_g35 >= -1 ;
1 p_r2_g95_h55_t40 -1 x_r2_g95 <= 0 ;
1 p_r2_g95_h55_t40 -1 x_r2_g55 <= 0 ;
1 p_r2_g95_h55_t40 -1 x_r2_g95 -1 x_r2_g55 >= -1 ;
1 p_r2_g130_h90_t40 -1 x_r2_g130 <= 0 ;
1 p_r2_g130_h90_t40 -1 x_r2_g90 <= 0 ;
1 p_r2_g130_h90_t40 -1 x_r2_g130 -1 x_r2_g90 >= -1 ;
1 p_r2_g135_h95_t40 -1 x_r2_g135 <= 0 ;
1 p_r2_g135_h95_t40 -1 x_r2_g95 <= 0 ;
1 p_r2_g135_h95_t40 -1 x_r2_g135 -1 x_r2_g95 >= -1 ;
1 p_r2_g141_h101_t40 -1 x_r2_g141 <= 0 ;
1 p_r2_g141_h101_t40 -1 x_r2_g101 <= 0 ;
1 p_r2_g141_h101_t40 -1 x_r2_g141 -1 x_r2_g101 >= -1 ;
1 p_r2_g146_h106_t40 -1 x_r2_g146 <= 0 ;
1 p_r2_g146_h106_t40 -1 x_r2_g106 <= 0 ;
1 p_r2_g146_h106_t40 -1 x_r2_g146 -1 x_r2_g106 >= -1 ;
1 p_r2_g157_h117_t40 -1 x_r2_g157 <= 0 ;
1 p_r2_g157_h117_t40 -1 x_r2_g117 <= 0 ;
1 p_r2_g157_h117_t40 -1 x_r2_g157 -1 x_r2_g117 >= -1 ;
1 p_r2_g161_h121_t40 -1 x_r2_g161 <= 0 ;
1 p_r2_g161_h121_t40 -1 x_r2_g121 <= 0 ;
1 p_r2_g161_h121_t40 -1 x_r2_g161 -1 x_r2_g121 >= -1 ;
1 p_r3_g5_h132_t40 -1 x_r3_g5 <= 0 ;
1 p_r3_g5_h132_t40 -1 x_r3_g132 <= 0 ;
1 p_r3_g5_h132_t40 -1 x_r3_g5 -1 x_r3_g132 >= -1 ;
1 p_r3_g39_h166_t40 -1 x_r3_g39 <= 0 ;
1 p_r3_g39_h166_t40 -1 x_r3_g166 <= 0 ;
1 p_r3_g39_h166_t40 -1 x_r3_g39 -1 x_r3_g166 >= -1 ;
1 p_r3_g42_h2_t40 -1 x_r3_g42 <= 0 ;
1 p_r3_g42_h2_t40 -1 x_r3_g2 <= 0 ;
1 p_r3_g42_h2_t40 -1 x_r3_g42 -1 x_r3_g2 >= -1 ;
1 p_r3_g45_h5_t40 -1 x_r3_g45 <= 0 ;
1 p_r3_g45_h5_t40 -1 x_r3_g5 <= 0 ;
1 p_r3_g45_h5_t40 -1 x_r3_g45 -1 x_r3_g5 >= -1 ;
1 p_r3_g49_h9_t40 -1 x_r3_g49 <= 0 ;
1 p_r3_g49_h9_t40 -1 x_r3_g9 <= 0 ;
1 p_r3_g49_h9_t40 -1 x_r3_g49 -1 x_r3_g9 >= -1 ;
1 p_r3_g60_h20_t40 -1 x_r3_g60 <= 0 ;
1 p_r3_g60_h20_t40 -1 x_r3_g20 <= 0 ;
1 p_r3_g60_h20_t40 -1 x_r3_g60 -1 x_r3_g20 >= -1 ;
1 p_r3_g62_h22_t40 -1 x_r3_g62 <= 0 ;
1 p_r3_g62_h22_t40 -1 x_r3_g22 <= 0 ;
1 p_r3_g62_h22_t40 -1 x_r3_g62 -1 x_r3_g22 >= -1 ;
1 p_r3_g66_h26_t40 -1 x_r3_g66 <= 0 ;
1 p_r3_g66_h26_t40 -1 x_r3_g26 <= 0 ;
1 p_r3_g66_h26_t40 -1 x_r3_g66 -1 x_r3_g26 >= -1 ;
1 p_r3_g71_h31_t40 -1 x_r3_g71 <= 0 ;
1 p_r3_g71_h31_t40 -1 x_r3_g31 <= 0 ;
1 p_r3_g71_h31_t40 -1 x_r3_g71 -1 x_r3_g31 >= -1 ;
1 p_r3_g73_h33_t40 -1 x_r3_g73 <= 0 ;
1 p_r3_g73_h33_t40 -1 x_r3_g33 <= 0 ;
1 p_r3_g73_h33_t40 -1 x_r3_g73 -1 x_r3_g33 >= -1 ;
1 p_r3_g117_h77_t40 -1 x_r3_g117 <= 0 ;
1 p_r3_g117_h77_t40 -1 x_r3_g77 <= 0 ;
1 p_r3_g117_h77_t40 -1 x_r3_g117 -1 x_r3_g77 >= -1 ;
1 d_40 -2 x_r0_g5 -1 x_r0_g11 -2 x_r0_g12 -2 x_r0_g19 -1 x_r0_g24 -2 x_r0_g30 -1 x_r0_g31 -1 x_r0_g38 -1 x_r0_g53 -2 x_r0_g60 -1 x_r0_g85 -2 x_r0_g91 -1 x_r0_g103 -1 x_r0_g108 -1 x_r0_g125 -1 x_r0_g142 -2 x_r0_g163 -1 x_r1_g6 -1 x_r1_g22 -1 x_r1_g26 -1 x_r1_g29 -1 x_r1_g38 -2 x_r1_g39 -2 x_r1_g50 -1 x_r1_g68 -1 x_r1_g69 -1 x_r1_g74 -1 x_r1_g77 -1 x_r1_g121 -2 x_r1_g124 -1 x_r1_g127 -1 x_r1_g128 -1 x_r1_g129 -2 x_r1_g130 -2 x_r1_g138 -1 x_r1_g155 -2 x_r1_g163 -2 x_r2_g1 -1 x_r2_g20 -2 x_r2_g21 -2 x_r2_g58 -2 x_r2_g73 -1 x_r2_g74 -1 x_r2_g75 -1 x_r2_g83 -1 x_r2_g85 -2 x_r2_g86 -1 x_r2_g101 -1 x_r2_g104 -1 x_r2_g112 -1 x_r2_g141 -2 x_r2_g155 -1 x_r2_g157 -1 x_r2_g162 -2 x_r3_g1 -1 x_r3_g2 -2 x_r3_g7 -1 x_r3_g17 -2 x_r3_g21 -1 x_r3_g22 -1 x_r3_g25 -1 x_r3_g33 -1 x_r3_g44 -1 x_r3_g49 -1 x_r3_g52 -1 x_r3_g53 -2 x_r3_g59 -1 x_r3_g66 -2 x_r3_g68 -1 x_r3_g71 -1 x_r3_g77 -2 x_r3_g83 -1 x_r3_g118 -1 x_r3_g122 -1 p_r0_g15_h142_t40 -1 p_r0_g17_h144_t40 -1 p_r0_g47_h7_t40 -1 p_r0_g55_h15_t40 -1 p_r0_g57_h17_t40 -1 p_r0_g74_h34_t40 -1 p_r0_g79_h39_t40 -1 p_r0_g93_h53_t40 -1 p_r0_g119_h79_t40 -1 p_r0_g125_h85_t40 -1 p_r0_g143_h103_t40 -1 p_r0_g148_h108_t40 -1 p_r0_g159_h119_t40 -1 p_r1_g34_h161_t40 -1 p_r1_g35_h162_t40 -1 p_r1_g48_h8_t40 -1 p_r1_g61_h21_t40 -1 p_r1_g69_h29_t40 -1 p_r1_g74_h34_t40 -1 p_r1_g80_h40_t40 -1 p_r1_g82_h42_t40 -1 p_r1_g85_h45_t40 -1 p_r1_g88_h48_t40 -1 p_r1_g128_h88_t40 -1 p_r1_g161_h121_t40 -1 p_r2_g20_h147_t40 -1 p_r2_g34_h161_t40 -1 p_r2_g35_h162_t40 -1 p_r2_g44_h4_t40 -1 p_r2_g55_h15_t40 -1 p_r2_g74_h34_t40 -1 p_r2_g75_h35_t40 -1 p_r2_g95_h55_t40 -1 p_r2_g130_h90_t40 -1 p_r2_g135_h95_t40 -1 p_r2_g141_h101_t40 -1 p_r2_g146_h106_t40 -1 p_r2_g157_h117_t40 -1 p_r2_g161_h121_t40 -1 p_r3_g5_h132_t40 -1 p_r3_g39_h166_t40 -1 p_r3_g42_h2_t40 -1 p_r3_g45_h5_t40 -1 p_r3_g49_h9_t40 -1 p_r3_g60_h20_t40 -1 p_r3_g62_h22_t40 -1 p_r3_g66_h26_t40 -1 p_r3_g71_h31_t40 -1 p_r3_g73_h33_t40 -1 p_r3_g117_h77_t40 = -86 ;
1 d_40 -1 u_40 <= 0 ;
-1 d_40 -1 u_40 <= 0 ;
1 u_40 -1 M <= 0 ;
1 u_40 <= 2 ;
1 p_r0_g17_h142_t42 -1 x_r0_g17 <= 0 ;
1 p_r0_g17_h142_t42 -1 x_r0_g142 <= 0 ;
1 p_r0_g17_h142_t42 -1 x_r0_g17 -1 x_r0_g142 >= -1 ;
1 p_r0_g19_h144_t42 -1 x_r0_g19 <= 0 ;
1 p_r0_g19_h144_t42 -1 x_r0_g144 <= 0 ;
1 p_r0_g19_h144_t42 -1 x_r0_g19 -1 x_r0_g144 >= -1 ;
1 p_r0_g34_h159_t42 -1 x_r0_g34 <= 0 ;
1 p_r0_g34_h159_t42 -1 x_r0_g159 <= 0 ;
1 p_r0_g34_h159_t42 -1 x_r0_g34 -1 x_r0_g159 >= -1 ;
1 p_r0_g38_h163_t42 -1 x_r0_g38 <= 0 ;
1 p_r0_g38_h163_t42 -1 x_r0_g163 <= 0 ;
1 p_r0_g38_h163_t42 -1 x_r0_g38 -1 x_r0_g163 >= -1 ;
1 p_r0_g47_h5_t42 -1 x_r0_g47 <= 0 ;
1 p_r0_g47_h5_t42 -1 x_r0_g5 <= 0 ;
1 p_r0_g47_h5_t42 -1 x_r0_g47 -1 x_r0_g5 >= -1 ;
1 p_r0_g53_h11_t42 -1 x_r0_g53 <= 0 ;
1 p_r0_g53_h11_t42 -1 x_r0_g11 <= 0 ;
1 p_r0_g53_h11_t42 -1 x_r0_g53 -1 x_r0_g11 >= -1 ;
1 p_r0_g57_h15_t42 -1 x_r0_g57 <= 0 ;
1 p_r0_g57_h15_t42 -1 x_r0_g15 <= 0 ;
1 p_r0_g57_h15_t42 -1 x_r0_g57 -1 x_r0_g15 >= -1 ;
1 p_r0_g121_h79_t42 -1 x_r0_g121 <= 0 ;
1 p_r0_g121_h79_t42 -1 x_r0_g79 <= 0 ;
1 p_r0_g121_h79_t42 -1 x_r0_g121 -1 x_r0_g79 >= -1 ;
1 p_r0_g135_h93_t42 -1 x_r0_g135 <= 0 ;
1 p_r0_g135_h93_t42 -1 x_r0_g93 <= 0 ;
1 p_r0_g135_h93_t42 -1 x_r0_g135 -1 x_r0_g93 >= -1 ;
1 p_r0_g163_h121_t42 -1 x_r0_g163 <= 0 ;
1 p_r0_g163_h121_t42 -1 x_r0_g121 <= 0 ;
1 p_r0_g163_h121_t42 -1 x_r0_g163 -1 x_r0_g121 >= -1 ;
1 p_r1_g38_h163_t42 -1 x_r1_g38 <= 0 ;
1 p_r1_g38_h163_t42 -1 x_r1_g163 <= 0 ;
1 p_r1_g38_h163_t42 -1 x_r1_g38 -1 x_r1_g163 >= -1 ;
1 p_r1_g48_h6_t42 -1 x_r1_g48 <= 0 ;
1 p_r1_g48_h6_t42 -1 x_r1_g6 <= 0 ;
1 p_r1_g48_h6_t42 -1 x_r1_g48 -1 x_r1_g6 >= -1 ;
1 p_r1_g50_h8_t42 -1 x_r1_g50 <= 0 ;
1 p_r1_g50_h8_t42 -1 x_r1_g8 <= 0 ;
1 p_r1_g50_h8_t42 -1 x_r1_g50 -1 x_r1_g8 >= -1 ;
1 p_r1_g64_h22_t42 -1 x_r1_g64 <= 0 ;
1 p_r1_g64_h22_t42 -1 x_r1_g22 <= 0 ;
1 p_r1_g64_h22_t42 -1 x_r1_g64 -1 x_r1_g22 >= -1 ;
1 p_r1_g68_h26_t42 -1 x_r1_g68 <= 0 ;
1 p_r1_g68_h26_t42 -1 x_r1_g26 <= 0 ;
1 p_r1_g68_h26_t42 -1 x_r1_g68 -1 x_r1_g26 >= -1 ;
1 p_r1_g77_h35_t42 -1 x_r1_g77 <= 0 ;
1 p_r1_g77_h35_t42 -1 x_r1_g35 <= 0 ;
1 p_r1_g77_h35_t42 -1 x_r1_g77 -1 x_r1_g35 >= -1 ;
1 p_r1_g80_h38_t42 -1 x_r1_g80 <= 0 ;
1 p_r1_g80_h38_t42 -1 x_r1_g38 <= 0 ;
1 p_r1_g80_h38_t42 -1 x_r1_g80 -1 x_r1_g38 >= -1 ;
1 p_r1_g82_h40_t42 -1 x_r1_g82 <= 0 ;
1 p_r1_g82_h40_t42 -1 x_r1_g40 <= 0 ;
1 p_r1_g82_h40_t42 -1 x_r1_g82 -1 x_r1_g40 >= -1 ;
1 p_r1_g124_h82_t42 -1 x_r1_g124 <= 0 ;
1 p_r1_g124_h82_t42 -1 x_r1_g82 <= 0 ;
1 p_r1_g124_h82_t42 -1 x_r1_g124 -1 x_r1_g82 >= -1 ;
1 p_r1_g127_h85_t42 -1 x_r1_g127 <= 0 ;
1 p_r1_g127_h85_t42 -1 x_r1_g85 <= 0 ;
1 p_r1_g127_h85_t42 -1 x_r1_g127 -1 x_r1_g85 >= -1 ;
1 p_r1_g130_h88_t42 -1 x_r1_g130 <= 0 ;
1 p_r1_g130_h88_t42 -1 x_r1_g88 <= 0 ;
1 p_r1_g130_h88_t42 -1 x_r1_g130 -1 x_r1_g88 >= -1 ;
1 p_r1_g141_h99_t42 -1 x_r1_g141 <= 0 ;
1 p_r1_g141_h99_t42 -1 x_r1_g99 <= 0 ;
1 p_r1_g141_h99_t42 -1 x_r1_g141 -1 x_r1_g99 >= -1 ;
1 p_r1_g163_h121_t42 -1 x_r1_g163 <= 0 ;
1 p_r1_g163_h121_t42 -1 x_r1_g121 <= 0 ;
1 p_r1_g163_h121_t42 -1 x_r1_g163 -1 x_r1_g121 >= -1 ;
1 p_r2_g21_h146_t42 -1 x_r2_g21 <= 0 ;
1 p_r2_g21_h146_t42 -1 x_r2_g146 <= 0 ;
1 p_r2_g21_h146_t42 -1 x_r2_g21 -1 x_r2_g146 >= -1 ;
1 p_r2_g32_h157_t42 -1 x_r2_g32 <= 0 ;
1 p_r2_g32_h157_t42 -1 x_r2_g157 <= 0 ;
1 p_r2_g32_h157_t42 -1 x_r2_g32 -1 x_r2_g157 >= -1 ;
1 p_r2_g74_h32_t42 -1 x_r2_g74 <= 0 ;
1 p_r2_g74_h32_t42 -1 x_r2_g32 <= 0 ;
1 p_r2_g74_h32_t42 -1 x_r2_g74 -1 x_r2_g32 >= -1 ;
1 p_r2_g86_h44_t42 -1 x_r2_g86 <= 0 ;
1 p_r2_g86_h44_t42 -1 x_r2_g44 <= 0 ;
1 p_r2_g86_h44_t42 -1 x_r2_g86 -1 x_r2_g44 >= -1 ;
1 p_r2_g95_h53_t42 -1 x_r2_g95 <= 0 ;
1 p_r2_g95_h53_t42 -1 x_r2_g53 <= 0 ;
1 p_r2_g95_h53_t42 -1 x_r2_g95 -1 x_r2_g53 >= -1 ;
1 p_r2_g101_h59_t42 -1 x_r2_g101 <= 0 ;
1 p_r2_g101_h59_t42 -1 x_r2_g59 <= 0 ;
1 p_r2_g101_h59_t42 -1 x_r2_g101 -1 x_r2_g59 >= -1 ;
1 p_r2_g117_h75_t42 -1 x_r2_g117 <= 0 ;
1 p_r2_g117_h75_t42 -1 x_r2_g75 <= 0 ;
1 p_r2_g117_h75_t42 -1 x_r2_g117 -1 x_r2_g75 >= -1 ;
1 p_r2_g146_h104_t42 -1 x_r2_g146 <= 0 ;
1 p_r2_g146_h104_t42 -1 x_r2_g104 <= 0 ;
1 p_r2_g146_h104_t42 -1 x_r2_g146 -1 x_r2_g104 >= -1 ;
1 p_r3_g7_h132_t42 -1 x_r3_g7 <= 0 ;
1 p_r3_g7_h132_t42 -1 x_r3_g132 <= 0 ;
1 p_r3_g7_h132_t42 -1 x_r3_g7 -1 x_r3_g132 >= -1 ;
1 p_r3_g31_h156_t42 -1 x_r3_g31 <= 0 ;
1 p_r3_g31_h156_t42 -1 x_r3_g156 <= 0 ;
1 p_r3_g31_h156_t42 -1 x_r3_g31 -1 x_r3_g156 >= -1 ;
1 p_r3_g44_h2_t42 -1 x_r3_g44 <= 0 ;
1 p_r3_g44_h2_t42 -1 x_r3_g2 <= 0 ;
1 p_r3_g44_h2_t42 -1 x_r3_g44 -1 x_r3_g2 >= -1 ;
1 p_r3_g49_h7_t42 -1 x_r3_g49 <= 0 ;
1 p_r3_g49_h7_t42 -1 x_r3_g7 <= 0 ;
1 p_r3_g49_h7_t42 -1 x_r3_g49 -1 x_r3_g7 >= -1 ;
1 p_r3_g51_h9_t42 -1 x_r3_g51 <= 0 ;
1 p_r3_g51_h9_t42 -1 x_r3_g9 <= 0 ;
1 p_r3_g51_h9_t42 -1 x_r3_g51 -1 x_r3_g9 >= -1 ;
1 p_r3_g59_h17_t42 -1 x_r3_g59 <= 0 ;
1 p_r3_g59_h17_t42 -1 x_r3_g17 <= 0 ;
1 p_r3_g59_h17_t42 -1 x_r3_g59 -1 x_r3_g17 >= -1 ;
1 p_r3_g62_h20_t42 -1 x_r3_g62 <= 0 ;
1 p_r3_g62_h20_t42 -1 x_r3_g20 <= 0 ;
1 p_r3_g62_h20_t42 -1 x_r3_g62 -1 x_r3_g20 >= -1 ;
1 p_r3_g64_h22_t42 -1 x_r3_g64 <= 0 ;
1 p_r3_g64_h22_t42 -1 x_r3_g22 <= 0 ;
1 p_r3_g64_h22_t42 -1 x_r3_g64 -1 x_r3_g22 >= -1 ;
1 p_r3_g68_h26_t42 -1 x_r3_g68 <= 0 ;
1 p_r3_g68_h26_t42 -1 x_r3_g26 <= 0 ;
1 p_r3_g68_h26_t42 -1 x_r3_g68 -1 x_r3_g26 >= -1 ;
1 p_r3_g73_h31_t42 -1 x_r3_g73 <= 0 ;
1 p_r3_g73_h31_t42 -1 x_r3_g31 <= 0 ;
1 p_r3_g73_h31_t42 -1 x_r3_g73 -1 x_r3_g31 >= -1 ;
1 d_42 -2 x_r0_g7 -1 x_r0_g11 -2 x_r0_g12 -1 x_r0_g17 -1 x_r0_g24 -1 x_r0_g30 -2 x_r0_g35 -1 x_r0_g55 -2 x_r0_g56 -1 x_r0_g60 -1 x_r0_g74 -1 x_r0_g79 -2 x_r0_g85 -2 x_r0_g90 -1 x_r0_g91 -1 x_r0_g93 -1 x_r0_g119 -1 x_r0_g142 -1 x_r0_g143 -1 x_r0_g144 -1 x_r1_g21 -1 x_r1_g23 -1 x_r1_g29 -1 x_r1_g34 -1 x_r1_g35 -2 x_r1_g39 -1 x_r1_g42 -2 x_r1_g45 -1 x_r1_g48 -1 x_r1_g61 -1 x_r1_g69 -1 x_r1_g74 -1 x_r1_g77 -1 x_r1_g88 -1 x_r1_g99 -1 x_r1_g121 -1 x_r1_g124 -1 x_r1_g128 -1 x_r1_g129 -1 x_r1_g138 -1 x_r1_g155 -2 x_r1_g161 -1 x_r1_g162 -2 x_r2_g1 -2 x_r2_g4 -1 x_r2_g15 -1 x_r2_g21 -1 x_r2_g35 -1 x_r2_g52 -2 x_r2_g73 -1 x_r2_g74 -1 x_r2_g75 -1 x_r2_g83 -2 x_r2_g85 -1 x_r2_g86 -2 x_r2_g90 -1 x_r2_g95 -2 x_r2_g106 -1 x_r2_g121 -1 x_r2_g124 -1 x_r2_g147 -2 x_r2_g155 -1 x_r2_g157 -1 x_r2_g161 -1 x_r2_g162 -1 x_r3_g1 -1 x_r3_g2 -1 x_r3_g5 -1 x_r3_g9 -1 x_r3_g17 -1 x_r3_g20 -1 x_r3_g21 -1 x_r3_g26 -1 x_r3_g33 -1 x_r3_g39 -1 x_r3_g44 -1 x_r3_g52 -1 x_r3_g60 -1 x_r3_g64 -1 x_r3_g66 -1 x_r3_g68 -2 x_r3_g69 -1 x_r3_g77 -1 x_r3_g83 -1 x_r3_g117 -2 x_r3_g118 -1 x_r3_g122 -1 x_r3_g141 -2 x_r3_g161 -2 x_r3_g166 -1 p_r0_g17_h142_t42 -1 p_r0_g19_h144_t42 -1 p_r0_g34_h159_t42 -1 p_r0_g38_h163_t42 -1 p_r0_g47_h5_t42 -1 p_r0_g53_h11_t42 -1 p_r0_g57_h15_t42 -1 p_r0_g121_h79_t42 -1 p_r0_g135_h93_t42 -1 p_r0_g163_h121_t42 -1 p_r1_g38_h163_t42 -1 p_r1_g48_h6_t42 -1 p_r1_g50_h8_t42 -1 p_r1_g64_h22_t42 -1 p_r1_g68_h26_t42 -1 p_r1_g77_h35_t42 -1 p_r1_g80_h38_t42 -1 p_r1_g82_h40_t42 -1 p_r1_g124_h82_t42 -1 p_r1_g127_h85_t42 -1 p_r1_g130_h88_t42 -1 p_r1_g141_h99_t42 -1 p_r1_g163_h121_t42 -1 p_r2_g21_h146_t42 -1 p_r2_g32_h157_t42 -1 p_r2_g74_h32_t42 -1 p_r2_g86_h44_t42 -1 p_r2_g95_h53_t42 -1 p_r2_g101_h59_t42 -1 p_r2_g117_h75_t42 -1 p_r2_g146_h104_t42 -1 p_r3_g7_h132_t42 -1 p_r3_g31_h156_t42 -1 p_r3_g44_h2_t42 -1 p_r3_g49_h7_t42 -1 p_r3_g51_h9_t42 -1 p_r3_g59_h17_t42 -1 p_r3_g62_h20_t42 -1 p_r3_g64_h22_t42 -1 p_r3_g68_h26_t42 -1 p_r3_g73_h31_t42 = -68 ;
1 d_42 -1 u_42 <= 0 ;
-1 d_42 -1 u_42 <= 0 ;
1 u_42 -1 M <= 0 ;
1 u_42 <= 0 ;
1 p_r0_g12_h135_t44 -1 x_r0_g12 <= 0 ;
1 p_r0_g12_h135_t44 -1 x_r0_g135 <= 0 ;
1 p_r0_g12_h135_t44 -1 x_r0_g12 -1 x_r0_g135 >= -1 ;
1 p_r0_g19_h142_t44 -1 x_r0_g19 <= 0 ;
1 p_r0_g19_h142_t44 -1 x_r0_g142 <= 0 ;
1 p_r0_g19_h142_t44 -1 x_r0_g19 -1 x_r0_g142 >= -1 ;
1 p_r0_g31_h154_t44 -1 x_r0_g31 <= 0 ;
1 p_r0_g31_h154_t44 -1 x_r0_g154 <= 0 ;
1 p_r0_g31_h154_t44 -1 x_r0_g31 -1 x_r0_g154 >= -1 ;
1 p_r0_g55_h11_t44 -1 x_r0_g55 <= 0 ;
1 p_r0_g55_h11_t44 -1 x_r0_g11 <= 0 ;
1 p_r0_g55_h11_t44 -1 x_r0_g55 -1 x_r0_g11 >= -1 ;
1 p_r0_g56_h12_t44 -1 x_r0_g56 <= 0 ;
1 p_r0_g56_h12_t44 -1 x_r0_g12 <= 0 ;
1 p_r0_g56_h12_t44 -1 x_r0_g56 -1 x_r0_g12 >= -1 ;
1 p_r0_g74_h30_t44 -1 x_r0_g74 <= 0 ;
1 p_r0_g74_h30_t44 -1 x_r0_g30 <= 0 ;
1 p_r0_g74_h30_t44 -1 x_r0_g74 -1 x_r0_g30 >= -1 ;
1 p_r0_g79_h35_t44 -1 x_r0_g79 <= 0 ;
1 p_r0_g79_h35_t44 -1 x_r0_g35 <= 0 ;
1 p_r0_g79_h35_t44 -1 x_r0_g79 -1 x_r0_g35 >= -1 ;
1 p_r0_g91_h47_t44 -1 x_r0_g91 <= 0 ;
1 p_r0_g91_h47_t44 -1 x_r0_g47 <= 0 ;
1 p_r0_g91_h47_t44 -1 x_r0_g91 -1 x_r0_g47 >= -1 ;
1 p_r0_g135_h91_t44 -1 x_r0_g135 <= 0 ;
1 p_r0_g135_h91_t44 -1 x_r0_g91 <= 0 ;
1 p_r0_g135_h91_t44 -1 x_r0_g135 -1 x_r0_g91 >= -1 ;
1 p_r0_g163_h119_t44 -1 x_r0_g163 <= 0 ;
1 p_r0_g163_h119_t44 -1 x_r0_g119 <= 0 ;
1 p_r0_g163_h119_t44 -1 x_r0_g163 -1 x_r0_g119 >= -1 ;
1 p_r1_g6_h129_t44 -1 x_r1_g6 <= 0 ;
1 p_r1_g6_h129_t44 -1 x_r1_g129 <= 0 ;
1 p_r1_g6_h129_t44 -1 x_r1_g6 -1 x_r1_g129 >= -1 ;
1 p_r1_g21_h144_t44 -1 x_r1_g21 <= 0 ;
1 p_r1_g21_h144_t44 -1 x_r1_g144 <= 0 ;
1 p_r1_g21_h144_t44 -1 x_r1_g21 -1 x_r1_g144 >= -1 ;
1 p_r1_g38_h161_t44 -1 x_r1_g38 <= 0 ;
1 p_r1_g38_h161_t44 -1 x_r1_g161 <= 0 ;
1 p_r1_g38_h161_t44 -1 x_r1_g38 -1 x_r1_g161 >= -1 ;
1 p_r1_g39_h162_t44 -1 x_r1_g39 <= 0 ;
1 p_r1_g39_h162_t44 -1 x_r1_g162 <= 0 ;
1 p_r1_g39_h162_t44 -1 x_r1_g39 -1 x_r1_g162 >= -1 ;
1 p_r1_g40_h163_t44 -1 x_r1_g40 <= 0 ;
1 p_r1_g40_h163_t44 -1 x_r1_g163 <= 0 ;
1 p_r1_g40_h163_t44 -1 x_r1_g40 -1 x_r1_g163 >= -1 ;
1 p_r1_g50_h6_t44 -1 x_r1_g50 <= 0 ;
1 p_r1_g50_h6_t44 -1 x_r1_g6 <= 0 ;
1 p_r1_g50_h6_t44 -1 x_r1_g50 -1 x_r1_g6 >= -1 ;
1 p_r1_g82_h38_t44 -1 x_r1_g82 <= 0 ;
1 p_r1_g82_h38_t44 -1 x_r1_g38 <= 0 ;
1 p_r1_g82_h38_t44 -1 x_r1_g82 -1 x_r1_g38 >= -1 ;
1 p_r1_g121_h77_t44 -1 x_r1_g121 <= 0 ;
1 p_r1_g121_h77_t44 -1 x_r1_g77 <= 0 ;
1 p_r1_g121_h77_t44 -1 x_r1_g121 -1 x_r1_g77 >= -1 ;
1 p_r1_g124_h80_t44 -1 x_r1_g124 <= 0 ;
1 p_r1_g124_h80_t44 -1 x_r1_g80 <= 0 ;
1 p_r1_g124_h80_t44 -1 x_r1_g124 -1 x_r1_g80 >= -1 ;
1 p_r1_g129_h85_t44 -1 x_r1_g129 <= 0 ;
1 p_r1_g129_h85_t44 -1 x_r1_g85 <= 0 ;
1 p_r1_g129_h85_t44 -1 x_r1_g129 -1 x_r1_g85 >= -1 ;
1 p_r2_g1_h124_t44 -1 x_r2_g1 <= 0 ;
1 p_r2_g1_h124_t44 -1 x_r2_g124 <= 0 ;
1 p_r2_g1_h124_t44 -1 x_r2_g1 -1 x_r2_g124 >= -1 ;
1 p_r2_g32_h155_t44 -1 x_r2_g32 <= 0 ;
1 p_r2_g32_h155_t44 -1 x_r2_g155 <= 0 ;
1 p_r2_g32_h155_t44 -1 x_r2_g32 -1 x_r2_g155 >= -1 ;
1 p_r2_g34_h157_t44 -1 x_r2_g34 <= 0 ;
1 p_r2_g34_h157_t44 -1 x_r2_g157 <= 0 ;
1 p_r2_g34_h157_t44 -1 x_r2_g34 -1 x_r2_g157 >= -1 ;
1 p_r2_g59_h15_t44 -1 x_r2_g59 <= 0 ;
1 p_r2_g59_h15_t44 -1 x_r2_g15 <= 0 ;
1 p_r2_g59_h15_t44 -1 x_r2_g59 -1 x_r2_g15 >= -1 ;
1 p_r2_g95_h51_t44 -1 x_r2_g95 <= 0 ;
1 p_r2_g95_h51_t44 -1 x_r2_g51 <= 0 ;
1 p_r2_g95_h51_t44 -1 x_r2_g95 -1 x_r2_g51 >= -1 ;
1 p_r2_g117_h73_t44 -1 x_r2_g117 <= 0 ;
1 p_r2_g117_h73_t44 -1 x_r2_g73 <= 0 ;
1 p_r2_g117_h73_t44 -1 x_r2_g117 -1 x_r2_g73 >= -1 ;
1 p_r2_g130_h86_t44 -1 x_r2_g130 <= 0 ;
1 p_r2_g130_h86_t44 -1 x_r2_g86 <= 0 ;
1 p_r2_g130_h86_t44 -1 x_r2_g130 -1 x_r2_g86 >= -1 ;
1 p_r2_g161_h117_t44 -1 x_r2_g161 <= 0 ;
1 p_r2_g161_h117_t44 -1 x_r2_g117 <= 0 ;
1 p_r2_g161_h117_t44 -1 x_r2_g161 -1 x_r2_g117 >= -1 ;
1 p_r3_g9_h132_t44 -1 x_r3_g9 <= 0 ;
1 p_r3_g9_h132_t44 -1 x_r3_g132 <= 0 ;
1 p_r3_g9_h132_t44 -1 x_r3_g9 -1 x_r3_g132 >= -1 ;
1 p_r3_g33_h156_t44 -1 x_r3_g33 <= 0 ;
1 p_r3_g33_h156_t44 -1 x_r3_g156 <= 0 ;
1 p_r3_g33_h156_t44 -1 x_r3_g33 -1 x_r3_g156 >= -1 ;
1 p_r3_g45_h1_t44 -1 x_r3_g45 <= 0 ;
1 p_r3_g45_h1_t44 -1 x_r3_g1 <= 0 ;
1 p_r3_g45_h1_t44 -1 x_r3_g45 -1 x_r3_g1 >= -1 ;
1 p_r3_g49_h5_t44 -1 x_r3_g49 <= 0 ;
1 p_r3_g49_h5_t44 -1 x_r3_g5 <= 0 ;
1 p_r3_g49_h5_t44 -1 x_r3_g49 -1 x_r3_g5 >= -1 ;
1 p_r3_g51_h7_t44 -1 x_r3_g51 <= 0 ;
1 p_r3_g51_h7_t44 -1 x_r3_g7 <= 0 ;
1 p_r3_g51_h7_t44 -1 x_r3_g51 -1 x_r3_g7 >= -1 ;
1 p_r3_g53_h9_t44 -1 x_r3_g53 <= 0 ;
1 p_r3_g53_h9_t44 -1 x_r3_g9 <= 0 ;
1 p_r3_g53_h9_t44 -1 x_r3_g53 -1 x_r3_g9 >= -1 ;
1 p_r3_g64_h20_t44 -1 x_r3_g64 <= 0 ;
1 p_r3_g64_h20_t44 -1 x_r3_g20 <= 0 ;
1 p_r3_g64_h20_t44 -1 x_r3_g64 -1 x_r3_g20 >= -1 ;
1 p_r3_g66_h22_t44 -1 x_r3_g66 <= 0 ;
1 p_r3_g66_h22_t44 -1 x_r3_g22 <= 0 ;
1 p_r3_g66_h22_t44 -1 x_r3_g66 -1 x_r3_g22 >= -1 ;
1 p_r3_g69_h25_t44 -1 x_r3_g69 <= 0 ;
1 p_r3_g69_h25_t44 -1 x_r3_g25 <= 0 ;
1 p_r3_g69_h25_t44 -1 x_r3_g69 -1 x_r3_g25 >= -1 ;
1 p_r3_g77_h33_t44 -1 x_r3_g77 <= 0 ;
1 p_r3_g77_h33_t44 -1 x_r3_g33 <= 0 ;
1 p_r3_g77_h33_t44 -1 x_r3_g77 -1 x_r3_g33 >= -1 ;
1 p_r3_g83_h39_t44 -1 x_r3_g83 <= 0 ;
1 p_r3_g83_h39_t44 -1 x_r3_g39 <= 0 ;
1 p_r3_g83_h39_t44 -1 x_r3_g83 -1 x_r3_g39 >= -1 ;
1 p_r3_g117_h73_t44 -1 x_r3_g117 <= 0 ;
1 p_r3_g117_h73_t44 -1 x_r3_g73 <= 0 ;
1 p_r3_g117_h73_t44 -1 x_r3_g117 -1 x_r3_g73 >= -1 ;
1 p_r3_g161_h117_t44 -1 x_r3_g161 <= 0 ;
1 p_r3_g161_h117_t44 -1 x_r3_g117 <= 0 ;
1 p_r3_g161_h117_t44 -1 x_r3_g161 -1 x_r3_g117 >= -1 ;
1 p_r3_g166_h122_t44 -1 x_r3_g166 <= 0 ;
1 p_r3_g166_h122_t44 -1 x_r3_g122 <= 0 ;
1 p_r3_g166_h122_t44 -1 x_r3_g166 -1 x_r3_g122 >= -1 ;
1 d_44 -1 x_r0_g5 -1 x_r0_g7 -1 x_r0_g15 -1 x_r0_g19 -1 x_r0_g24 -1 x_r0_g34 -1 x_r0_g35 -1 x_r0_g47 -1 x_r0_g56 -2 x_r0_g57 -1 x_r0_g74 -1 x_r0_g79 -1 x_r0_g90 -2 x_r0_g93 -1 x_r0_g103 -1 x_r0_g108 -2 x_r0_g121 -1 x_r0_g142 -1 x_r0_g143 -1 x_r0_g144 -1 x_r0_g148 -1 x_r0_g159 -1 x_r0_g163 -1 x_r1_g21 -1 x_r1_g22 -1 x_r1_g23 -1 x_r1_g26 -2 x_r1_g34 -1 x_r1_g35 -1 x_r1_g40 -2 x_r1_g45 -2 x_r1_g64 -1 x_r1_g68 -2 x_r1_g69 -1 x_r1_g80 -2 x_r1_g88 -1 x_r1_g124 -1 x_r1_g128 -1 x_r1_g138 -1 x_r1_g141 -1 x_r1_g144 -1 x_r1_g155 -1 x_r1_g163 -1 x_r2_g1 -2 x_r2_g4 -1 x_r2_g20 -1 x_r2_g21 -1 x_r2_g34 -1 x_r2_g35 -1 x_r2_g44 -1 x_r2_g51 -2 x_r2_g58 -1 x_r2_g74 -2 x_r2_g75 -2 x_r2_g83 -2 x_r2_g85 -2 x_r2_g90 -1 x_r2_g95 -2 x_r2_g104 -1 x_r2_g106 -1 x_r2_g112 -1 x_r2_g121 -1 x_r2_g124 -1 x_r2_g130 -1 x_r2_g141 -1 x_r2_g146 -1 x_r2_g157 -1 x_r2_g162 -1 x_r3_g1 -1 x_r3_g2 -1 x_r3_g5 -2 x_r3_g17 -1 x_r3_g20 -2 x_r3_g21 -1 x_r3_g22 -1 x_r3_g25 -1 x_r3_g26 -2 x_r3_g31 -1 x_r3_g39 -1 x_r3_g42 -1 x_r3_g45 -1 x_r3_g52 -2 x_r3_g62 -1 x_r3_g64 -1 x_r3_g66 -1 x_r3_g68 -1 x_r3_g71 -1 x_r3_g83 -2 x_r3_g118 -1 x_r3_g122 -1 x_r3_g141 -1 x_r3_g156 -1 x_r3_g161 -1 x_r3_g166 -1 p_r0_g12_h135_t44 -1 p_r0_g19_h142_t44 -1 p_r0_g31_h154_t44 -1 p_r0_g55_h11_t44 -1 p_r0_g56_h12_t44 -1 p_r0_g74_h30_t44 -1 p_r0_g79_h35_t44 -1 p_r0_g91_h47_t44 -1 p_r0_g135_h91_t44 -1 p_r0_g163_h119_t44 -1 p_r1_g6_h129_t44 -1 p_r1_g21_h144_t44 -1 p_r1_g38_h161_t44 -1 p_r1_g39_h162_t44 -1 p_r1_g40_h163_t44 -1 p_r1_g50_h6_t44 -1 p_r1_g82_h38_t44 -1 p_r1_g121_h77_t44 -1 p_r1_g124_h80_t44 -1 p_r1_g129_h85_t44 -1 p_r2_g1_h124_t44 -1 p_r2_g32_h155_t44 -1 p_r2_g34_h157_t44 -1 p_r2_g59_h15_t44 -1 p_r2_g95_h51_t44 -1 p_r2_g117_h73_t44 -1 p_r2_g130_h86_t44 -1 p_r2_g161_h117_t44 -1 p_r3_g9_h132_t44 -1 p_r3_g33_h156_t44 -1 p_r3_g45_h1_t44 -1 p_r3_g49_h5_t44 -1 p_r3_g51_h7_t44 -1 p_r3_g53_h9_t44 -1 p_r3_g64_h20_t44 -1 p_r3_g66_h22_t44 -1 p_r3_g69_h25_t44 -1 p_r3_g77_h33_t44 -1 p_r3_g83_h39_t44 -1 p_r3_g117_h73_t44 -1 p_r3_g161_h117_t44 -1 p_r3_g166_h122_t44 = -86 ;
1 d_44 -1 u_44 <= 0 ;
-1 d_44 -1 u_44 <= 0 ;
1 u_44 -1 M <= 0 ;
1 u_44 <= 2 ;
1 p_r0_g19_h119_t67 -1 x_r0_g19 <= 0 ;
1 p_r0_g19_h119_t67 -1 x_r0_g119 <= 0 ;
1 p_r0_g19_h119_t67 -1 x_r0_g19 -1 x_r0_g119 >= -1 ;
1 p_r0_g24_h124_t67 -1 x_r0_g24 <= 0 ;
1 p_r0_g24_h124_t67 -1 x_r0_g124 <= 0 ;
1 p_r0_g24_h124_t67 -1 x_r0_g24 -1 x_r0_g124 >= -1 ;
1 p_r0_g35_h135_t67 -1 x_r0_g35 <= 0 ;
1 p_r0_g35_h135_t67 -1 x_r0_g135 <= 0 ;
1 p_r0_g35_h135_t67 -1 x_r0_g35 -1 x_r0_g135 >= -1 ;
1 p_r0_g74_h7_t67 -1 x_r0_g74 <= 0 ;
1 p_r0_g74_h7_t67 -1 x_r0_g7 <= 0 ;
1 p_r0_g74_h7_t67 -1 x_r0_g74 -1 x_r0_g7 >= -1 ;
1 p_r0_g79_h12_t67 -1 x_r0_g79 <= 0 ;
1 p_r0_g79_h12_t67 -1 x_r0_g12 <= 0 ;
1 p_r0_g79_h12_t67 -1 x_r0_g79 -1 x_r0_g12 >= -1 ;
1 p_r0_g91_h24_t67 -1 x_r0_g91 <= 0 ;
1 p_r0_g91_h24_t67 -1 x_r0_g24 <= 0 ;
1 p_r0_g91_h24_t67 -1 x_r0_g91 -1 x_r0_g24 >= -1 ;
1 p_r0_g124_h57_t67 -1 x_r0_g124 <= 0 ;
1 p_r0_g124_h57_t67 -1 x_r0_g57 <= 0 ;
1 p_r0_g124_h57_t67 -1 x_r0_g124 -1 x_r0_g57 >= -1 ;
1 p_r1_g21_h121_t67 -1 x_r1_g21 <= 0 ;
1 p_r1_g21_h121_t67 -1 x_r1_g121 <= 0 ;
1 p_r1_g21_h121_t67 -1 x_r1_g21 -1 x_r1_g121 >= -1 ;
1 p_r1_g29_h129_t67 -1 x_r1_g29 <= 0 ;
1 p_r1_g29_h129_t67 -1 x_r1_g129 <= 0 ;
1 p_r1_g29_h129_t67 -1 x_r1_g29 -1 x_r1_g129 >= -1 ;
1 p_r1_g38_h138_t67 -1 x_r1_g38 <= 0 ;
1 p_r1_g38_h138_t67 -1 x_r1_g138 <= 0 ;
1 p_r1_g38_h138_t67 -1 x_r1_g38 -1 x_r1_g138 >= -1 ;
1 p_r1_g61_h161_t67 -1 x_r1_g61 <= 0 ;
1 p_r1_g61_h161_t67 -1 x_r1_g161 <= 0 ;
1 p_r1_g61_h161_t67 -1 x_r1_g61 -1 x_r1_g161 >= -1 ;
1 p_r1_g88_h21_t67 -1 x_r1_g88 <= 0 ;
1 p_r1_g88_h21_t67 -1 x_r1_g21 <= 0 ;
1 p_r1_g88_h21_t67 -1 x_r1_g88 -1 x_r1_g21 >= -1 ;
1 p_r1_g128_h61_t67 -1 x_r1_g128 <= 0 ;
1 p_r1_g128_h61_t67 -1 x_r1_g61 <= 0 ;
1 p_r1_g128_h61_t67 -1 x_r1_g128 -1 x_r1_g61 >= -1 ;
1 p_r1_g141_h74_t67 -1 x_r1_g141 <= 0 ;
1 p_r1_g141_h74_t67 -1 x_r1_g74 <= 0 ;
1 p_r1_g141_h74_t67 -1 x_r1_g141 -1 x_r1_g74 >= -1 ;
1 p_r1_g144_h77_t67 -1 x_r1_g144 <= 0 ;
1 p_r1_g144_h77_t67 -1 x_r1_g77 <= 0 ;
1 p_r1_g144_h77_t67 -1 x_r1_g144 -1 x_r1_g77 >= -1 ;
1 p_r1_g155_h88_t67 -1 x_r1_g155 <= 0 ;
1 p_r1_g155_h88_t67 -1 x_r1_g88 <= 0 ;
1 p_r1_g155_h88_t67 -1 x_r1_g155 -1 x_r1_g88 >= -1 ;
1 p_r2_g1_h101_t67 -1 x_r2_g1 <= 0 ;
1 p_r2_g1_h101_t67 -1 x_r2_g101 <= 0 ;
1 p_r2_g1_h101_t67 -1 x_r2_g1 -1 x_r2_g101 >= -1 ;
1 p_r2_g4_h104_t67 -1 x_r2_g4 <= 0 ;
1 p_r2_g4_h104_t67 -1 x_r2_g104 <= 0 ;
1 p_r2_g4_h104_t67 -1 x_r2_g4 -1 x_r2_g104 >= -1 ;
1 p_r2_g21_h121_t67 -1 x_r2_g21 <= 0 ;
1 p_r2_g21_h121_t67 -1 x_r2_g121 <= 0 ;
1 p_r2_g21_h121_t67 -1 x_r2_g21 -1 x_r2_g121 >= -1 ;
1 p_r2_g35_h135_t67 -1 x_r2_g35 <= 0 ;
1 p_r2_g35_h135_t67 -1 x_r2_g135 <= 0 ;
1 p_r2_g35_h135_t67 -1 x_r2_g35 -1 x_r2_g135 >= -1 ;
1 p_r2_g55_h155_t67 -1 x_r2_g55 <= 0 ;
1 p_r2_g55_h155_t67 -1 x_r2_g155 <= 0 ;
1 p_r2_g55_h155_t67 -1 x_r2_g55 -1 x_r2_g155 >= -1 ;
1 p_r2_g101_h34_t67 -1 x_r2_g101 <= 0 ;
1 p_r2_g101_h34_t67 -1 x_r2_g34 <= 0 ;
1 p_r2_g101_h34_t67 -1 x_r2_g101 -1 x_r2_g34 >= -1 ;
1 p_r2_g141_h74_t67 -1 x_r2_g141 <= 0 ;
1 p_r2_g141_h74_t67 -1 x_r2_g74 <= 0 ;
1 p_r2_g141_h74_t67 -1 x_r2_g141 -1 x_r2_g74 >= -1 ;
1 p_r2_g157_h90_t67 -1 x_r2_g157 <= 0 ;
1 p_r2_g157_h90_t67 -1 x_r2_g90 <= 0 ;
1 p_r2_g157_h90_t67 -1 x_r2_g157 -1 x_r2_g90 >= -1 ;
1 p_r2_g162_h95_t67 -1 x_r2_g162 <= 0 ;
1 p_r2_g162_h95_t67 -1 x_r2_g95 <= 0 ;
1 p_r2_g162_h95_t67 -1 x_r2_g162 -1 x_r2_g95 >= -1 ;
1 p_r3_g17_h117_t67 -1 x_r3_g17 <= 0 ;
1 p_r3_g17_h117_t67 -1 x_r3_g117 <= 0 ;
1 p_r3_g17_h117_t67 -1 x_r3_g17 -1 x_r3_g117 >= -1 ;
1 p_r3_g22_h122_t67 -1 x_r3_g22 <= 0 ;
1 p_r3_g22_h122_t67 -1 x_r3_g122 <= 0 ;
1 p_r3_g22_h122_t67 -1 x_r3_g22 -1 x_r3_g122 >= -1 ;
1 p_r3_g66_h166_t67 -1 x_r3_g66 <= 0 ;
1 p_r3_g66_h166_t67 -1 x_r3_g166 <= 0 ;
1 p_r3_g66_h166_t67 -1 x_r3_g66 -1 x_r3_g166 >= -1 ;
1 p_r3_g68_h1_t67 -1 x_r3_g68 <= 0 ;
1 p_r3_g68_h1_t67 -1 x_r3_g1 <= 0 ;
1 p_r3_g68_h1_t67 -1 x_r3_g68 -1 x_r3_g1 >= -1 ;
1 p_r3_g69_h2_t67 -1 x_r3_g69 <= 0 ;
1 p_r3_g69_h2_t67 -1 x_r3_g2 <= 0 ;
1 p_r3_g69_h2_t67 -1 x_r3_g69 -1 x_r3_g2 >= -1 ;
1 p_r3_g118_h51_t67 -1 x_r3_g118 <= 0 ;
1 p_r3_g118_h51_t67 -1 x_r3_g51 <= 0 ;
1 p_r3_g118_h51_t67 -1 x_r3_g118 -1 x_r3_g51 >= -1 ;
1 d_67 -1 x_r0_g11 -2 x_r0_g31 -1 x_r0_g34 -1 x_r0_g35 -1 x_r0_g39 -1 x_r0_g53 -2 x_r0_g55 -1 x_r0_g56 -1 x_r0_g57 -2 x_r0_g60 -1 x_r0_g79 -1 x_r0_g85 -1 x_r0_g90 -1 x_r0_g91 -1 x_r0_g93 -2 x_r0_g103 -1 x_r0_g119 -1 x_r0_g121 -2 x_r0_g125 -1 x_r0_g135 -1 x_r0_g142 -1 x_r0_g143 -1 x_r0_g144 -1 x_r0_g148 -1 x_r0_g154 -1 x_r0_g159 -1 x_r0_g163 -1 x_r1_g8 -1 x_r1_g22 -2 x_r1_g23 -1 x_r1_g29 -2 x_r1_g40 -1 x_r1_g42 -1 x_r1_g45 -1 x_r1_g48 -1 x_r1_g64 -1 x_r1_g68 -1 x_r1_g77 -1 x_r1_g82 -1 x_r1_g85 -2 x_r1_g99 -1 x_r1_g124 -1 x_r1_g127 -1 x_r1_g129 -1 x_r1_g144 -2 x_r1_g162 -1 x_r1_g163 -1 x_r2_g1 -2 x_r2_g15 -1 x_r2_g20 -1 x_r2_g32 -1 x_r2_g34 -1 x_r2_g35 -1 x_r2_g51 -2 x_r2_g52 -2 x_r2_g53 -1 x_r2_g55 -1 x_r2_g58 -1 x_r2_g59 -1 x_r2_g73 -1 x_r2_g74 -1 x_r2_g83 -2 x_r2_g85 -1 x_r2_g86 -1 x_r2_g95 -1 x_r2_g106 -1 x_r2_g112 -2 x_r2_g130 -1 x_r2_g133 -1 x_r2_g135 -1 x_r2_g141 -1 x_r2_g146 -1 x_r2_g147 -2 x_r2_g161 -1 x_r3_g7 -1 x_r3_g9 -1 x_r3_g22 -1 x_r3_g31 -2 x_r3_g39 -1 x_r3_g42 -2 x_r3_g44 -2 x_r3_g45 -1 x_r3_g49 -1 x_r3_g51 -1 x_r3_g52 -2 x_r3_g60 -2 x_r3_g62 -2 x_r3_g71 -2 x_r3_g73 -1 x_r3_g77 -1 x_r3_g118 -1 x_r3_g122 -2 x_r3_g132 -2 x_r3_g141 -1 x_r3_g156 -2 x_r3_g161 -1 x_r3_g166 -1 p_r0_g19_h119_t67 -1 p_r0_g24_h124_t67 -1 p_r0_g35_h135_t67 -1 p_r0_g74_h7_t67 -1 p_r0_g79_h12_t67 -1 p_r0_g91_h24_t67 -1 p_r0_g124_h57_t67 -1 p_r1_g21_h121_t67 -1 p_r1_g29_h129_t67 -1 p_r1_g38_h138_t67 -1 p_r1_g61_h161_t67 -1 p_r1_g88_h21_t67 -1 p_r1_g128_h61_t67 -1 p_r1_g141_h74_t67 -1 p_r1_g144_h77_t67 -1 p_r1_g155_h88_t67 -1 p_r2_g1_h101_t67 -1 p_r2_g4_h104_t67 -1 p_r2_g21_h121_t67 -1 p_r2_g35_h135_t67 -1 p_r2_g55_h155_t67 -1 p_r2_g101_h34_t67 -1 p_r2_g141_h74_t67 -1 p_r2_g157_h90_t67 -1 p_r2_g162_h95_t67 -1 p_r3_g17_h117_t67 -1 p_r3_g22_h122_t67 -1 p_r3_g66_h166_t67 -1 p_r3_g68_h1_t67 -1 p_r3_g69_h2_t67 -1 p_r3_g118_h51_t67 = -63 ;
1 d_67 -1 u_67 <= 0 ;
-1 d_67 -1 u_67 <= 0 ;
1 u_67 -1 M <= 0 ;
1 u_67 <= 0 ;
1 p_r0_g11_h103_t75 -1 x_r0_g11 <= 0 ;
1 p_r0_g11_h103_t75 -1 x_r0_g103 <= 0 ;
1 p_r0_g11_h103_t75 -1 x_r0_g11 -1 x_r0_g103 >= -1 ;
1 p_r0_g56_h148_t75 -1 x_r0_g56 <= 0 ;
1 p_r0_g56_h148_t75 -1 x_r0_g148 <= 0 ;
1 p_r0_g56_h148_t75 -1 x_r0_g56 -1 x_r0_g148 >= -1 ;
1 p_r0_g90_h15_t75 -1 x_r0_g90 <= 0 ;
1 p_r0_g90_h15_t75 -1 x_r0_g15 <= 0 ;
1 p_r0_g90_h15_t75 -1 x_r0_g90 -1 x_r0_g15 >= -1 ;
1 p_r0_g135_h60_t75 -1 x_r0_g135 <= 0 ;
1 p_r0_g135_h60_t75 -1 x_r0_g60 <= 0 ;
1 p_r0_g135_h60_t75 -1 x_r0_g135 -1 x_r0_g60 >= -1 ;
1 p_r0_g154_h79_t75 -1 x_r0_g154 <= 0 ;
1 p_r0_g154_h79_t75 -1 x_r0_g79 <= 0 ;
1 p_r0_g154_h79_t75 -1 x_r0_g154 -1 x_r0_g79 >= -1 ;
1 p_r1_g29_h121_t75 -1 x_r1_g29 <= 0 ;
1 p_r1_g29_h121_t75 -1 x_r1_g121 <= 0 ;
1 p_r1_g29_h121_t75 -1 x_r1_g29 -1 x_r1_g121 >= -1 ;
1 p_r1_g35_h127_t75 -1 x_r1_g35 <= 0 ;
1 p_r1_g35_h127_t75 -1 x_r1_g127 <= 0 ;
1 p_r1_g35_h127_t75 -1 x_r1_g35 -1 x_r1_g127 >= -1 ;
1 p_r1_g38_h130_t75 -1 x_r1_g38 <= 0 ;
1 p_r1_g38_h130_t75 -1 x_r1_g130 <= 0 ;
1 p_r1_g38_h130_t75 -1 x_r1_g38 -1 x_r1_g130 >= -1 ;
1 p_r1_g69_h161_t75 -1 x_r1_g69 <= 0 ;
1 p_r1_g69_h161_t75 -1 x_r1_g161 <= 0 ;
1 p_r1_g69_h161_t75 -1 x_r1_g69 -1 x_r1_g161 >= -1 ;
1 p_r1_g144_h69_t75 -1 x_r1_g144 <= 0 ;
1 p_r1_g144_h69_t75 -1 x_r1_g69 <= 0 ;
1 p_r1_g144_h69_t75 -1 x_r1_g144 -1 x_r1_g69 >= -1 ;
1 p_r1_g155_h80_t75 -1 x_r1_g155 <= 0 ;
1 p_r1_g155_h80_t75 -1 x_r1_g80 <= 0 ;
1 p_r1_g155_h80_t75 -1 x_r1_g155 -1 x_r1_g80 >= -1 ;
1 p_r1_g163_h88_t75 -1 x_r1_g163 <= 0 ;
1 p_r1_g163_h88_t75 -1 x_r1_g88 <= 0 ;
1 p_r1_g163_h88_t75 -1 x_r1_g163 -1 x_r1_g88 >= -1 ;
1 p_r2_g20_h112_t75 -1 x_r2_g20 <= 0 ;
1 p_r2_g20_h112_t75 -1 x_r2_g112 <= 0 ;
1 p_r2_g20_h112_t75 -1 x_r2_g20 -1 x_r2_g112 >= -1 ;
1 p_r2_g32_h124_t75 -1 x_r2_g32 <= 0 ;
1 p_r2_g32_h124_t75 -1 x_r2_g124 <= 0 ;
1 p_r2_g32_h124_t75 -1 x_r2_g32 -1 x_r2_g124 >= -1 ;
1 p_r2_g55_h147_t75 -1 x_r2_g55 <= 0 ;
1 p_r2_g55_h147_t75 -1 x_r2_g147 <= 0 ;
1 p_r2_g55_h147_t75 -1 x_r2_g55 -1 x_r2_g147 >= -1 ;
1 p_r2_g90_h15_t75 -1 x_r2_g90 <= 0 ;
1 p_r2_g90_h15_t75 -1 x_r2_g15 <= 0 ;
1 p_r2_g90_h15_t75 -1 x_r2_g90 -1 x_r2_g15 >= -1 ;
1 p_r2_g95_h20_t75 -1 x_r2_g95 <= 0 ;
1 p_r2_g95_h20_t75 -1 x_r2_g20 <= 0 ;
1 p_r2_g95_h20_t75 -1 x_r2_g95 -1 x_r2_g20 >= -1 ;
1 p_r2_g130_h55_t75 -1 x_r2_g130 <= 0 ;
1 p_r2_g130_h55_t75 -1 x_r2_g55 <= 0 ;
1 p_r2_g130_h55_t75 -1 x_r2_g130 -1 x_r2_g55 >= -1 ;
1 p_r2_g133_h58_t75 -1 x_r2_g133 <= 0 ;
1 p_r2_g133_h58_t75 -1 x_r2_g58 <= 0 ;
1 p_r2_g133_h58_t75 -1 x_r2_g133 -1 x_r2_g58 >= -1 ;
1 p_r2_g161_h86_t75 -1 x_r2_g161 <= 0 ;
1 p_r2_g161_h86_t75 -1 x_r2_g86 <= 0 ;
1 p_r2_g161_h86_t75 -1 x_r2_g161 -1 x_r2_g86 >= -1 ;
1 p_r3_g25_h117_t75 -1 x_r3_g25 <= 0 ;
1 p_r3_g25_h117_t75 -1 x_r3_g117 <= 0 ;
1 p_r3_g25_h117_t75 -1 x_r3_g25 -1 x_r3_g117 >= -1 ;
1 p_r3_g26_h118_t75 -1 x_r3_g26 <= 0 ;
1 p_r3_g26_h118_t75 -1 x_r3_g118 <= 0 ;
1 p_r3_g26_h118_t75 -1 x_r3_g26 -1 x_r3_g118 >= -1 ;
1 p_r3_g49_h141_t75 -1 x_r3_g49 <= 0 ;
1 p_r3_g49_h141_t75 -1 x_r3_g141 <= 0 ;
1 p_r3_g49_h141_t75 -1 x_r3_g49 -1 x_r3_g141 >= -1 ;
1 p_r3_g64_h156_t75 -1 x_r3_g64 <= 0 ;
1 p_r3_g64_h156_t75 -1 x_r3_g156 <= 0 ;
1 p_r3_g64_h156_t75 -1 x_r3_g64 -1 x_r3_g156 >= -1 ;
1 p_r3_g69_h161_t75 -1 x_r3_g69 <= 0 ;
1 p_r3_g69_h161_t75 -1 x_r3_g161 <= 0 ;
1 p_r3_g69_h161_t75 -1 x_r3_g69 -1 x_r3_g161 >= -1 ;
1 p_r3_g77_h2_t75 -1 x_r3_g77 <= 0 ;
1 p_r3_g77_h2_t75 -1 x_r3_g2 <= 0 ;
1 p_r3_g77_h2_t75 -1 x_r3_g77 -1 x_r3_g2 >= -1 ;
1 p_r3_g117_h42_t75 -1 x_r3_g117 <= 0 ;
1 p_r3_g117_h42_t75 -1 x_r3_g42 <= 0 ;
1 p_r3_g117_h42_t75 -1 x_r3_g117 -1 x_r3_g42 >= -1 ;
1 p_r3_g141_h66_t75 -1 x_r3_g141 <= 0 ;
1 p_r3_g141_h66_t75 -1 x_r3_g66 <= 0 ;
1 p_r3_g141_h66_t75 -1 x_r3_g141 -1 x_r3_g66 >= -1 ;
1 d_75 -1 x_r0_g19 -1 x_r0_g24 -1 x_r0_g30 -1 x_r0_g31 -1 x_r0_g34 -1 x_r0_g35 -1 x_r0_g38 -1 x_r0_g39 -2 x_r0_g47 -1 x_r0_g56 -2 x_r0_g57 -1 x_r0_g60 -1 x_r0_g74 -1 x_r0_g85 -1 x_r0_g90 -1 x_r0_g121 -1 x_r0_g124 -1 x_r0_g135 -1 x_r0_g142 -2 x_r0_g143 -1 x_r0_g144 -1 x_r0_g154 -1 x_r0_g159 -1 x_r0_g163 -2 x_r1_g6 -1 x_r1_g8 -2 x_r1_g21 -1 x_r1_g22 -2 x_r1_g23 -1 x_r1_g34 -1 x_r1_g38 -1 x_r1_g39 -2 x_r1_g40 -2 x_r1_g48 -1 x_r1_g64 -1 x_r1_g68 -1 x_r1_g74 -1 x_r1_g82 -2 x_r1_g85 -1 x_r1_g121 -2 x_r1_g124 -2 x_r1_g128 -1 x_r1_g129 -1 x_r1_g138 -2 x_r1_g141 -2 x_r1_g162 -1 x_r2_g21 -1 x_r2_g34 -2 x_r2_g35 -2 x_r2_g44 -1 x_r2_g51 -1 x_r2_g52 -1 x_r2_g53 -1 x_r2_g58 -2 x_r2_g59 -2 x_r2_g73 -2 x_r2_g75 -1 x_r2_g83 -1 x_r2_g85 -1 x_r2_g90 -1 x_r2_g101 -2 x_r2_g106 -1 x_r2_g117 -1 x_r2_g121 -1 x_r2_g124 -1 x_r2_g133 -2 x_r2_g135 -1 x_r2_g141 -2 x_r2_g155 -2 x_r2_g157 -1 x_r3_g1 -1 x_r3_g2 -1 x_r3_g5 -1 x_r3_g7 -1 x_r3_g20 -2 x_r3_g31 -1 x_r3_g33 -1 x_r3_g42 -1 x_r3_g44 -1 x_r3_g45 -1 x_r3_g49 -1 x_r3_g51 -2 x_r3_g52 -2 x_r3_g53 -2 x_r3_g59 -2 x_r3_g62 -1 x_r3_g64 -2 x_r3_g68 -1 x_r3_g69 -2 x_r3_g71 -1 x_r3_g73 -1 x_r3_g83 -1 x_r3_g118 -2 x_r3_g122 -1 x_r3_g132 -1 x_r3_g156 -1 x_r3_g161 -1 x_r3_g166 -1 p_r0_g11_h103_t75 -1 p_r0_g56_h148_t75 -1 p_r0_g90_h15_t75 -1 p_r0_g135_h60_t75 -1 p_r0_g154_h79_t75 -1 p_r1_g29_h121_t75 -1 p_r1_g35_h127_t75 -1 p_r1_g38_h130_t75 -1 p_r1_g69_h161_t75 -1 p_r1_g144_h69_t75 -1 p_r1_g155_h80_t75 -1 p_r1_g163_h88_t75 -1 p_r2_g20_h112_t75 -1 p_r2_g32_h124_t75 -1 p_r2_g55_h147_t75 -1 p_r2_g90_h15_t75 -1 p_r2_g95_h20_t75 -1 p_r2_g130_h55_t75 -1 p_r2_g133_h58_t75 -1 p_r2_g161_h86_t75 -1 p_r3_g25_h117_t75 -1 p_r3_g26_h118_t75 -1 p_r3_g49_h141_t75 -1 p_r3_g64_h156_t75 -1 p_r3_g69_h161_t75 -1 p_r3_g77_h2_t75 -1 p_r3_g117_h42_t75 -1 p_r3_g141_h66_t75 = -67 ;
1 d_75 -1 u_75 <= 0 ;
-1 d_75 -1 u_75 <= 0 ;
1 u_75 -1 M <= 0 ;
1 u_75 <= 0 ;
1 p_r0_g34_h121_t80 -1 x_r0_g34 <= 0 ;
1 p_r0_g34_h121_t80 -1 x_r0_g121 <= 0 ;
1 p_r0_g34_h121_t80 -1 x_r0_g34 -1 x_r0_g121 >= -1 ;
1 p_r0_g38_h125_t80 -1 x_r0_g38 <= 0 ;
1 p_r0_g38_h125_t80 -1 x_r0_g125 <= 0 ;
1 p_r0_g38_h125_t80 -1 x_r0_g38 -1 x_r0_g125 >= -1 ;
1 p_r0_g55_h142_t80 -1 x_r0_g55 <= 0 ;
1 p_r0_g55_h142_t80 -1 x_r0_g142 <= 0 ;
1 p_r0_g55_h142_t80 -1 x_r0_g55 -1 x_r0_g142 >= -1 ;
1 p_r0_g56_h143_t80 -1 x_r0_g56 <= 0 ;
1 p_r0_g56_h143_t80 -1 x_r0_g143 <= 0 ;
1 p_r0_g56_h143_t80 -1 x_r0_g56 -1 x_r0_g143 >= -1 ;
1 p_r0_g57_h144_t80 -1 x_r0_g57 <= 0 ;
1 p_r0_g57_h144_t80 -1 x_r0_g144 <= 0 ;
1 p_r0_g57_h144_t80 -1 x_r0_g57 -1 x_r0_g144 >= -1 ;
1 p_r0_g85_h5_t80 -1 x_r0_g85 <= 0 ;
1 p_r0_g85_h5_t80 -1 x_r0_g5 <= 0 ;
1 p_r0_g85_h5_t80 -1 x_r0_g85 -1 x_r0_g5 >= -1 ;
1 p_r0_g91_h11_t80 -1 x_r0_g91 <= 0 ;
1 p_r0_g91_h11_t80 -1 x_r0_g11 <= 0 ;
1 p_r0_g91_h11_t80 -1 x_r0_g91 -1 x_r0_g11 >= -1 ;
1 p_r0_g119_h39_t80 -1 x_r0_g119 <= 0 ;
1 p_r0_g119_h39_t80 -1 x_r0_g39 <= 0 ;
1 p_r0_g119_h39_t80 -1 x_r0_g119 -1 x_r0_g39 >= -1 ;
1 p_r0_g135_h55_t80 -1 x_r0_g135 <= 0 ;
1 p_r0_g135_h55_t80 -1 x_r0_g55 <= 0 ;
1 p_r0_g135_h55_t80 -1 x_r0_g135 -1 x_r0_g55 >= -1 ;
1 p_r0_g154_h74_t80 -1 x_r0_g154 <= 0 ;
1 p_r0_g154_h74_t80 -1 x_r0_g74 <= 0 ;
1 p_r0_g154_h74_t80 -1 x_r0_g154 -1 x_r0_g74 >= -1 ;
1 p_r0_g159_h79_t80 -1 x_r0_g159 <= 0 ;
1 p_r0_g159_h79_t80 -1 x_r0_g79 <= 0 ;
1 p_r0_g159_h79_t80 -1 x_r0_g159 -1 x_r0_g79 >= -1 ;
1 p_r1_g34_h121_t80 -1 x_r1_g34 <= 0 ;
1 p_r1_g34_h121_t80 -1 x_r1_g121 <= 0 ;
1 p_r1_g34_h121_t80 -1 x_r1_g34 -1 x_r1_g121 >= -1 ;
1 p_r1_g40_h127_t80 -1 x_r1_g40 <= 0 ;
1 p_r1_g40_h127_t80 -1 x_r1_g127 <= 0 ;
1 p_r1_g40_h127_t80 -1 x_r1_g40 -1 x_r1_g127 >= -1 ;
1 p_r1_g42_h129_t80 -1 x_r1_g42 <= 0 ;
1 p_r1_g42_h129_t80 -1 x_r1_g129 <= 0 ;
1 p_r1_g42_h129_t80 -1 x_r1_g42 -1 x_r1_g129 >= -1 ;
1 p_r1_g68_h155_t80 -1 x_r1_g68 <= 0 ;
1 p_r1_g68_h155_t80 -1 x_r1_g155 <= 0 ;
1 p_r1_g68_h155_t80 -1 x_r1_g68 -1 x_r1_g155 >= -1 ;
1 p_r1_g74_h161_t80 -1 x_r1_g74 <= 0 ;
1 p_r1_g74_h161_t80 -1 x_r1_g161 <= 0 ;
1 p_r1_g74_h161_t80 -1 x_r1_g74 -1 x_r1_g161 >= -1 ;
1 p_r1_g88_h8_t80 -1 x_r1_g88 <= 0 ;
1 p_r1_g88_h8_t80 -1 x_r1_g8 <= 0 ;
1 p_r1_g88_h8_t80 -1 x_r1_g88 -1 x_r1_g8 >= -1 ;
1 p_r1_g128_h48_t80 -1 x_r1_g128 <= 0 ;
1 p_r1_g128_h48_t80 -1 x_r1_g48 <= 0 ;
1 p_r1_g128_h48_t80 -1 x_r1_g128 -1 x_r1_g48 >= -1 ;
1 p_r1_g130_h50_t80 -1 x_r1_g130 <= 0 ;
1 p_r1_g130_h50_t80 -1 x_r1_g50 <= 0 ;
1 p_r1_g130_h50_t80 -1 x_r1_g130 -1 x_r1_g50 >= -1 ;
1 p_r1_g141_h61_t80 -1 x_r1_g141 <= 0 ;
1 p_r1_g141_h61_t80 -1 x_r1_g61 <= 0 ;
1 p_r1_g141_h61_t80 -1 x_r1_g141 -1 x_r1_g61 >= -1 ;
1 p_r1_g144_h64_t80 -1 x_r1_g144 <= 0 ;
1 p_r1_g144_h64_t80 -1 x_r1_g64 <= 0 ;
1 p_r1_g144_h64_t80 -1 x_r1_g144 -1 x_r1_g64 >= -1 ;
1 p_r1_g162_h82_t80 -1 x_r1_g162 <= 0 ;
1 p_r1_g162_h82_t80 -1 x_r1_g82 <= 0 ;
1 p_r1_g162_h82_t80 -1 x_r1_g162 -1 x_r1_g82 >= -1 ;
1 p_r2_g34_h121_t80 -1 x_r2_g34 <= 0 ;
1 p_r2_g34_h121_t80 -1 x_r2_g121 <= 0 ;
1 p_r2_g34_h121_t80 -1 x_r2_g34 -1 x_r2_g121 >= -1 ;
1 p_r2_g59_h146_t80 -1 x_r2_g59 <= 0 ;
1 p_r2_g59_h146_t80 -1 x_r2_g146 <= 0 ;
1 p_r2_g59_h146_t80 -1 x_r2_g59 -1 x_r2_g146 >= -1 ;
1 p_r2_g74_h161_t80 -1 x_r2_g74 <= 0 ;
1 p_r2_g74_h161_t80 -1 x_r2_g161 <= 0 ;
1 p_r2_g74_h161_t80 -1 x_r2_g74 -1 x_r2_g161 >= -1 ;
1 p_r2_g75_h162_t80 -1 x_r2_g75 <= 0 ;
1 p_r2_g75_h162_t80 -1 x_r2_g162 <= 0 ;
1 p_r2_g75_h162_t80 -1 x_r2_g75 -1 x_r2_g162 >= -1 ;
1 p_r2_g95_h15_t80 -1 x_r2_g95 <= 0 ;
1 p_r2_g95_h15_t80 -1 x_r2_g15 <= 0 ;
1 p_r2_g95_h15_t80 -1 x_r2_g95 -1 x_r2_g15 >= -1 ;
1 p_r2_g101_h21_t80 -1 x_r2_g101 <= 0 ;
1 p_r2_g101_h21_t80 -1 x_r2_g21 <= 0 ;
1 p_r2_g101_h21_t80 -1 x_r2_g101 -1 x_r2_g21 >= -1 ;
1 p_r2_g112_h32_t80 -1 x_r2_g112 <= 0 ;
1 p_r2_g112_h32_t80 -1 x_r2_g32 <= 0 ;
1 p_r2_g112_h32_t80 -1 x_r2_g112 -1 x_r2_g32 >= -1 ;
1 p_r2_g124_h44_t80 -1 x_r2_g124 <= 0 ;
1 p_r2_g124_h44_t80 -1 x_r2_g44 <= 0 ;
1 p_r2_g124_h44_t80 -1 x_r2_g124 -1 x_r2_g44 >= -1 ;
1 p_r2_g133_h53_t80 -1 x_r2_g133 <= 0 ;
1 p_r2_g133_h53_t80 -1 x_r2_g53 <= 0 ;
1 p_r2_g133_h53_t80 -1 x_r2_g133 -1 x_r2_g53 >= -1 ;
1 p_r2_g135_h55_t80 -1 x_r2_g135 <= 0 ;
1 p_r2_g135_h55_t80 -1 x_r2_g55 <= 0 ;
1 p_r2_g135_h55_t80 -1 x_r2_g135 -1 x_r2_g55 >= -1 ;
1 p_r2_g155_h75_t80 -1 x_r2_g155 <= 0 ;
1 p_r2_g155_h75_t80 -1 x_r2_g75 <= 0 ;
1 p_r2_g155_h75_t80 -1 x_r2_g155 -1 x_r2_g75 >= -1 ;
1 p_r3_g31_h118_t80 -1 x_r3_g31 <= 0 ;
1 p_r3_g31_h118_t80 -1 x_r3_g118 <= 0 ;
1 p_r3_g31_h118_t80 -1 x_r3_g31 -1 x_r3_g118 >= -1 ;
1 p_r3_g45_h132_t80 -1 x_r3_g45 <= 0 ;
1 p_r3_g45_h132_t80 -1 x_r3_g132 <= 0 ;
1 p_r3_g45_h132_t80 -1 x_r3_g45 -1 x_r3_g132 >= -1 ;
1 p_r3_g69_h156_t80 -1 x_r3_g69 <= 0 ;
1 p_r3_g69_h156_t80 -1 x_r3_g156 <= 0 ;
1 p_r3_g69_h156_t80 -1 x_r3_g69 -1 x_r3_g156 >= -1 ;
1 p_r3_g122_h42_t80 -1 x_r3_g122 <= 0 ;
1 p_r3_g122_h42_t80 -1 x_r3_g42 <= 0 ;
1 p_r3_g122_h42_t80 -1 x_r3_g122 -1 x_r3_g42 >= -1 ;
1 p_r3_g132_h52_t80 -1 x_r3_g132 <= 0 ;
1 p_r3_g132_h52_t80 -1 x_r3_g52 <= 0 ;
1 p_r3_g132_h52_t80 -1 x_r3_g132 -1 x_r3_g52 >= -1 ;
1 d_80 -1 x_r0_g11 -1 x_r0_g15 -1 x_r0_g24 -2 x_r0_g31 -1 x_r0_g35 -1 x_r0_g38 -1 x_r0_g39 -1 x_r0_g47 -1 x_r0_g56 -1 x_r0_g57 -1 x_r0_g85 -1 x_r0_g90 -2 x_r0_g93 -1 x_r0_g124 -1 x_r0_g125 -1 x_r0_g135 -1 x_r0_g142 -1 x_r0_g143 -1 x_r0_g148 -1 x_r0_g154 -1 x_r1_g8 -1 x_r1_g21 -1 x_r1_g22 -1 x_r1_g23 -1 x_r1_g26 -1 x_r1_g29 -1 x_r1_g34 -1 x_r1_g35 -1 x_r1_g39 -1 x_r1_g45 -1 x_r1_g69 -1 x_r1_g74 -2 x_r1_g77 -1 x_r1_g80 -1 x_r1_g88 -2 x_r1_g124 -1 x_r1_g129 -1 x_r1_g144 -1 x_r1_g161 -1 x_r2_g15 -1 x_r2_g32 -1 x_r2_g34 -2 x_r2_g35 -2 x_r2_g52 -1 x_r2_g53 -1 x_r2_g59 -2 x_r2_g73 -1 x_r2_g83 -1 x_r2_g85 -1 x_r2_g101 -1 x_r2_g106 -1 x_r2_g112 -1 x_r2_g117 -1 x_r2_g121 -1 x_r2_g130 -1 x_r2_g133 -1 x_r2_g135 -1 x_r2_g141 -1 x_r2_g147 -1 x_r2_g155 -1 x_r2_g162 -1 x_r3_g1 -1 x_r3_g2 -1 x_r3_g7 -1 x_r3_g9 -1 x_r3_g21 -1 x_r3_g25 -1 x_r3_g26 -1 x_r3_g31 -1 x_r3_g39 -1 x_r3_g42 -1 x_r3_g44 -1 x_r3_g49 -1 x_r3_g51 -1 x_r3_g52 -1 x_r3_g53 -2 x_r3_g59 -1 x_r3_g60 -2 x_r3_g62 -2 x_r3_g64 -1 x_r3_g66 -1 x_r3_g68 -1 x_r3_g69 -1 x_r3_g71 -1 x_r3_g73 -1 x_r3_g83 -2 x_r3_g117 -1 x_r3_g118 -1 x_r3_g141 -1 x_r3_g156 -2 x_r3_g161 -1 x_r3_g166 -1 p_r0_g34_h121_t80 -1 p_r0_g38_h125_t80 -1 p_r0_g55_h142_t80 -1 p_r0_g56_h143_t80 -1 p_r0_g57_h144_t80 -1 p_r0_g85_h5_t80 -1 p_r0_g91_h11_t80 -1 p_r0_g119_h39_t80 -1 p_r0_g135_h55_t80 -1 p_r0_g154_h74_t80 -1 p_r0_g159_h79_t80 -1 p_r1_g34_h121_t80 -1 p_r1_g40_h127_t80 -1 p_r1_g42_h129_t80 -1 p_r1_g68_h155_t80 -1 p_r1_g74_h161_t80 -1 p_r1_g88_h8_t80 -1 p_r1_g128_h48_t80 -1 p_r1_g130_h50_t80 -1 p_r1_g141_h61_t80 -1 p_r1_g144_h64_t80 -1 p_r1_g162_h82_t80 -1 p_r2_g34_h121_t80 -1 p_r2_g59_h146_t80 -1 p_r2_g74_h161_t80 -1 p_r2_g75_h162_t80 -1 p_r2_g95_h15_t80 -1 p_r2_g101_h21_t80 -1 p_r2_g112_h32_t80 -1 p_r2_g124_h44_t80 -1 p_r2_g133_h53_t80 -1 p_r2_g135_h55_t80 -1 p_r2_g155_h75_t80 -1 p_r3_g31_h118_t80 -1 p_r3_g45_h132_t80 -1 p_r3_g69_h156_t80 -1 p_r3_g122_h42_t80 -1 p_r3_g132_h52_t80 = -47 ;
1 d_80 -1 u_80 <= 0 ;
-1 d_80 -1 u_80 <= 0 ;
1 u_80 -1 M <= 0 ;
1 u_80 <= 1 ;
1 M <= 3 ;
10 u_5 1 u_12 10 u_27 1 u_29 1 u_34 1 u_36 1 u_40 1 u_42 1 u_44 1 u_67 1 u_75 1 u_80 <= 50 ;
1 F -1 x_r0_g17 -1 x_r0_g24 -1 x_r0_g31 -1 x_r0_g35 -1 x_r0_g39 -1 x_r0_g53 -1 x_r0_g56 -1 x_r0_g57 -1 x_r0_g60 -1 x_r0_g79 -1 x_r0_g85 -1 x_r0_g93 -1 x_r0_g108 -1 x_r0_g121 -1 x_r0_g124 -1 x_r0_g125 -1 x_r0_g135 -1 x_r0_g144 -1 x_r0_g148 -1 x_r0_g154 -1 x_r1_g6 -1 x_r1_g8 -1 x_r1_g21 -1 x_r1_g22 -1 x_r1_g23 -1 x_r1_g34 -1 x_r1_g35 -1 x_r1_g45 -1 x_r1_g48 -1 x_r1_g50 -1 x_r1_g61 -1 x_r1_g74 -1 x_r1_g77 -1 x_r1_g85 -1 x_r1_g99 -1 x_r1_g121 -1 x_r1_g129 -1 x_r1_g144 -1 x_r1_g161 -1 x_r1_g162 -1 x_r2_g15 -1 x_r2_g32 -1 x_r2_g35 -1 x_r2_g44 -1 x_r2_g51 -1 x_r2_g52 -1 x_r2_g53 -1 x_r2_g55 -1 x_r2_g59 -1 x_r2_g73 -1 x_r2_g95 -1 x_r2_g106 -1 x_r2_g117 -1 x_r2_g124 -1 x_r2_g133 -1 x_r2_g135 -1 x_r2_g146 -1 x_r2_g147 -1 x_r2_g155 -1 x_r2_g162 -1 x_r3_g7 -1 x_r3_g21 -1 x_r3_g25 -1 x_r3_g31 -1 x_r3_g33 -1 x_r3_g42 -1 x_r3_g44 -1 x_r3_g51 -1 x_r3_g52 -1 x_r3_g60 -1 x_r3_g64 -1 x_r3_g69 -1 x_r3_g71 -1 x_r3_g73 -1 x_r3_g77 -1 x_r3_g117 -1 x_r3_g132 -1 x_r3_g141 -1 x_r3_g156 -1 x_r3_g161 1 x_r0_g5 1 x_r0_g7 1 x_r0_g11 1 x_r0_g12 1 x_r0_g15 1 x_r0_g19 1 x_r0_g30 1 x_r0_g34 1 x_r0_g38 1 x_r0_g47 1 x_r0_g55 1 x_r0_g74 1 x_r0_g90 1 x_r0_g91 1 x_r0_g103 1 x_r0_g119 1 x_r0_g142 1 x_r0_g143 1 x_r0_g159 1 x_r0_g163 1 x_r1_g26 1 x_r1_g29 1 x_r1_g38 1 x_r1_g39 1 x_r1_g40 1 x_r1_g42 1 x_r1_g64 1 x_r1_g68 1 x_r1_g69 1 x_r1_g80 1 x_r1_g82 1 x_r1_g88 1 x_r1_g124 1 x_r1_g127 1 x_r1_g128 1 x_r1_g130 1 x_r1_g138 1 x_r1_g141 1 x_r1_g155 1 x_r1_g163 1 x_r2_g1 1 x_r2_g4 1 x_r2_g20 1 x_r2_g21 1 x_r2_g34 1 x_r2_g58 1 x_r2_g74 1 x_r2_g75 1 x_r2_g83 1 x_r2_g85 1 x_r2_g86 1 x_r2_g90 1 x_r2_g101 1 x_r2_g104 1 x_r2_g112 1 x_r2_g121 1 x_r2_g130 1 x_r2_g141 1 x_r2_g157 1 x_r2_g161 1 x_r3_g1 1 x_r3_g2 1 x_r3_g5 1 x_r3_g9 1 x_r3_g17 1 x_r3_g20 1 x_r3_g22 1 x_r3_g26 1 x_r3_g39 1 x_r3_g45 1 x_r3_g49 1 x_r3_g53 1 x_r3_g59 1 x_r3_g62 1 x_r3_g66 1 x_r3_g68 1 x_r3_g83 1 x_r3_g118 1 x_r3_g122 1 x_r3_g166 = 80 ;
1 F <= 6 ;
