Minimize
 obj: M
Subject To
 block_size_0: 1 x_r0_g1 + 1 x_r0_g4 + 1 x_r0_g5 + 1 x_r0_g7 + 1 x_r0_g11 + 1 x_r0_g12 + 1 x_r0_g15 + 1 x_r0_g19 + 1 x_r0_g24 + 1 x_r0_g34 + 1 x_r0_g39 + 1 x_r0_g47 + 1 x_r0_g53 + 1 x_r0_g56 + 1 x_r0_g57 + 1 x_r0_g65 + 1 x_r0_g66 + 1 x_r0_g69 + 1 x_r0_g72 + 1 x_r0_g74 + 1 x_r0_g79 + 1 x_r0_g85 + 1 x_r0_g89 + 1 x_r0_g91 + 1 x_r0_g93 + 1 x_r0_g103 + 1 x_r0_g106 + 1 x_r0_g108 + 1 x_r0_g112 + 1 x_r0_g119 + 1 x_r0_g124 + 1 x_r0_g126 + 1 x_r0_g135 + 1 x_r0_g136 + 1 x_r0_g142 + 1 x_r0_g143 + 1 x_r0_g146 + 1 x_r0_g150 + 1 x_r0_g159 + 1 x_r0_g163 = 20
 block_size_1: 1 x_r1_g1 + 1 x_r1_g5 + 1 x_r1_g6 + 1 x_r1_g21 + 1 x_r1_g23 + 1 x_r1_g29 + 1 x_r1_g34 + 1 x_r1_g36 + 1 x_r1_g40 + 1 x_r1_g42 + 1 x_r1_g43 + 1 x_r1_g48 + 1 x_r1_g50 + 1 x_r1_g56 + 1 x_r1_g60 + 1 x_r1_g61 + 1 x_r1_g64 + 1 x_r1_g68 + 1 x_r1_g69 + 1 x_r1_g74 + 1 x_r1_g76 + 1 x_r1_g77 + 1 x_r1_g82 + 1 x_r1_g84 + 1 x_r1_g88 + 1 x_r1_g98 + 1 x_r1_g99 + 1 x_r1_g104 + 1 x_r1_g109 + 1 x_r1_g124 + 1 x_r1_g127 + 1 x_r1_g129 + 1 x_r1_g138 + 1 x_r1_g141 + 1 x_r1_g145 + 1 x_r1_g148 + 1 x_r1_g155 + 1 x_r1_g161 + 1 x_r1_g162 + 1 x_r1_g163 = 20
 block_size_2: 1 x_r2_g13 + 1 x_r2_g15 + 1 x_r2_g21 + 1 x_r2_g27 + 1 x_r2_g30 + 1 x_r2_g32 + 1 x_r2_g34 + 1 x_r2_g35 + 1 x_r2_g40 + 1 x_r2_g45 + 1 x_r2_g51 + 1 x_r2_g52 + 1 x_r2_g53 + 1 x_r2_g58 + 1 x_r2_g61 + 1 x_r2_g73 + 1 x_r2_g74 + 1 x_r2_g83 + 1 x_r2_g85 + 1 x_r2_g91 + 1 x_r2_g93 + 1 x_r2_g101 + 1 x_r2_g103 + 1 x_r2_g104 + 1 x_r2_g105 + 1 x_r2_g106 + 1 x_r2_g111 + 1 x_r2_g112 + 1 x_r2_g118 + 1 x_r2_g119 + 1 x_r2_g124 + 1 x_r2_g130 + 1 x_r2_g133 + 1 x_r2_g135 + 1 x_r2_g139 + 1 x_r2_g141 + 1 x_r2_g147 + 1 x_r2_g157 + 1 x_r2_g161 + 1 x_r2_g162 = 20
 block_size_3: 1 x_r3_g5 + 1 x_r3_g17 + 1 x_r3_g21 + 1 x_r3_g22 + 1 x_r3_g23 + 1 x_r3_g24 + 1 x_r3_g25 + 1 x_r3_g26 + 1 x_r3_g31 + 1 x_r3_g34 + 1 x_r3_g38 + 1 x_r3_g39 + 1 x_r3_g42 + 1 x_r3_g51 + 1 x_r3_g53 + 1 x_r3_g60 + 1 x_r3_g62 + 1 x_r3_g66 + 1 x_r3_g68 + 1 x_r3_g69 + 1 x_r3_g73 + 1 x_r3_g83 + 1 x_r3_g87 + 1 x_r3_g89 + 1 x_r3_g90 + 1 x_r3_g96 + 1 x_r3_g100 + 1 x_r3_g117 + 1 x_r3_g118 + 1 x_r3_g124 + 1 x_r3_g125 + 1 x_r3_g137 + 1 x_r3_g149 + 1 x_r3_g151 + 1 x_r3_g153 + 1 x_r3_g154 + 1 x_r3_g156 + 1 x_r3_g158 + 1 x_r3_g161 + 1 x_r3_g166 = 20
 lin1_3_0_4: p_r0_g4_h1_t3 - x_r0_g4 <= 0
 lin2_3_0_4: p_r0_g4_h1_t3 - x_r0_g1 <= 0
 lin3_3_0_4: p_r0_g4_h1_t3 - x_r0_g4 - x_r0_g1 >= -1
 lin1_3_0_7: p_r0_g7_h4_t3 - x_r0_g7 <= 0
 lin2_3_0_7: p_r0_g7_h4_t3 - x_r0_g4 <= 0
 lin3_3_0_7: p_r0_g7_h4_t3 - x_r0_g7 - x_r0_g4 >= -1
 lin1_3_0_15: p_r0_g15_h12_t3 - x_r0_g15 <= 0
 lin2_3_0_15: p_r0_g15_h12_t3 - x_r0_g12 <= 0
 lin3_3_0_15: p_r0_g15_h12_t3 - x_r0_g15 - x_r0_g12 >= -1
 lin1_3_0_56: p_r0_g56_h53_t3 - x_r0_g56 <= 0
 lin2_3_0_56: p_r0_g56_h53_t3 - x_r0_g53 <= 0
 lin3_3_0_56: p_r0_g56_h53_t3 - x_r0_g56 - x_r0_g53 >= -1
 lin1_3_0_69: p_r0_g69_h66_t3 - x_r0_g69 <= 0
 lin2_3_0_69: p_r0_g69_h66_t3 - x_r0_g66 <= 0
 lin3_3_0_69: p_r0_g69_h66_t3 - x_r0_g69 - x_r0_g66 >= -1
 lin1_3_0_72: p_r0_g72_h69_t3 - x_r0_g72 <= 0
 lin2_3_0_72: p_r0_g72_h69_t3 - x_r0_g69 <= 0
 lin3_3_0_72: p_r0_g72_h69_t3 - x_r0_g72 - x_r0_g69 >= -1
 lin1_3_0_106: p_r0_g106_h103_t3 - x_r0_g106 <= 0
 lin2_3_0_106: p_r0_g106_h103_t3 - x_r0_g103 <= 0
 lin3_3_0_106: p_r0_g106_h103_t3 - x_r0_g106 - x_r0_g103 >= -1
 lin1_3_0_146: p_r0_g146_h143_t3 - x_r0_g146 <= 0
 lin2_3_0_146: p_r0_g146_h143_t3 - x_r0_g143 <= 0
 lin3_3_0_146: p_r0_g146_h143_t3 - x_r0_g146 - x_r0_g143 >= -1
 lin1_3_1_43: p_r1_g43_h40_t3 - x_r1_g43 <= 0
 lin2_3_1_43: p_r1_g43_h40_t3 - x_r1_g40 <= 0
 lin3_3_1_43: p_r1_g43_h40_t3 - x_r1_g43 - x_r1_g40 >= -1
 lin1_3_1_64: p_r1_g64_h61_t3 - x_r1_g64 <= 0
 lin2_3_1_64: p_r1_g64_h61_t3 - x_r1_g61 <= 0
 lin3_3_1_64: p_r1_g64_h61_t3 - x_r1_g64 - x_r1_g61 >= -1
 lin1_3_1_77: p_r1_g77_h74_t3 - x_r1_g77 <= 0
 lin2_3_1_77: p_r1_g77_h74_t3 - x_r1_g74 <= 0
 lin3_3_1_77: p_r1_g77_h74_t3 - x_r1_g77 - x_r1_g74 >= -1
 lin1_3_1_127: p_r1_g127_h124_t3 - x_r1_g127 <= 0
 lin2_3_1_127: p_r1_g127_h124_t3 - x_r1_g124 <= 0
 lin3_3_1_127: p_r1_g127_h124_t3 - x_r1_g127 - x_r1_g124 >= -1
 lin1_3_1_141: p_r1_g141_h138_t3 - x_r1_g141 <= 0
 lin2_3_1_141: p_r1_g141_h138_t3 - x_r1_g138 <= 0
 lin3_3_1_141: p_r1_g141_h138_t3 - x_r1_g141 - x_r1_g138 >= -1
 lin1_3_1_148: p_r1_g148_h145_t3 - x_r1_g148 <= 0
 lin2_3_1_148: p_r1_g148_h145_t3 - x_r1_g145 <= 0
 lin3_3_1_148: p_r1_g148_h145_t3 - x_r1_g148 - x_r1_g145 >= -1
 lin1_3_2_30: p_r2_g30_h27_t3 - x_r2_g30 <= 0
 lin2_3_2_30: p_r2_g30_h27_t3 - x_r2_g27 <= 0
 lin3_3_2_30: p_r2_g30_h27_t3 - x_r2_g30 - x_r2_g27 >= -1
 lin1_3_2_35: p_r2_g35_h32_t3 - x_r2_g35 <= 0
 lin2_3_2_35: p_r2_g35_h32_t3 - x_r2_g32 <= 0
 lin3_3_2_35: p_r2_g35_h32_t3 - x_r2_g35 - x_r2_g32 >= -1
 lin1_3_2_61: p_r2_g61_h58_t3 - x_r2_g61 <= 0
 lin2_3_2_61: p_r2_g61_h58_t3 - x_r2_g58 <= 0
 lin3_3_2_61: p_r2_g61_h58_t3 - x_r2_g61 - x_r2_g58 >= -1
 lin1_3_2_104: p_r2_g104_h101_t3 - x_r2_g104 <= 0
 lin2_3_2_104: p_r2_g104_h101_t3 - x_r2_g101 <= 0
 lin3_3_2_104: p_r2_g104_h101_t3 - x_r2_g104 - x_r2_g101 >= -1
 lin1_3_2_106: p_r2_g106_h103_t3 - x_r2_g106 <= 0
 lin2_3_2_106: p_r2_g106_h103_t3 - x_r2_g103 <= 0
 lin3_3_2_106: p_r2_g106_h103_t3 - x_r2_g106 - x_r2_g103 >= -1
 lin1_3_2_133: p_r2_g133_h130_t3 - x_r2_g133 <= 0
 lin2_3_2_133: p_r2_g133_h130_t3 - x_r2_g130 <= 0
 lin3_3_2_133: p_r2_g133_h130_t3 - x_r2_g133 - x_r2_g130 >= -1
 lin1_3_3_24: p_r3_g24_h21_t3 - x_r3_g24 <= 0
 lin2_3_3_24: p_r3_g24_h21_t3 - x_r3_g21 <= 0
 lin3_3_3_24: p_r3_g24_h21_t3 - x_r3_g24 - x_r3_g21 >= -1
 lin1_3_3_25: p_r3_g25_h22_t3 - x_r3_g25 <= 0
 lin2_3_3_25: p_r3_g25_h22_t3 - x_r3_g22 <= 0
 lin3_3_3_25: p_r3_g25_h22_t3 - x_r3_g25 - x_r3_g22 >= -1
 lin1_3_3_26: p_r3_g26_h23_t3 - x_r3_g26 <= 0
 lin2_3_3_26: p_r3_g26_h23_t3 - x_r3_g23 <= 0
 lin3_3_3_26: p_r3_g26_h23_t3 - x_r3_g26 - x_r3_g23 >= -1
 lin1_3_3_34: p_r3_g34_h31_t3 - x_r3_g34 <= 0
 lin2_3_3_34: p_r3_g34_h31_t3 - x_r3_g31 <= 0
 lin3_3_3_34: p_r3_g34_h31_t3 - x_r3_g34 - x_r3_g31 >= -1
 lin1_3_3_42: p_r3_g42_h39_t3 - x_r3_g42 <= 0
 lin2_3_3_42: p_r3_g42_h39_t3 - x_r3_g39 <= 0
 lin3_3_3_42: p_r3_g42_h39_t3 - x_r3_g42 - x_r3_g39 >= -1
 lin1_3_3_69: p_r3_g69_h66_t3 - x_r3_g69 <= 0
 lin2_3_3_69: p_r3_g69_h66_t3 - x_r3_g66 <= 0
 lin3_3_3_69: p_r3_g69_h66_t3 - x_r3_g69 - x_r3_g66 >= -1
 lin1_3_3_90: p_r3_g90_h87_t3 - x_r3_g90 <= 0
 lin2_3_3_90: p_r3_g90_h87_t3 - x_r3_g87 <= 0
 lin3_3_3_90: p_r3_g90_h87_t3 - x_r3_g90 - x_r3_g87 >= -1
 lin1_3_3_154: p_r3_g154_h151_t3 - x_r3_g154 <= 0
 lin2_3_3_154: p_r3_g154_h151_t3 - x_r3_g151 <= 0
 lin3_3_3_154: p_r3_g154_h151_t3 - x_r3_g154 - x_r3_g151 >= -1
 lin1_3_3_156: p_r3_g156_h153_t3 - x_r3_g156 <= 0
 lin2_3_3_156: p_r3_g156_h153_t3 - x_r3_g153 <= 0
 lin3_3_3_156: p_r3_g156_h153_t3 - x_r3_g156 - x_r3_g153 >= -1
 lin1_3_3_161: p_r3_g161_h158_t3 - x_r3_g161 <= 0
 lin2_3_3_161: p_r3_g161_h158_t3 - x_r3_g158 <= 0
 lin3_3_3_161: p_r3_g161_h158_t3 - x_r3_g161 - x_r3_g158 >= -1
 defect_3: 1 d_3 - 1 x_r0_g1 - 1 x_r0_g11 - 1 x_r0_g34 - 2 x_r0_g39 - 1 x_r0_g56 - 1 x_r0_g57 - 2 x_r0_g65 - 1 x_r0_g66 - 1 x_r0_g74 - 1 x_r0_g85 - 1 x_r0_g91 - 1 x_r0_g93 - 1 x_r0_g103 - 1 x_r0_g108 - 2 x_r0_g119 - 1 x_r0_g124 - 1 x_r0_g126 - 1 x_r0_g135 - 1 x_r0_g136 - 1 x_r0_g142 - 1 x_r0_g146 - 1 x_r0_g163 - 1 x_r1_g6 - 1 x_r1_g21 - 2 x_r1_g23 - 2 x_r1_g29 - 2 x_r1_g34 - 1 x_r1_g36 - 1 x_r1_g40 - 1 x_r1_g42 - 1 x_r1_g43 - 1 x_r1_g50 - 1 x_r1_g56 - 1 x_r1_g60 - 1 x_r1_g68 - 1 x_r1_g69 - 1 x_r1_g76 - 1 x_r1_g77 - 1 x_r1_g82 - 2 x_r1_g84 - 1 x_r1_g88 - 1 x_r1_g98 - 1 x_r1_g99 - 1 x_r1_g104 - 1 x_r1_g109 - 1 x_r1_g127 - 1 x_r1_g129 - 1 x_r1_g161 - 1 x_r1_g162 - 2 x_r1_g163 - 1 x_r2_g15 - 1 x_r2_g21 - 1 x_r2_g30 - 1 x_r2_g34 - 1 x_r2_g40 - 1 x_r2_g45 - 1 x_r2_g51 - 1 x_r2_g52 - 1 x_r2_g53 - 1 x_r2_g61 - 2 x_r2_g83 - 1 x_r2_g85 - 1 x_r2_g91 - 1 x_r2_g93 - 1 x_r2_g101 - 1 x_r2_g105 - 1 x_r2_g111 - 1 x_r2_g112 - 2 x_r2_g118 - 2 x_r2_g119 - 2 x_r2_g124 - 1 x_r2_g130 - 1 x_r2_g133 - 1 x_r2_g135 - 1 x_r2_g139 - 1 x_r2_g147 - 1 x_r2_g157 - 1 x_r2_g161 - 1 x_r2_g162 - 2 x_r3_g5 - 1 x_r3_g17 - 1 x_r3_g21 - 1 x_r3_g22 - 1 x_r3_g23 - 1 x_r3_g24 - 1 x_r3_g25 - 1 x_r3_g31 - 1 x_r3_g34 - 1 x_r3_g38 - 1 x_r3_g39 - 1 x_r3_g42 - 2 x_r3_g62 - 1 x_r3_g68 - 1 x_r3_g73 - 2 x_r3_g83 - 1 x_r3_g89 - 1 x_r3_g96 - 1 x_r3_g124 - 2 x_r3_g125 - 2 x_r3_g137 - 1 x_r3_g149 - 1 x_r3_g151 - 2 x_r3_g166 - 1 p_r0_g4_h1_t3 - 1 p_r0_g7_h4_t3 - 1 p_r0_g15_h12_t3 - 1 p_r0_g56_h53_t3 - 1 p_r0_g69_h66_t3 - 1 p_r0_g72_h69_t3 - 1 p_r0_g106_h103_t3 - 1 p_r0_g146_h143_t3 - 1 p_r1_g43_h40_t3 - 1 p_r1_g64_h61_t3 - 1 p_r1_g77_h74_t3 - 1 p_r1_g127_h124_t3 - 1 p_r1_g141_h138_t3 - 1 p_r1_g148_h145_t3 - 1 p_r2_g30_h27_t3 - 1 p_r2_g35_h32_t3 - 1 p_r2_g61_h58_t3 - 1 p_r2_g104_h101_t3 - 1 p_r2_g106_h103_t3 - 1 p_r2_g133_h130_t3 - 1 p_r3_g24_h21_t3 - 1 p_r3_g25_h22_t3 - 1 p_r3_g26_h23_t3 - 1 p_r3_g34_h31_t3 - 1 p_r3_g42_h39_t3 - 1 p_r3_g69_h66_t3 - 1 p_r3_g90_h87_t3 - 1 p_r3_g154_h151_t3 - 1 p_r3_g156_h153_t3 - 1 p_r3_g161_h158_t3 = -76
 abs_pos_3: d_3 - u_3 <= 0
 abs_neg_3: - d_3 - u_3 <= 0
 max_def_3: u_3 - M <= 0
 cap_3: u_3 <= 1
 lin1_5_0_1: p_r0_g1_h163_t5 - x_r0_g1 <= 0
 lin2_5_0_1: p_r0_g1_h163_t5 - x_r0_g163 <= 0
 lin3_5_0_1: p_r0_g1_h163_t5 - x_r0_g1 - x_r0_g163 >= -1
 lin1_5_0_12: p_r0_g12_h7_t5 - x_r0_g12 <= 0
 lin2_5_0_12: p_r0_g12_h7_t5 - x_r0_g7 <= 0
 lin3_5_0_12: p_r0_g12_h7_t5 - x_r0_g12 - x_r0_g7 >= -1
 lin1_5_0_24: p_r0_g24_h19_t5 - x_r0_g24 <= 0
 lin2_5_0_24: p_r0_g24_h19_t5 - x_r0_g19 <= 0
 lin3_5_0_24: p_r0_g24_h19_t5 - x_r0_g24 - x_r0_g19 >= -1
 lin1_5_0_39: p_r0_g39_h34_t5 - x_r0_g39 <= 0
 lin2_5_0_39: p_r0_g39_h34_t5 - x_r0_g34 <= 0
 lin3_5_0_39: p_r0_g39_h34_t5 - x_r0_g39 - x_r0_g34 >= -1
 lin1_5_0_74: p_r0_g74_h69_t5 - x_r0_g74 <= 0
 lin2_5_0_74: p_r0_g74_h69_t5 - x_r0_g69 <= 0
 lin3_5_0_74: p_r0_g74_h69_t5 - x_r0_g74 - x_r0_g69 >= -1
 lin1_5_0_79: p_r0_g79_h74_t5 - x_r0_g79 <= 0
 lin2_5_0_79: p_r0_g79_h74_t5 - x_r0_g74 <= 0
 lin3_5_0_79: p_r0_g79_h74_t5 - x_r0_g79 - x_r0_g74 >= -1
 lin1_5_0_108: p_r0_g108_h103_t5 - x_r0_g108 <= 0
 lin2_5_0_108: p_r0_g108_h103_t5 - x_r0_g103 <= 0
 lin3_5_0_108: p_r0_g108_h103_t5 - x_r0_g108 - x_r0_g103 >= -1
 lin1_5_0_124: p_r0_g124_h119_t5 - x_r0_g124 <= 0
 lin2_5_0_124: p_r0_g124_h119_t5 - x_r0_g119 <= 0
 lin3_5_0_124: p_r0_g124_h119_t5 - x_r0_g124 - x_r0_g119 >= -1
 lin1_5_1_1: p_r1_g1_h163_t5 - x_r1_g1 <= 0
 lin2_5_1_1: p_r1_g1_h163_t5 - x_r1_g163 <= 0
 lin3_5_1_1: p_r1_g1_h163_t5 - x_r1_g1 - x_r1_g163 >= -1
 lin1_5_1_6: p_r1_g6_h1_t5 - x_r1_g6 <= 0
 lin2_5_1_6: p_r1_g6_h1_t5 - x_r1_g1 <= 0
 lin3_5_1_6: p_r1_g6_h1_t5 - x_r1_g6 - x_r1_g1 >= -1
 lin1_5_1_34: p_r1_g34_h29_t5 - x_r1_g34 <= 0
 lin2_5_1_34: p_r1_g34_h29_t5 - x_r1_g29 <= 0
 lin3_5_1_34: p_r1_g34_h29_t5 - x_r1_g34 - x_r1_g29 >= -1
 lin1_5_1_48: p_r1_g48_h43_t5 - x_r1_g48 <= 0
 lin2_5_1_48: p_r1_g48_h43_t5 - x_r1_g43 <= 0
 lin3_5_1_48: p_r1_g48_h43_t5 - x_r1_g48 - x_r1_g43 >= -1
 lin1_5_1_61: p_r1_g61_h56_t5 - x_r1_g61 <= 0
 lin2_5_1_61: p_r1_g61_h56_t5 - x_r1_g56 <= 0
 lin3_5_1_61: p_r1_g61_h56_t5 - x_r1_g61 - x_r1_g56 >= -1
 lin1_5_1_69: p_r1_g69_h64_t5 - x_r1_g69 <= 0
 lin2_5_1_69: p_r1_g69_h64_t5 - x_r1_g64 <= 0
 lin3_5_1_69: p_r1_g69_h64_t5 - x_r1_g69 - x_r1_g64 >= -1
 lin1_5_1_74: p_r1_g74_h69_t5 - x_r1_g74 <= 0
 lin2_5_1_74: p_r1_g74_h69_t5 - x_r1_g69 <= 0
 lin3_5_1_74: p_r1_g74_h69_t5 - x_r1_g74 - x_r1_g69 >= -1
 lin1_5_1_82: p_r1_g82_h77_t5 - x_r1_g82 <= 0
 lin2_5_1_82: p_r1_g82_h77_t5 - x_r1_g77 <= 0
 lin3_5_1_82: p_r1_g82_h77_t5 - x_r1_g82 - x_r1_g77 >= -1
 lin1_5_1_104: p_r1_g104_h99_t5 - x_r1_g104 <= 0
 lin2_5_1_104: p_r1_g104_h99_t5 - x_r1_g99 <= 0
 lin3_5_1_104: p_r1_g104_h99_t5 - x_r1_g104 - x_r1_g99 >= -1
 lin1_5_1_109: p_r1_g109_h104_t5 - x_r1_g109 <= 0
 lin2_5_1_109: p_r1_g109_h104_t5 - x_r1_g104 <= 0
 lin3_5_1_109: p_r1_g109_h104_t5 - x_r1_g109 - x_r1_g104 >= -1
 lin1_5_1_129: p_r1_g129_h124_t5 - x_r1_g129 <= 0
 lin2_5_1_129: p_r1_g129_h124_t5 - x_r1_g124 <= 0
 lin3_5_1_129: p_r1_g129_h124_t5 - x_r1_g129 - x_r1_g124 >= -1
 lin1_5_2_32: p_r2_g32_h27_t5 - x_r2_g32 <= 0
 lin2_5_2_32: p_r2_g32_h27_t5 - x_r2_g27 <= 0
 lin3_5_2_32: p_r2_g32_h27_t5 - x_r2_g32 - x_r2_g27 >= -1
 lin1_5_2_35: p_r2_g35_h30_t5 - x_r2_g35 <= 0
 lin2_5_2_35: p_r2_g35_h30_t5 - x_r2_g30 <= 0
 lin3_5_2_35: p_r2_g35_h30_t5 - x_r2_g35 - x_r2_g30 >= -1
 lin1_5_2_40: p_r2_g40_h35_t5 - x_r2_g40 <= 0
 lin2_5_2_40: p_r2_g40_h35_t5 - x_r2_g35 <= 0
 lin3_5_2_40: p_r2_g40_h35_t5 - x_r2_g40 - x_r2_g35 >= -1
 lin1_5_2_45: p_r2_g45_h40_t5 - x_r2_g45 <= 0
 lin2_5_2_45: p_r2_g45_h40_t5 - x_r2_g40 <= 0
 lin3_5_2_45: p_r2_g45_h40_t5 - x_r2_g45 - x_r2_g40 >= -1
 lin1_5_2_58: p_r2_g58_h53_t5 - x_r2_g58 <= 0
 lin2_5_2_58: p_r2_g58_h53_t5 - x_r2_g53 <= 0
 lin3_5_2_58: p_r2_g58_h53_t5 - x_r2_g58 - x_r2_g53 >= -1
 lin1_5_2_106: p_r2_g106_h101_t5 - x_r2_g106 <= 0
 lin2_5_2_106: p_r2_g106_h101_t5 - x_r2_g101 <= 0
 lin3_5_2_106: p_r2_g106_h101_t5 - x_r2_g106 - x_r2_g101 >= -1
 lin1_5_2_111: p_r2_g111_h106_t5 - x_r2_g111 <= 0
 lin2_5_2_111: p_r2_g111_h106_t5 - x_r2_g106 <= 0
 lin3_5_2_111: p_r2_g111_h106_t5 - x_r2_g111 - x_r2_g106 >= -1
 lin1_5_2_124: p_r2_g124_h119_t5 - x_r2_g124 <= 0
 lin2_5_2_124: p_r2_g124_h119_t5 - x_r2_g119 <= 0
 lin3_5_2_124: p_r2_g124_h119_t5 - x_r2_g124 - x_r2_g119 >= -1
 lin1_5_2_135: p_r2_g135_h130_t5 - x_r2_g135 <= 0
 lin2_5_2_135: p_r2_g135_h130_t5 - x_r2_g130 <= 0
 lin3_5_2_135: p_r2_g135_h130_t5 - x_r2_g135 - x_r2_g130 >= -1
 lin1_5_2_162: p_r2_g162_h157_t5 - x_r2_g162 <= 0
 lin2_5_2_162: p_r2_g162_h157_t5 - x_r2_g157 <= 0
 lin3_5_2_162: p_r2_g162_h157_t5 - x_r2_g162 - x_r2_g157 >= -1
 lin1_5_3_22: p_r3_g22_h17_t5 - x_r3_g22 <= 0
 lin2_5_3_22: p_r3_g22_h17_t5 - x_r3_g17 <= 0
 lin3_5_3_22: p_r3_g22_h17_t5 - x_r3_g22 - x_r3_g17 >= -1
 lin1_5_3_26: p_r3_g26_h21_t5 - x_r3_g26 <= 0
 lin2_5_3_26: p_r3_g26_h21_t5 - x_r3_g21 <= 0
 lin3_5_3_26: p_r3_g26_h21_t5 - x_r3_g26 - x_r3_g21 >= -1
 lin1_5_3_31: p_r3_g31_h26_t5 - x_r3_g31 <= 0
 lin2_5_3_31: p_r3_g31_h26_t5 - x_r3_g26 <= 0
 lin3_5_3_31: p_r3_g31_h26_t5 - x_r3_g31 - x_r3_g26 >= -1
 lin1_5_3_39: p_r3_g39_h34_t5 - x_r3_g39 <= 0
 lin2_5_3_39: p_r3_g39_h34_t5 - x_r3_g34 <= 0
 lin3_5_3_39: p_r3_g39_h34_t5 - x_r3_g39 - x_r3_g34 >= -1
 lin1_5_3_73: p_r3_g73_h68_t5 - x_r3_g73 <= 0
 lin2_5_3_73: p_r3_g73_h68_t5 - x_r3_g68 <= 0
 lin3_5_3_73: p_r3_g73_h68_t5 - x_r3_g73 - x_r3_g68 >= -1
 lin1_5_3_154: p_r3_g154_h149_t5 - x_r3_g154 <= 0
 lin2_5_3_154: p_r3_g154_h149_t5 - x_r3_g149 <= 0
 lin3_5_3_154: p_r3_g154_h149_t5 - x_r3_g154 - x_r3_g149 >= -1
 lin1_5_3_156: p_r3_g156_h151_t5 - x_r3_g156 <= 0
 lin2_5_3_156: p_r3_g156_h151_t5 - x_r3_g151 <= 0
 lin3_5_3_156: p_r3_g156_h151_t5 - x_r3_g156 - x_r3_g151 >= -1
 lin1_5_3_158: p_r3_g158_h153_t5 - x_r3_g158 <= 0
 lin2_5_3_158: p_r3_g158_h153_t5 - x_r3_g153 <= 0
 lin3_5_3_158: p_r3_g158_h153_t5 - x_r3_g158 - x_r3_g153 >= -1
 lin1_5_3_161: p_r3_g161_h156_t5 - x_r3_g161 <= 0
 lin2_5_3_161: p_r3_g161_h156_t5 - x_r3_g156 <= 0
 lin3_5_3_161: p_r3_g161_h156_t5 - x_r3_g161 - x_r3_g156 >= -1
 lin1_5_3_166: p_r3_g166_h161_t5 - x_r3_g166 <= 0
 lin2_5_3_166: p_r3_g166_h161_t5 - x_r3_g161 <= 0
 lin3_5_3_166: p_r3_g166_h161_t5 - x_r3_g166 - x_r3_g161 >= -1
 defect_5: 1 d_5 - 1 x_r0_g1 - 1 x_r0_g11 - 1 x_r0_g15 - 1 x_r0_g19 - 2 x_r0_g47 - 2 x_r0_g53 - 1 x_r0_g56 - 2 x_r0_g57 - 1 x_r0_g65 - 2 x_r0_g72 - 1 x_r0_g85 - 2 x_r0_g93 - 1 x_r0_g103 - 2 x_r0_g106 - 1 x_r0_g108 - 1 x_r0_g126 - 1 x_r0_g136 - 1 x_r0_g142 - 1 x_r0_g146 - 1 x_r0_g150 - 1 x_r0_g163 - 1 x_r1_g5 - 1 x_r1_g6 - 1 x_r1_g21 - 1 x_r1_g23 - 1 x_r1_g34 - 1 x_r1_g36 - 1 x_r1_g42 - 1 x_r1_g43 - 1 x_r1_g48 - 1 x_r1_g60 - 1 x_r1_g61 - 1 x_r1_g74 - 1 x_r1_g76 - 1 x_r1_g82 - 2 x_r1_g84 - 1 x_r1_g98 - 1 x_r1_g109 - 1 x_r1_g124 - 1 x_r1_g127 - 1 x_r1_g141 - 1 x_r1_g145 - 1 x_r1_g155 - 2 x_r1_g161 - 1 x_r1_g162 - 1 x_r2_g13 - 1 x_r2_g15 - 1 x_r2_g21 - 1 x_r2_g30 - 1 x_r2_g34 - 2 x_r2_g51 - 1 x_r2_g53 - 1 x_r2_g58 - 1 x_r2_g61 - 2 x_r2_g73 - 1 x_r2_g83 - 2 x_r2_g85 - 1 x_r2_g91 - 1 x_r2_g93 - 1 x_r2_g103 - 1 x_r2_g105 - 1 x_r2_g111 - 1 x_r2_g118 - 1 x_r2_g119 - 1 x_r2_g124 - 1 x_r2_g133 - 1 x_r2_g135 - 1 x_r2_g139 - 1 x_r2_g141 - 1 x_r2_g147 - 1 x_r2_g157 - 1 x_r2_g162 - 1 x_r3_g17 - 1 x_r3_g22 - 2 x_r3_g23 - 1 x_r3_g24 - 2 x_r3_g25 - 1 x_r3_g31 - 1 x_r3_g38 - 2 x_r3_g42 - 1 x_r3_g51 - 2 x_r3_g60 - 1 x_r3_g66 - 1 x_r3_g69 - 1 x_r3_g73 - 1 x_r3_g83 - 1 x_r3_g89 - 2 x_r3_g117 - 1 x_r3_g118 - 2 x_r3_g124 - 1 x_r3_g137 - 1 x_r3_g149 - 1 x_r3_g151 - 1 x_r3_g153 - 1 x_r3_g158 - 1 x_r3_g166 - 1 p_r0_g1_h163_t5 - 1 p_r0_g12_h7_t5 - 1 p_r0_g24_h19_t5 - 1 p_r0_g39_h34_t5 - 1 p_r0_g74_h69_t5 - 1 p_r0_g79_h74_t5 - 1 p_r0_g108_h103_t5 - 1 p_r0_g124_h119_t5 - 1 p_r1_g1_h163_t5 - 1 p_r1_g6_h1_t5 - 1 p_r1_g34_h29_t5 - 1 p_r1_g48_h43_t5 - 1 p_r1_g61_h56_t5 - 1 p_r1_g69_h64_t5 - 1 p_r1_g74_h69_t5 - 1 p_r1_g82_h77_t5 - 1 p_r1_g104_h99_t5 - 1 p_r1_g109_h104_t5 - 1 p_r1_g129_h124_t5 - 1 p_r2_g32_h27_t5 - 1 p_r2_g35_h30_t5 - 1 p_r2_g40_h35_t5 - 1 p_r2_g45_h40_t5 - 1 p_r2_g58_h53_t5 - 1 p_r2_g106_h101_t5 - 1 p_r2_g111_h106_t5 - 1 p_r2_g124_h119_t5 - 1 p_r2_g135_h130_t5 - 1 p_r2_g162_h157_t5 - 1 p_r3_g22_h17_t5 - 1 p_r3_g26_h21_t5 - 1 p_r3_g31_h26_t5 - 1 p_r3_g39_h34_t5 - 1 p_r3_g73_h68_t5 - 1 p_r3_g154_h149_t5 - 1 p_r3_g156_h151_t5 - 1 p_r3_g158_h153_t5 - 1 p_r3_g161_h156_t5 - 1 p_r3_g166_h161_t5 = -58
 abs_pos_5: d_5 - u_5 <= 0
 abs_neg_5: - d_5 - u_5 <= 0
 max_def_5: u_5 - M <= 0
 cap_5: u_5 <= 2
 lin1_8_0_4: p_r0_g4_h163_t8 - x_r0_g4 <= 0
 lin2_8_0_4: p_r0_g4_h163_t8 - x_r0_g163 <= 0
 lin3_8_0_4: p_r0_g4_h163_t8 - x_r0_g4 - x_r0_g163 >= -1
 lin1_8_0_12: p_r0_g12_h4_t8 - x_r0_g12 <= 0
 lin2_8_0_12: p_r0_g12_h4_t8 - x_r0_g4 <= 0
 lin3_8_0_12: p_r0_g12_h4_t8 - x_r0_g12 - x_r0_g4 >= -1
 lin1_8_0_15: p_r0_g15_h7_t8 - x_r0_g15 <= 0
 lin2_8_0_15: p_r0_g15_h7_t8 - x_r0_g7 <= 0
 lin3_8_0_15: p_r0_g15_h7_t8 - x_r0_g15 - x_r0_g7 >= -1
 lin1_8_0_19: p_r0_g19_h11_t8 - x_r0_g19 <= 0
 lin2_8_0_19: p_r0_g19_h11_t8 - x_r0_g11 <= 0
 lin3_8_0_19: p_r0_g19_h11_t8 - x_r0_g19 - x_r0_g11 >= -1
 lin1_8_0_47: p_r0_g47_h39_t8 - x_r0_g47 <= 0
 lin2_8_0_47: p_r0_g47_h39_t8 - x_r0_g39 <= 0
 lin3_8_0_47: p_r0_g47_h39_t8 - x_r0_g47 - x_r0_g39 >= -1
 lin1_8_0_65: p_r0_g65_h57_t8 - x_r0_g65 <= 0
 lin2_8_0_65: p_r0_g65_h57_t8 - x_r0_g57 <= 0
 lin3_8_0_65: p_r0_g65_h57_t8 - x_r0_g65 - x_r0_g57 >= -1
 lin1_8_0_74: p_r0_g74_h66_t8 - x_r0_g74 <= 0
 lin2_8_0_74: p_r0_g74_h66_t8 - x_r0_g66 <= 0
 lin3_8_0_74: p_r0_g74_h66_t8 - x_r0_g74 - x_r0_g66 >= -1
 lin1_8_0_93: p_r0_g93_h85_t8 - x_r0_g93 <= 0
 lin2_8_0_93: p_r0_g93_h85_t8 - x_r0_g85 <= 0
 lin3_8_0_93: p_r0_g93_h85_t8 - x_r0_g93 - x_r0_g85 >= -1
 lin1_8_0_143: p_r0_g143_h135_t8 - x_r0_g143 <= 0
 lin2_8_0_143: p_r0_g143_h135_t8 - x_r0_g135 <= 0
 lin3_8_0_143: p_r0_g143_h135_t8 - x_r0_g143 - x_r0_g135 >= -1
 lin1_8_0_150: p_r0_g150_h142_t8 - x_r0_g150 <= 0
 lin2_8_0_150: p_r0_g150_h142_t8 - x_r0_g142 <= 0
 lin3_8_0_150: p_r0_g150_h142_t8 - x_r0_g150 - x_r0_g142 >= -1
 lin1_8_1_29: p_r1_g29_h21_t8 - x_r1_g29 <= 0
 lin2_8_1_29: p_r1_g29_h21_t8 - x_r1_g21 <= 0
 lin3_8_1_29: p_r1_g29_h21_t8 - x_r1_g29 - x_r1_g21 >= -1
 lin1_8_1_42: p_r1_g42_h34_t8 - x_r1_g42 <= 0
 lin2_8_1_42: p_r1_g42_h34_t8 - x_r1_g34 <= 0
 lin3_8_1_42: p_r1_g42_h34_t8 - x_r1_g42 - x_r1_g34 >= -1
 lin1_8_1_48: p_r1_g48_h40_t8 - x_r1_g48 <= 0
 lin2_8_1_48: p_r1_g48_h40_t8 - x_r1_g40 <= 0
 lin3_8_1_48: p_r1_g48_h40_t8 - x_r1_g48 - x_r1_g40 >= -1
 lin1_8_1_50: p_r1_g50_h42_t8 - x_r1_g50 <= 0
 lin2_8_1_50: p_r1_g50_h42_t8 - x_r1_g42 <= 0
 lin3_8_1_50: p_r1_g50_h42_t8 - x_r1_g50 - x_r1_g42 >= -1
 lin1_8_1_56: p_r1_g56_h48_t8 - x_r1_g56 <= 0
 lin2_8_1_56: p_r1_g56_h48_t8 - x_r1_g48 <= 0
 lin3_8_1_56: p_r1_g56_h48_t8 - x_r1_g56 - x_r1_g48 >= -1
 lin1_8_1_64: p_r1_g64_h56_t8 - x_r1_g64 <= 0
 lin2_8_1_64: p_r1_g64_h56_t8 - x_r1_g56 <= 0
 lin3_8_1_64: p_r1_g64_h56_t8 - x_r1_g64 - x_r1_g56 >= -1
 lin1_8_1_68: p_r1_g68_h60_t8 - x_r1_g68 <= 0
 lin2_8_1_68: p_r1_g68_h60_t8 - x_r1_g60 <= 0
 lin3_8_1_68: p_r1_g68_h60_t8 - x_r1_g68 - x_r1_g60 >= -1
 lin1_8_1_69: p_r1_g69_h61_t8 - x_r1_g69 <= 0
 lin2_8_1_69: p_r1_g69_h61_t8 - x_r1_g61 <= 0
 lin3_8_1_69: p_r1_g69_h61_t8 - x_r1_g69 - x_r1_g61 >= -1
 lin1_8_1_76: p_r1_g76_h68_t8 - x_r1_g76 <= 0
 lin2_8_1_76: p_r1_g76_h68_t8 - x_r1_g68 <= 0
 lin3_8_1_76: p_r1_g76_h68_t8 - x_r1_g76 - x_r1_g68 >= -1
 lin1_8_1_77: p_r1_g77_h69_t8 - x_r1_g77 <= 0
 lin2_8_1_77: p_r1_g77_h69_t8 - x_r1_g69 <= 0
 lin3_8_1_77: p_r1_g77_h69_t8 - x_r1_g77 - x_r1_g69 >= -1
 lin1_8_1_82: p_r1_g82_h74_t8 - x_r1_g82 <= 0
 lin2_8_1_82: p_r1_g82_h74_t8 - x_r1_g74 <= 0
 lin3_8_1_82: p_r1_g82_h74_t8 - x_r1_g82 - x_r1_g74 >= -1
 lin1_8_1_84: p_r1_g84_h76_t8 - x_r1_g84 <= 0
 lin2_8_1_84: p_r1_g84_h76_t8 - x_r1_g76 <= 0
 lin3_8_1_84: p_r1_g84_h76_t8 - x_r1_g84 - x_r1_g76 >= -1
 lin1_8_1_163: p_r1_g163_h155_t8 - x_r1_g163 <= 0
 lin2_8_1_163: p_r1_g163_h155_t8 - x_r1_g155 <= 0
 lin3_8_1_163: p_r1_g163_h155_t8 - x_r1_g163 - x_r1_g155 >= -1
 lin1_8_2_21: p_r2_g21_h13_t8 - x_r2_g21 <= 0
 lin2_8_2_21: p_r2_g21_h13_t8 - x_r2_g13 <= 0
 lin3_8_2_21: p_r2_g21_h13_t8 - x_r2_g21 - x_r2_g13 >= -1
 lin1_8_2_35: p_r2_g35_h27_t8 - x_r2_g35 <= 0
 lin2_8_2_35: p_r2_g35_h27_t8 - x_r2_g27 <= 0
 lin3_8_2_35: p_r2_g35_h27_t8 - x_r2_g35 - x_r2_g27 >= -1
 lin1_8_2_40: p_r2_g40_h32_t8 - x_r2_g40 <= 0
 lin2_8_2_40: p_r2_g40_h32_t8 - x_r2_g32 <= 0
 lin3_8_2_40: p_r2_g40_h32_t8 - x_r2_g40 - x_r2_g32 >= -1
 lin1_8_2_53: p_r2_g53_h45_t8 - x_r2_g53 <= 0
 lin2_8_2_53: p_r2_g53_h45_t8 - x_r2_g45 <= 0
 lin3_8_2_53: p_r2_g53_h45_t8 - x_r2_g53 - x_r2_g45 >= -1
 lin1_8_2_61: p_r2_g61_h53_t8 - x_r2_g61 <= 0
 lin2_8_2_61: p_r2_g61_h53_t8 - x_r2_g53 <= 0
 lin3_8_2_61: p_r2_g61_h53_t8 - x_r2_g61 - x_r2_g53 >= -1
 lin1_8_2_91: p_r2_g91_h83_t8 - x_r2_g91 <= 0
 lin2_8_2_91: p_r2_g91_h83_t8 - x_r2_g83 <= 0
 lin3_8_2_91: p_r2_g91_h83_t8 - x_r2_g91 - x_r2_g83 >= -1
 lin1_8_2_93: p_r2_g93_h85_t8 - x_r2_g93 <= 0
 lin2_8_2_93: p_r2_g93_h85_t8 - x_r2_g85 <= 0
 lin3_8_2_93: p_r2_g93_h85_t8 - x_r2_g93 - x_r2_g85 >= -1
 lin1_8_2_101: p_r2_g101_h93_t8 - x_r2_g101 <= 0
 lin2_8_2_101: p_r2_g101_h93_t8 - x_r2_g93 <= 0
 lin3_8_2_101: p_r2_g101_h93_t8 - x_r2_g101 - x_r2_g93 >= -1
 lin1_8_2_111: p_r2_g111_h103_t8 - x_r2_g111 <= 0
 lin2_8_2_111: p_r2_g111_h103_t8 - x_r2_g103 <= 0
 lin3_8_2_111: p_r2_g111_h103_t8 - x_r2_g111 - x_r2_g103 >= -1
 lin1_8_2_112: p_r2_g112_h104_t8 - x_r2_g112 <= 0
 lin2_8_2_112: p_r2_g112_h104_t8 - x_r2_g104 <= 0
 lin3_8_2_112: p_r2_g112_h104_t8 - x_r2_g112 - x_r2_g104 >= -1
 lin1_8_2_119: p_r2_g119_h111_t8 - x_r2_g119 <= 0
 lin2_8_2_119: p_r2_g119_h111_t8 - x_r2_g111 <= 0
 lin3_8_2_119: p_r2_g119_h111_t8 - x_r2_g119 - x_r2_g111 >= -1
 lin1_8_2_141: p_r2_g141_h133_t8 - x_r2_g141 <= 0
 lin2_8_2_141: p_r2_g141_h133_t8 - x_r2_g133 <= 0
 lin3_8_2_141: p_r2_g141_h133_t8 - x_r2_g141 - x_r2_g133 >= -1
 lin1_8_2_147: p_r2_g147_h139_t8 - x_r2_g147 <= 0
 lin2_8_2_147: p_r2_g147_h139_t8 - x_r2_g139 <= 0
 lin3_8_2_147: p_r2_g147_h139_t8 - x_r2_g147 - x_r2_g139 >= -1
 lin1_8_3_25: p_r3_g25_h17_t8 - x_r3_g25 <= 0
 lin2_8_3_25: p_r3_g25_h17_t8 - x_r3_g17 <= 0
 lin3_8_3_25: p_r3_g25_h17_t8 - x_r3_g25 - x_r3_g17 >= -1
 lin1_8_3_31: p_r3_g31_h23_t8 - x_r3_g31 <= 0
 lin2_8_3_31: p_r3_g31_h23_t8 - x_r3_g23 <= 0
 lin3_8_3_31: p_r3_g31_h23_t8 - x_r3_g31 - x_r3_g23 >= -1
 lin1_8_3_34: p_r3_g34_h26_t8 - x_r3_g34 <= 0
 lin2_8_3_34: p_r3_g34_h26_t8 - x_r3_g26 <= 0
 lin3_8_3_34: p_r3_g34_h26_t8 - x_r3_g34 - x_r3_g26 >= -1
 lin1_8_3_39: p_r3_g39_h31_t8 - x_r3_g39 <= 0
 lin2_8_3_39: p_r3_g39_h31_t8 - x_r3_g31 <= 0
 lin3_8_3_39: p_r3_g39_h31_t8 - x_r3_g39 - x_r3_g31 >= -1
 lin1_8_3_42: p_r3_g42_h34_t8 - x_r3_g42 <= 0
 lin2_8_3_42: p_r3_g42_h34_t8 - x_r3_g34 <= 0
 lin3_8_3_42: p_r3_g42_h34_t8 - x_r3_g42 - x_r3_g34 >= -1
 lin1_8_3_68: p_r3_g68_h60_t8 - x_r3_g68 <= 0
 lin2_8_3_68: p_r3_g68_h60_t8 - x_r3_g60 <= 0
 lin3_8_3_68: p_r3_g68_h60_t8 - x_r3_g68 - x_r3_g60 >= -1
 lin1_8_3_125: p_r3_g125_h117_t8 - x_r3_g125 <= 0
 lin2_8_3_125: p_r3_g125_h117_t8 - x_r3_g117 <= 0
 lin3_8_3_125: p_r3_g125_h117_t8 - x_r3_g125 - x_r3_g117 >= -1
 lin1_8_3_161: p_r3_g161_h153_t8 - x_r3_g161 <= 0
 lin2_8_3_161: p_r3_g161_h153_t8 - x_r3_g153 <= 0
 lin3_8_3_161: p_r3_g161_h153_t8 - x_r3_g161 - x_r3_g153 >= -1
 lin1_8_3_166: p_r3_g166_h158_t8 - x_r3_g166 <= 0
 lin2_8_3_166: p_r3_g166_h158_t8 - x_r3_g158 <= 0
 lin3_8_3_166: p_r3_g166_h158_t8 - x_r3_g166 - x_r3_g158 >= -1
 defect_8: 1 d_8 - 1 x_r0_g1 - 1 x_r0_g5 - 1 x_r0_g11 - 1 x_r0_g12 - 1 x_r0_g34 - 1 x_r0_g47 - 1 x_r0_g53 - 1 x_r0_g56 - 1 x_r0_g57 - 1 x_r0_g66 - 1 x_r0_g69 - 1 x_r0_g85 - 1 x_r0_g93 - 1 x_r0_g103 - 1 x_r0_g106 - 2 x_r0_g108 - 1 x_r0_g112 - 2 x_r0_g119 - 2 x_r0_g124 - 1 x_r0_g126 - 1 x_r0_g135 - 1 x_r0_g143 - 1 x_r0_g150 - 1 x_r0_g159 - 1 x_r0_g163 - 1 x_r1_g1 - 1 x_r1_g5 - 2 x_r1_g23 - 1 x_r1_g29 - 1 x_r1_g34 - 1 x_r1_g36 - 1 x_r1_g40 - 1 x_r1_g61 - 1 x_r1_g74 - 1 x_r1_g82 - 2 x_r1_g88 - 1 x_r1_g98 - 2 x_r1_g99 - 2 x_r1_g104 - 1 x_r1_g124 - 1 x_r1_g127 - 2 x_r1_g138 - 2 x_r1_g148 - 2 x_r1_g162 - 1 x_r2_g15 - 1 x_r2_g34 - 1 x_r2_g35 - 1 x_r2_g40 - 1 x_r2_g51 - 1 x_r2_g52 - 1 x_r2_g73 - 1 x_r2_g74 - 1 x_r2_g83 - 1 x_r2_g105 - 2 x_r2_g106 - 1 x_r2_g112 - 2 x_r2_g118 - 1 x_r2_g119 - 2 x_r2_g124 - 1 x_r2_g130 - 1 x_r2_g135 - 1 x_r2_g157 - 1 x_r2_g161 - 1 x_r3_g5 - 1 x_r3_g17 - 1 x_r3_g21 - 1 x_r3_g22 - 1 x_r3_g24 - 1 x_r3_g26 - 2 x_r3_g38 - 1 x_r3_g39 - 2 x_r3_g51 - 2 x_r3_g53 - 1 x_r3_g66 - 1 x_r3_g68 - 1 x_r3_g69 - 2 x_r3_g73 - 1 x_r3_g83 - 1 x_r3_g89 - 1 x_r3_g90 - 1 x_r3_g100 - 1 x_r3_g118 - 2 x_r3_g137 - 1 x_r3_g151 - 1 x_r3_g153 - 2 x_r3_g154 - 1 x_r3_g156 - 1 x_r3_g161 - 1 p_r0_g4_h163_t8 - 1 p_r0_g12_h4_t8 - 1 p_r0_g15_h7_t8 - 1 p_r0_g19_h11_t8 - 1 p_r0_g47_h39_t8 - 1 p_r0_g65_h57_t8 - 1 p_r0_g74_h66_t8 - 1 p_r0_g93_h85_t8 - 1 p_r0_g143_h135_t8 - 1 p_r0_g150_h142_t8 - 1 p_r1_g29_h21_t8 - 1 p_r1_g42_h34_t8 - 1 p_r1_g48_h40_t8 - 1 p_r1_g50_h42_t8 - 1 p_r1_g56_h48_t8 - 1 p_r1_g64_h56_t8 - 1 p_r1_g68_h60_t8 - 1 p_r1_g69_h61_t8 - 1 p_r1_g76_h68_t8 - 1 p_r1_g77_h69_t8 - 1 p_r1_g82_h74_t8 - 1 p_r1_g84_h76_t8 - 1 p_r1_g163_h155_t8 - 1 p_r2_g21_h13_t8 - 1 p_r2_g35_h27_t8 - 1 p_r2_g40_h32_t8 - 1 p_r2_g53_h45_t8 - 1 p_r2_g61_h53_t8 - 1 p_r2_g91_h83_t8 - 1 p_r2_g93_h85_t8 - 1 p_r2_g101_h93_t8 - 1 p_r2_g111_h103_t8 - 1 p_r2_g112_h104_t8 - 1 p_r2_g119_h111_t8 - 1 p_r2_g141_h133_t8 - 1 p_r2_g147_h139_t8 - 1 p_r3_g25_h17_t8 - 1 p_r3_g31_h23_t8 - 1 p_r3_g34_h26_t8 - 1 p_r3_g39_h31_t8 - 1 p_r3_g42_h34_t8 - 1 p_r3_g68_h60_t8 - 1 p_r3_g125_h117_t8 - 1 p_r3_g161_h153_t8 - 1 p_r3_g166_h158_t8 = -58
 abs_pos_8: d_8 - u_8 <= 0
 abs_neg_8: - d_8 - u_8 <= 0
 max_def_8: u_8 - M <= 0
 cap_8: u_8 <= 1
 lin1_9_0_1: p_r0_g1_h159_t9 - x_r0_g1 <= 0
 lin2_9_0_1: p_r0_g1_h159_t9 - x_r0_g159 <= 0
 lin3_9_0_1: p_r0_g1_h159_t9 - x_r0_g1 - x_r0_g159 >= -1
 lin1_9_0_5: p_r0_g5_h163_t9 - x_r0_g5 <= 0
 lin2_9_0_5: p_r0_g5_h163_t9 - x_r0_g163 <= 0
 lin3_9_0_5: p_r0_g5_h163_t9 - x_r0_g5 - x_r0_g163 >= -1
 lin1_9_0_24: p_r0_g24_h15_t9 - x_r0_g24 <= 0
 lin2_9_0_24: p_r0_g24_h15_t9 - x_r0_g15 <= 0
 lin3_9_0_24: p_r0_g24_h15_t9 - x_r0_g24 - x_r0_g15 >= -1
 lin1_9_0_56: p_r0_g56_h47_t9 - x_r0_g56 <= 0
 lin2_9_0_56: p_r0_g56_h47_t9 - x_r0_g47 <= 0
 lin3_9_0_56: p_r0_g56_h47_t9 - x_r0_g56 - x_r0_g47 >= -1
 lin1_9_0_65: p_r0_g65_h56_t9 - x_r0_g65 <= 0
 lin2_9_0_65: p_r0_g65_h56_t9 - x_r0_g56 <= 0
 lin3_9_0_65: p_r0_g65_h56_t9 - x_r0_g65 - x_r0_g56 >= -1
 lin1_9_0_66: p_r0_g66_h57_t9 - x_r0_g66 <= 0
 lin2_9_0_66: p_r0_g66_h57_t9 - x_r0_g57 <= 0
 lin3_9_0_66: p_r0_g66_h57_t9 - x_r0_g66 - x_r0_g57 >= -1
 lin1_9_0_74: p_r0_g74_h65_t9 - x_r0_g74 <= 0
 lin2_9_0_74: p_r0_g74_h65_t9 - x_r0_g65 <= 0
 lin3_9_0_74: p_r0_g74_h65_t9 - x_r0_g74 - x_r0_g65 >= -1
 lin1_9_0_112: p_r0_g112_h103_t9 - x_r0_g112 <= 0
 lin2_9_0_112: p_r0_g112_h103_t9 - x_r0_g103 <= 0
 lin3_9_0_112: p_r0_g112_h103_t9 - x_r0_g112 - x_r0_g103 >= -1
 lin1_9_0_135: p_r0_g135_h126_t9 - x_r0_g135 <= 0
 lin2_9_0_135: p_r0_g135_h126_t9 - x_r0_g126 <= 0
 lin3_9_0_135: p_r0_g135_h126_t9 - x_r0_g135 - x_r0_g126 >= -1
 lin1_9_0_159: p_r0_g159_h150_t9 - x_r0_g159 <= 0
 lin2_9_0_159: p_r0_g159_h150_t9 - x_r0_g150 <= 0
 lin3_9_0_159: p_r0_g159_h150_t9 - x_r0_g159 - x_r0_g150 >= -1
 lin1_9_1_5: p_r1_g5_h163_t9 - x_r1_g5 <= 0
 lin2_9_1_5: p_r1_g5_h163_t9 - x_r1_g163 <= 0
 lin3_9_1_5: p_r1_g5_h163_t9 - x_r1_g5 - x_r1_g163 >= -1
 lin1_9_1_43: p_r1_g43_h34_t9 - x_r1_g43 <= 0
 lin2_9_1_43: p_r1_g43_h34_t9 - x_r1_g34 <= 0
 lin3_9_1_43: p_r1_g43_h34_t9 - x_r1_g43 - x_r1_g34 >= -1
 lin1_9_1_69: p_r1_g69_h60_t9 - x_r1_g69 <= 0
 lin2_9_1_69: p_r1_g69_h60_t9 - x_r1_g60 <= 0
 lin3_9_1_69: p_r1_g69_h60_t9 - x_r1_g69 - x_r1_g60 >= -1
 lin1_9_1_77: p_r1_g77_h68_t9 - x_r1_g77 <= 0
 lin2_9_1_77: p_r1_g77_h68_t9 - x_r1_g68 <= 0
 lin3_9_1_77: p_r1_g77_h68_t9 - x_r1_g77 - x_r1_g68 >= -1
 lin1_9_1_138: p_r1_g138_h129_t9 - x_r1_g138 <= 0
 lin2_9_1_138: p_r1_g138_h129_t9 - x_r1_g129 <= 0
 lin3_9_1_138: p_r1_g138_h129_t9 - x_r1_g138 - x_r1_g129 >= -1
 lin1_9_2_30: p_r2_g30_h21_t9 - x_r2_g30 <= 0
 lin2_9_2_30: p_r2_g30_h21_t9 - x_r2_g21 <= 0
 lin3_9_2_30: p_r2_g30_h21_t9 - x_r2_g30 - x_r2_g21 >= -1
 lin1_9_2_61: p_r2_g61_h52_t9 - x_r2_g61 <= 0
 lin2_9_2_61: p_r2_g61_h52_t9 - x_r2_g52 <= 0
 lin3_9_2_61: p_r2_g61_h52_t9 - x_r2_g61 - x_r2_g52 >= -1
 lin1_9_2_83: p_r2_g83_h74_t9 - x_r2_g83 <= 0
 lin2_9_2_83: p_r2_g83_h74_t9 - x_r2_g74 <= 0
 lin3_9_2_83: p_r2_g83_h74_t9 - x_r2_g83 - x_r2_g74 >= -1
 lin1_9_2_112: p_r2_g112_h103_t9 - x_r2_g112 <= 0
 lin2_9_2_112: p_r2_g112_h103_t9 - x_r2_g103 <= 0
 lin3_9_2_112: p_r2_g112_h103_t9 - x_r2_g112 - x_r2_g103 >= -1
 lin1_9_2_133: p_r2_g133_h124_t9 - x_r2_g133 <= 0
 lin2_9_2_133: p_r2_g133_h124_t9 - x_r2_g124 <= 0
 lin3_9_2_133: p_r2_g133_h124_t9 - x_r2_g133 - x_r2_g124 >= -1
 lin1_9_2_139: p_r2_g139_h130_t9 - x_r2_g139 <= 0
 lin2_9_2_139: p_r2_g139_h130_t9 - x_r2_g130 <= 0
 lin3_9_2_139: p_r2_g139_h130_t9 - x_r2_g139 - x_r2_g130 >= -1
 lin1_9_3_26: p_r3_g26_h17_t9 - x_r3_g26 <= 0
 lin2_9_3_26: p_r3_g26_h17_t9 - x_r3_g17 <= 0
 lin3_9_3_26: p_r3_g26_h17_t9 - x_r3_g26 - x_r3_g17 >= -1
 lin1_9_3_31: p_r3_g31_h22_t9 - x_r3_g31 <= 0
 lin2_9_3_31: p_r3_g31_h22_t9 - x_r3_g22 <= 0
 lin3_9_3_31: p_r3_g31_h22_t9 - x_r3_g31 - x_r3_g22 >= -1
 lin1_9_3_34: p_r3_g34_h25_t9 - x_r3_g34 <= 0
 lin2_9_3_34: p_r3_g34_h25_t9 - x_r3_g25 <= 0
 lin3_9_3_34: p_r3_g34_h25_t9 - x_r3_g34 - x_r3_g25 >= -1
 lin1_9_3_51: p_r3_g51_h42_t9 - x_r3_g51 <= 0
 lin2_9_3_51: p_r3_g51_h42_t9 - x_r3_g42 <= 0
 lin3_9_3_51: p_r3_g51_h42_t9 - x_r3_g51 - x_r3_g42 >= -1
 lin1_9_3_60: p_r3_g60_h51_t9 - x_r3_g60 <= 0
 lin2_9_3_60: p_r3_g60_h51_t9 - x_r3_g51 <= 0
 lin3_9_3_60: p_r3_g60_h51_t9 - x_r3_g60 - x_r3_g51 >= -1
 lin1_9_3_62: p_r3_g62_h53_t9 - x_r3_g62 <= 0
 lin2_9_3_62: p_r3_g62_h53_t9 - x_r3_g53 <= 0
 lin3_9_3_62: p_r3_g62_h53_t9 - x_r3_g62 - x_r3_g53 >= -1
 lin1_9_3_69: p_r3_g69_h60_t9 - x_r3_g69 <= 0
 lin2_9_3_69: p_r3_g69_h60_t9 - x_r3_g60 <= 0
 lin3_9_3_69: p_r3_g69_h60_t9 - x_r3_g69 - x_r3_g60 >= -1
 lin1_9_3_96: p_r3_g96_h87_t9 - x_r3_g96 <= 0
 lin2_9_3_96: p_r3_g96_h87_t9 - x_r3_g87 <= 0
 lin3_9_3_96: p_r3_g96_h87_t9 - x_r3_g96 - x_r3_g87 >= -1
 lin1_9_3_158: p_r3_g158_h149_t9 - x_r3_g158 <= 0
 lin2_9_3_158: p_r3_g158_h149_t9 - x_r3_g149 <= 0
 lin3_9_3_158: p_r3_g158_h149_t9 - x_r3_g158 - x_r3_g149 >= -1
 defect_9: 1 d_9 - 1 x_r0_g4 - 1 x_r0_g5 - 1 x_r0_g7 - 1 x_r0_g11 - 1 x_r0_g12 - 1 x_r0_g15 - 2 x_r0_g34 - 2 x_r0_g39 - 1 x_r0_g47 - 1 x_r0_g53 - 1 x_r0_g57 - 1 x_r0_g72 - 2 x_r0_g79 - 1 x_r0_g89 - 1 x_r0_g91 - 1 x_r0_g93 - 1 x_r0_g136 - 1 x_r0_g142 - 1 x_r0_g143 - 2 x_r0_g146 - 2 x_r1_g1 - 2 x_r1_g6 - 1 x_r1_g23 - 2 x_r1_g29 - 1 x_r1_g34 - 1 x_r1_g36 - 2 x_r1_g40 - 2 x_r1_g48 - 1 x_r1_g56 - 1 x_r1_g61 - 1 x_r1_g69 - 1 x_r1_g74 - 1 x_r1_g82 - 1 x_r1_g88 - 2 x_r1_g98 - 2 x_r1_g99 - 2 x_r1_g104 - 1 x_r1_g109 - 1 x_r1_g124 - 1 x_r1_g141 - 1 x_r1_g145 - 1 x_r1_g148 - 2 x_r1_g155 - 1 x_r1_g161 - 1 x_r1_g163 - 1 x_r2_g13 - 1 x_r2_g27 - 1 x_r2_g30 - 1 x_r2_g32 - 2 x_r2_g34 - 1 x_r2_g35 - 2 x_r2_g40 - 1 x_r2_g51 - 1 x_r2_g52 - 1 x_r2_g58 - 2 x_r2_g73 - 1 x_r2_g74 - 1 x_r2_g85 - 1 x_r2_g91 - 1 x_r2_g93 - 1 x_r2_g101 - 1 x_r2_g103 - 1 x_r2_g104 - 1 x_r2_g105 - 1 x_r2_g106 - 2 x_r2_g111 - 1 x_r2_g112 - 1 x_r2_g118 - 2 x_r2_g119 - 1 x_r2_g124 - 1 x_r2_g130 - 1 x_r2_g135 - 1 x_r2_g139 - 2 x_r2_g141 - 1 x_r2_g157 - 1 x_r2_g161 - 2 x_r2_g162 - 1 x_r3_g5 - 1 x_r3_g17 - 2 x_r3_g21 - 1 x_r3_g22 - 1 x_r3_g23 - 1 x_r3_g31 - 1 x_r3_g34 - 1 x_r3_g38 - 1 x_r3_g39 - 1 x_r3_g66 - 1 x_r3_g68 - 1 x_r3_g69 - 1 x_r3_g83 - 1 x_r3_g87 - 2 x_r3_g89 - 2 x_r3_g90 - 1 x_r3_g117 - 1 x_r3_g118 - 1 x_r3_g125 - 2 x_r3_g137 - 1 x_r3_g149 - 2 x_r3_g151 - 2 x_r3_g153 - 2 x_r3_g154 - 1 x_r3_g166 - 1 p_r0_g1_h159_t9 - 1 p_r0_g5_h163_t9 - 1 p_r0_g24_h15_t9 - 1 p_r0_g56_h47_t9 - 1 p_r0_g65_h56_t9 - 1 p_r0_g66_h57_t9 - 1 p_r0_g74_h65_t9 - 1 p_r0_g112_h103_t9 - 1 p_r0_g135_h126_t9 - 1 p_r0_g159_h150_t9 - 1 p_r1_g5_h163_t9 - 1 p_r1_g43_h34_t9 - 1 p_r1_g69_h60_t9 - 1 p_r1_g77_h68_t9 - 1 p_r1_g138_h129_t9 - 1 p_r2_g30_h21_t9 - 1 p_r2_g61_h52_t9 - 1 p_r2_g83_h74_t9 - 1 p_r2_g112_h103_t9 - 1 p_r2_g133_h124_t9 - 1 p_r2_g139_h130_t9 - 1 p_r3_g26_h17_t9 - 1 p_r3_g31_h22_t9 - 1 p_r3_g34_h25_t9 - 1 p_r3_g51_h42_t9 - 1 p_r3_g60_h51_t9 - 1 p_r3_g62_h53_t9 - 1 p_r3_g69_h60_t9 - 1 p_r3_g96_h87_t9 - 1 p_r3_g158_h149_t9 = -78
 abs_pos_9: d_9 - u_9 <= 0
 abs_neg_9: - d_9 - u_9 <= 0
 max_def_9: u_9 - M <= 0
 cap_9: u_9 <= 1
 lin1_12_0_4: p_r0_g4_h159_t12 - x_r0_g4 <= 0
 lin2_12_0_4: p_r0_g4_h159_t12 - x_r0_g159 <= 0
 lin3_12_0_4: p_r0_g4_h159_t12 - x_r0_g4 - x_r0_g159 >= -1
 lin1_12_0_19: p_r0_g19_h7_t12 - x_r0_g19 <= 0
 lin2_12_0_19: p_r0_g19_h7_t12 - x_r0_g7 <= 0
 lin3_12_0_19: p_r0_g19_h7_t12 - x_r0_g19 - x_r0_g7 >= -1
 lin1_12_0_24: p_r0_g24_h12_t12 - x_r0_g24 <= 0
 lin2_12_0_24: p_r0_g24_h12_t12 - x_r0_g12 <= 0
 lin3_12_0_24: p_r0_g24_h12_t12 - x_r0_g24 - x_r0_g12 >= -1
 lin1_12_0_65: p_r0_g65_h53_t12 - x_r0_g65 <= 0
 lin2_12_0_65: p_r0_g65_h53_t12 - x_r0_g53 <= 0
 lin3_12_0_65: p_r0_g65_h53_t12 - x_r0_g65 - x_r0_g53 >= -1
 lin1_12_0_69: p_r0_g69_h57_t12 - x_r0_g69 <= 0
 lin2_12_0_69: p_r0_g69_h57_t12 - x_r0_g57 <= 0
 lin3_12_0_69: p_r0_g69_h57_t12 - x_r0_g69 - x_r0_g57 >= -1
 lin1_12_0_91: p_r0_g91_h79_t12 - x_r0_g91 <= 0
 lin2_12_0_91: p_r0_g91_h79_t12 - x_r0_g79 <= 0
 lin3_12_0_91: p_r0_g91_h79_t12 - x_r0_g91 - x_r0_g79 >= -1
 lin1_12_0_103: p_r0_g103_h91_t12 - x_r0_g103 <= 0
 lin2_12_0_103: p_r0_g103_h91_t12 - x_r0_g91 <= 0
 lin3_12_0_103: p_r0_g103_h91_t12 - x_r0_g103 - x_r0_g91 >= -1
 lin1_12_0_124: p_r0_g124_h112_t12 - x_r0_g124 <= 0
 lin2_12_0_124: p_r0_g124_h112_t12 - x_r0_g112 <= 0
 lin3_12_0_124: p_r0_g124_h112_t12 - x_r0_g124 - x_r0_g112 >= -1
 lin1_12_0_136: p_r0_g136_h124_t12 - x_r0_g136 <= 0
 lin2_12_0_136: p_r0_g136_h124_t12 - x_r0_g124 <= 0
 lin3_12_0_136: p_r0_g136_h124_t12 - x_r0_g136 - x_r0_g124 >= -1
 lin1_12_1_6: p_r1_g6_h161_t12 - x_r1_g6 <= 0
 lin2_12_1_6: p_r1_g6_h161_t12 - x_r1_g161 <= 0
 lin3_12_1_6: p_r1_g6_h161_t12 - x_r1_g6 - x_r1_g161 >= -1
 lin1_12_1_48: p_r1_g48_h36_t12 - x_r1_g48 <= 0
 lin2_12_1_48: p_r1_g48_h36_t12 - x_r1_g36 <= 0
 lin3_12_1_48: p_r1_g48_h36_t12 - x_r1_g48 - x_r1_g36 >= -1
 lin1_12_1_60: p_r1_g60_h48_t12 - x_r1_g60 <= 0
 lin2_12_1_60: p_r1_g60_h48_t12 - x_r1_g48 <= 0
 lin3_12_1_60: p_r1_g60_h48_t12 - x_r1_g60 - x_r1_g48 >= -1
 lin1_12_1_68: p_r1_g68_h56_t12 - x_r1_g68 <= 0
 lin2_12_1_68: p_r1_g68_h56_t12 - x_r1_g56 <= 0
 lin3_12_1_68: p_r1_g68_h56_t12 - x_r1_g68 - x_r1_g56 >= -1
 lin1_12_1_76: p_r1_g76_h64_t12 - x_r1_g76 <= 0
 lin2_12_1_76: p_r1_g76_h64_t12 - x_r1_g64 <= 0
 lin3_12_1_76: p_r1_g76_h64_t12 - x_r1_g76 - x_r1_g64 >= -1
 lin1_12_1_88: p_r1_g88_h76_t12 - x_r1_g88 <= 0
 lin2_12_1_88: p_r1_g88_h76_t12 - x_r1_g76 <= 0
 lin3_12_1_88: p_r1_g88_h76_t12 - x_r1_g88 - x_r1_g76 >= -1
 lin1_12_1_141: p_r1_g141_h129_t12 - x_r1_g141 <= 0
 lin2_12_1_141: p_r1_g141_h129_t12 - x_r1_g129 <= 0
 lin3_12_1_141: p_r1_g141_h129_t12 - x_r1_g141 - x_r1_g129 >= -1
 lin1_12_2_27: p_r2_g27_h15_t12 - x_r2_g27 <= 0
 lin2_12_2_27: p_r2_g27_h15_t12 - x_r2_g15 <= 0
 lin3_12_2_27: p_r2_g27_h15_t12 - x_r2_g27 - x_r2_g15 >= -1
 lin1_12_2_52: p_r2_g52_h40_t12 - x_r2_g52 <= 0
 lin2_12_2_52: p_r2_g52_h40_t12 - x_r2_g40 <= 0
 lin3_12_2_52: p_r2_g52_h40_t12 - x_r2_g52 - x_r2_g40 >= -1
 lin1_12_2_73: p_r2_g73_h61_t12 - x_r2_g73 <= 0
 lin2_12_2_73: p_r2_g73_h61_t12 - x_r2_g61 <= 0
 lin3_12_2_73: p_r2_g73_h61_t12 - x_r2_g73 - x_r2_g61 >= -1
 lin1_12_2_85: p_r2_g85_h73_t12 - x_r2_g85 <= 0
 lin2_12_2_85: p_r2_g85_h73_t12 - x_r2_g73 <= 0
 lin3_12_2_85: p_r2_g85_h73_t12 - x_r2_g85 - x_r2_g73 >= -1
 lin1_12_2_103: p_r2_g103_h91_t12 - x_r2_g103 <= 0
 lin2_12_2_103: p_r2_g103_h91_t12 - x_r2_g91 <= 0
 lin3_12_2_103: p_r2_g103_h91_t12 - x_r2_g103 - x_r2_g91 >= -1
 lin1_12_2_105: p_r2_g105_h93_t12 - x_r2_g105 <= 0
 lin2_12_2_105: p_r2_g105_h93_t12 - x_r2_g93 <= 0
 lin3_12_2_105: p_r2_g105_h93_t12 - x_r2_g105 - x_r2_g93 >= -1
 lin1_12_2_118: p_r2_g118_h106_t12 - x_r2_g118 <= 0
 lin2_12_2_118: p_r2_g118_h106_t12 - x_r2_g106 <= 0
 lin3_12_2_118: p_r2_g118_h106_t12 - x_r2_g118 - x_r2_g106 >= -1
 lin1_12_2_124: p_r2_g124_h112_t12 - x_r2_g124 <= 0
 lin2_12_2_124: p_r2_g124_h112_t12 - x_r2_g112 <= 0
 lin3_12_2_124: p_r2_g124_h112_t12 - x_r2_g124 - x_r2_g112 >= -1
 lin1_12_2_130: p_r2_g130_h118_t12 - x_r2_g130 <= 0
 lin2_12_2_130: p_r2_g130_h118_t12 - x_r2_g118 <= 0
 lin3_12_2_130: p_r2_g130_h118_t12 - x_r2_g130 - x_r2_g118 >= -1
 lin1_12_2_147: p_r2_g147_h135_t12 - x_r2_g147 <= 0
 lin2_12_2_147: p_r2_g147_h135_t12 - x_r2_g135 <= 0
 lin3_12_2_147: p_r2_g147_h135_t12 - x_r2_g147 - x_r2_g135 >= -1
 lin1_12_3_17: p_r3_g17_h5_t12 - x_r3_g17 <= 0
 lin2_12_3_17: p_r3_g17_h5_t12 - x_r3_g5 <= 0
 lin3_12_3_17: p_r3_g17_h5_t12 - x_r3_g17 - x_r3_g5 >= -1
 lin1_12_3_34: p_r3_g34_h22_t12 - x_r3_g34 <= 0
 lin2_12_3_34: p_r3_g34_h22_t12 - x_r3_g22 <= 0
 lin3_12_3_34: p_r3_g34_h22_t12 - x_r3_g34 - x_r3_g22 >= -1
 lin1_12_3_38: p_r3_g38_h26_t12 - x_r3_g38 <= 0
 lin2_12_3_38: p_r3_g38_h26_t12 - x_r3_g26 <= 0
 lin3_12_3_38: p_r3_g38_h26_t12 - x_r3_g38 - x_r3_g26 >= -1
 lin1_12_3_51: p_r3_g51_h39_t12 - x_r3_g51 <= 0
 lin2_12_3_51: p_r3_g51_h39_t12 - x_r3_g39 <= 0
 lin3_12_3_51: p_r3_g51_h39_t12 - x_r3_g51 - x_r3_g39 >= -1
 lin1_12_3_137: p_r3_g137_h125_t12 - x_r3_g137 <= 0
 lin2_12_3_137: p_r3_g137_h125_t12 - x_r3_g125 <= 0
 lin3_12_3_137: p_r3_g137_h125_t12 - x_r3_g137 - x_r3_g125 >= -1
 lin1_12_3_149: p_r3_g149_h137_t12 - x_r3_g149 <= 0
 lin2_12_3_149: p_r3_g149_h137_t12 - x_r3_g137 <= 0
 lin3_12_3_149: p_r3_g149_h137_t12 - x_r3_g149 - x_r3_g137 >= -1
 lin1_12_3_161: p_r3_g161_h149_t12 - x_r3_g161 <= 0
 lin2_12_3_161: p_r3_g161_h149_t12 - x_r3_g149 <= 0
 lin3_12_3_161: p_r3_g161_h149_t12 - x_r3_g161 - x_r3_g149 >= -1
 lin1_12_3_166: p_r3_g166_h154_t12 - x_r3_g166 <= 0
 lin2_12_3_166: p_r3_g166_h154_t12 - x_r3_g154 <= 0
 lin3_12_3_166: p_r3_g166_h154_t12 - x_r3_g166 - x_r3_g154 >= -1
 defect_12: 1 d_12 - 1 x_r0_g1 - 1 x_r0_g5 - 1 x_r0_g15 - 1 x_r0_g24 - 1 x_r0_g34 - 1 x_r0_g39 - 1 x_r0_g47 - 1 x_r0_g56 - 1 x_r0_g57 - 1 x_r0_g65 - 1 x_r0_g66 - 1 x_r0_g74 - 1 x_r0_g79 - 2 x_r0_g89 - 1 x_r0_g106 - 1 x_r0_g108 - 1 x_r0_g112 - 1 x_r0_g119 - 1 x_r0_g135 - 2 x_r0_g143 - 1 x_r0_g146 - 1 x_r0_g163 - 1 x_r1_g1 - 1 x_r1_g5 - 1 x_r1_g6 - 1 x_r1_g23 - 1 x_r1_g34 - 1 x_r1_g43 - 2 x_r1_g50 - 1 x_r1_g56 - 1 x_r1_g61 - 1 x_r1_g68 - 2 x_r1_g69 - 1 x_r1_g74 - 2 x_r1_g77 - 1 x_r1_g82 - 1 x_r1_g84 - 1 x_r1_g88 - 1 x_r1_g99 - 1 x_r1_g124 - 1 x_r1_g127 - 1 x_r1_g145 - 1 x_r1_g148 - 2 x_r2_g13 - 1 x_r2_g21 - 1 x_r2_g27 - 1 x_r2_g30 - 1 x_r2_g32 - 1 x_r2_g34 - 1 x_r2_g40 - 1 x_r2_g45 - 2 x_r2_g51 - 1 x_r2_g52 - 2 x_r2_g53 - 1 x_r2_g58 - 1 x_r2_g61 - 1 x_r2_g74 - 1 x_r2_g101 - 1 x_r2_g103 - 1 x_r2_g104 - 1 x_r2_g106 - 1 x_r2_g124 - 1 x_r2_g133 - 2 x_r2_g139 - 2 x_r2_g141 - 2 x_r2_g162 - 1 x_r3_g5 - 1 x_r3_g21 - 2 x_r3_g24 - 2 x_r3_g25 - 2 x_r3_g31 - 1 x_r3_g34 - 1 x_r3_g39 - 1 x_r3_g42 - 2 x_r3_g53 - 1 x_r3_g62 - 1 x_r3_g66 - 1 x_r3_g68 - 1 x_r3_g69 - 1 x_r3_g73 - 2 x_r3_g87 - 1 x_r3_g90 - 1 x_r3_g96 - 1 x_r3_g100 - 1 x_r3_g117 - 1 x_r3_g118 - 1 x_r3_g124 - 2 x_r3_g151 - 1 x_r3_g154 - 2 x_r3_g156 - 1 x_r3_g158 - 1 x_r3_g161 - 1 p_r0_g4_h159_t12 - 1 p_r0_g19_h7_t12 - 1 p_r0_g24_h12_t12 - 1 p_r0_g65_h53_t12 - 1 p_r0_g69_h57_t12 - 1 p_r0_g91_h79_t12 - 1 p_r0_g103_h91_t12 - 1 p_r0_g124_h112_t12 - 1 p_r0_g136_h124_t12 - 1 p_r1_g6_h161_t12 - 1 p_r1_g48_h36_t12 - 1 p_r1_g60_h48_t12 - 1 p_r1_g68_h56_t12 - 1 p_r1_g76_h64_t12 - 1 p_r1_g88_h76_t12 - 1 p_r1_g141_h129_t12 - 1 p_r2_g27_h15_t12 - 1 p_r2_g52_h40_t12 - 1 p_r2_g73_h61_t12 - 1 p_r2_g85_h73_t12 - 1 p_r2_g103_h91_t12 - 1 p_r2_g105_h93_t12 - 1 p_r2_g118_h106_t12 - 1 p_r2_g124_h112_t12 - 1 p_r2_g130_h118_t12 - 1 p_r2_g147_h135_t12 - 1 p_r3_g17_h5_t12 - 1 p_r3_g34_h22_t12 - 1 p_r3_g38_h26_t12 - 1 p_r3_g51_h39_t12 - 1 p_r3_g137_h125_t12 - 1 p_r3_g149_h137_t12 - 1 p_r3_g161_h149_t12 - 1 p_r3_g166_h154_t12 = -55
 abs_pos_12: d_12 - u_12 <= 0
 abs_neg_12: - d_12 - u_12 <= 0
 max_def_12: u_12 - M <= 0
 cap_12: u_12 <= 1
 lin1_21_0_4: p_r0_g4_h150_t21 - x_r0_g4 <= 0
 lin2_21_0_4: p_r0_g4_h150_t21 - x_r0_g150 <= 0
 lin3_21_0_4: p_r0_g4_h150_t21 - x_r0_g4 - x_r0_g150 >= -1
 lin1_21_0_74: p_r0_g74_h53_t21 - x_r0_g74 <= 0
 lin2_21_0_74: p_r0_g74_h53_t21 - x_r0_g53 <= 0
 lin3_21_0_74: p_r0_g74_h53_t21 - x_r0_g74 - x_r0_g53 >= -1
 lin1_21_0_93: p_r0_g93_h72_t21 - x_r0_g93 <= 0
 lin2_21_0_93: p_r0_g93_h72_t21 - x_r0_g72 <= 0
 lin3_21_0_93: p_r0_g93_h72_t21 - x_r0_g93 - x_r0_g72 >= -1
 lin1_21_0_106: p_r0_g106_h85_t21 - x_r0_g106 <= 0
 lin2_21_0_106: p_r0_g106_h85_t21 - x_r0_g85 <= 0
 lin3_21_0_106: p_r0_g106_h85_t21 - x_r0_g106 - x_r0_g85 >= -1
 lin1_21_0_112: p_r0_g112_h91_t21 - x_r0_g112 <= 0
 lin2_21_0_112: p_r0_g112_h91_t21 - x_r0_g91 <= 0
 lin3_21_0_112: p_r0_g112_h91_t21 - x_r0_g112 - x_r0_g91 >= -1
 lin1_21_0_124: p_r0_g124_h103_t21 - x_r0_g124 <= 0
 lin2_21_0_124: p_r0_g124_h103_t21 - x_r0_g103 <= 0
 lin3_21_0_124: p_r0_g124_h103_t21 - x_r0_g124 - x_r0_g103 >= -1
 lin1_21_0_163: p_r0_g163_h142_t21 - x_r0_g163 <= 0
 lin2_21_0_163: p_r0_g163_h142_t21 - x_r0_g142 <= 0
 lin3_21_0_163: p_r0_g163_h142_t21 - x_r0_g163 - x_r0_g142 >= -1
 lin1_21_1_42: p_r1_g42_h21_t21 - x_r1_g42 <= 0
 lin2_21_1_42: p_r1_g42_h21_t21 - x_r1_g21 <= 0
 lin3_21_1_42: p_r1_g42_h21_t21 - x_r1_g42 - x_r1_g21 >= -1
 lin1_21_1_50: p_r1_g50_h29_t21 - x_r1_g50 <= 0
 lin2_21_1_50: p_r1_g50_h29_t21 - x_r1_g29 <= 0
 lin3_21_1_50: p_r1_g50_h29_t21 - x_r1_g50 - x_r1_g29 >= -1
 lin1_21_1_61: p_r1_g61_h40_t21 - x_r1_g61 <= 0
 lin2_21_1_61: p_r1_g61_h40_t21 - x_r1_g40 <= 0
 lin3_21_1_61: p_r1_g61_h40_t21 - x_r1_g61 - x_r1_g40 >= -1
 lin1_21_1_64: p_r1_g64_h43_t21 - x_r1_g64 <= 0
 lin2_21_1_64: p_r1_g64_h43_t21 - x_r1_g43 <= 0
 lin3_21_1_64: p_r1_g64_h43_t21 - x_r1_g64 - x_r1_g43 >= -1
 lin1_21_1_69: p_r1_g69_h48_t21 - x_r1_g69 <= 0
 lin2_21_1_69: p_r1_g69_h48_t21 - x_r1_g48 <= 0
 lin3_21_1_69: p_r1_g69_h48_t21 - x_r1_g69 - x_r1_g48 >= -1
 lin1_21_1_77: p_r1_g77_h56_t21 - x_r1_g77 <= 0
 lin2_21_1_77: p_r1_g77_h56_t21 - x_r1_g56 <= 0
 lin3_21_1_77: p_r1_g77_h56_t21 - x_r1_g77 - x_r1_g56 >= -1
 lin1_21_1_82: p_r1_g82_h61_t21 - x_r1_g82 <= 0
 lin2_21_1_82: p_r1_g82_h61_t21 - x_r1_g61 <= 0
 lin3_21_1_82: p_r1_g82_h61_t21 - x_r1_g82 - x_r1_g61 >= -1
 lin1_21_1_98: p_r1_g98_h77_t21 - x_r1_g98 <= 0
 lin2_21_1_98: p_r1_g98_h77_t21 - x_r1_g77 <= 0
 lin3_21_1_98: p_r1_g98_h77_t21 - x_r1_g98 - x_r1_g77 >= -1
 lin1_21_1_109: p_r1_g109_h88_t21 - x_r1_g109 <= 0
 lin2_21_1_109: p_r1_g109_h88_t21 - x_r1_g88 <= 0
 lin3_21_1_109: p_r1_g109_h88_t21 - x_r1_g109 - x_r1_g88 >= -1
 lin1_21_1_145: p_r1_g145_h124_t21 - x_r1_g145 <= 0
 lin2_21_1_145: p_r1_g145_h124_t21 - x_r1_g124 <= 0
 lin3_21_1_145: p_r1_g145_h124_t21 - x_r1_g145 - x_r1_g124 >= -1
 lin1_21_1_148: p_r1_g148_h127_t21 - x_r1_g148 <= 0
 lin2_21_1_148: p_r1_g148_h127_t21 - x_r1_g127 <= 0
 lin3_21_1_148: p_r1_g148_h127_t21 - x_r1_g148 - x_r1_g127 >= -1
 lin1_21_1_162: p_r1_g162_h141_t21 - x_r1_g162 <= 0
 lin2_21_1_162: p_r1_g162_h141_t21 - x_r1_g141 <= 0
 lin3_21_1_162: p_r1_g162_h141_t21 - x_r1_g162 - x_r1_g141 >= -1
 lin1_21_2_15: p_r2_g15_h161_t21 - x_r2_g15 <= 0
 lin2_21_2_15: p_r2_g15_h161_t21 - x_r2_g161 <= 0
 lin3_21_2_15: p_r2_g15_h161_t21 - x_r2_g15 - x_r2_g161 >= -1
 lin1_21_2_34: p_r2_g34_h13_t21 - x_r2_g34 <= 0
 lin2_21_2_34: p_r2_g34_h13_t21 - x_r2_g13 <= 0
 lin3_21_2_34: p_r2_g34_h13_t21 - x_r2_g34 - x_r2_g13 >= -1
 lin1_21_2_51: p_r2_g51_h30_t21 - x_r2_g51 <= 0
 lin2_21_2_51: p_r2_g51_h30_t21 - x_r2_g30 <= 0
 lin3_21_2_51: p_r2_g51_h30_t21 - x_r2_g51 - x_r2_g30 >= -1
 lin1_21_2_53: p_r2_g53_h32_t21 - x_r2_g53 <= 0
 lin2_21_2_53: p_r2_g53_h32_t21 - x_r2_g32 <= 0
 lin3_21_2_53: p_r2_g53_h32_t21 - x_r2_g53 - x_r2_g32 >= -1
 lin1_21_2_61: p_r2_g61_h40_t21 - x_r2_g61 <= 0
 lin2_21_2_61: p_r2_g61_h40_t21 - x_r2_g40 <= 0
 lin3_21_2_61: p_r2_g61_h40_t21 - x_r2_g61 - x_r2_g40 >= -1
 lin1_21_2_73: p_r2_g73_h52_t21 - x_r2_g73 <= 0
 lin2_21_2_73: p_r2_g73_h52_t21 - x_r2_g52 <= 0
 lin3_21_2_73: p_r2_g73_h52_t21 - x_r2_g73 - x_r2_g52 >= -1
 lin1_21_2_74: p_r2_g74_h53_t21 - x_r2_g74 <= 0
 lin2_21_2_74: p_r2_g74_h53_t21 - x_r2_g53 <= 0
 lin3_21_2_74: p_r2_g74_h53_t21 - x_r2_g74 - x_r2_g53 >= -1
 lin1_21_2_104: p_r2_g104_h83_t21 - x_r2_g104 <= 0
 lin2_21_2_104: p_r2_g104_h83_t21 - x_r2_g83 <= 0
 lin3_21_2_104: p_r2_g104_h83_t21 - x_r2_g104 - x_r2_g83 >= -1
 lin1_21_2_106: p_r2_g106_h85_t21 - x_r2_g106 <= 0
 lin2_21_2_106: p_r2_g106_h85_t21 - x_r2_g85 <= 0
 lin3_21_2_106: p_r2_g106_h85_t21 - x_r2_g106 - x_r2_g85 >= -1
 lin1_21_2_112: p_r2_g112_h91_t21 - x_r2_g112 <= 0
 lin2_21_2_112: p_r2_g112_h91_t21 - x_r2_g91 <= 0
 lin3_21_2_112: p_r2_g112_h91_t21 - x_r2_g112 - x_r2_g91 >= -1
 lin1_21_2_124: p_r2_g124_h103_t21 - x_r2_g124 <= 0
 lin2_21_2_124: p_r2_g124_h103_t21 - x_r2_g103 <= 0
 lin3_21_2_124: p_r2_g124_h103_t21 - x_r2_g124 - x_r2_g103 >= -1
 lin1_21_2_133: p_r2_g133_h112_t21 - x_r2_g133 <= 0
 lin2_21_2_133: p_r2_g133_h112_t21 - x_r2_g112 <= 0
 lin3_21_2_133: p_r2_g133_h112_t21 - x_r2_g133 - x_r2_g112 >= -1
 lin1_21_2_139: p_r2_g139_h118_t21 - x_r2_g139 <= 0
 lin2_21_2_139: p_r2_g139_h118_t21 - x_r2_g118 <= 0
 lin3_21_2_139: p_r2_g139_h118_t21 - x_r2_g139 - x_r2_g118 >= -1
 lin1_21_2_162: p_r2_g162_h141_t21 - x_r2_g162 <= 0
 lin2_21_2_162: p_r2_g162_h141_t21 - x_r2_g141 <= 0
 lin3_21_2_162: p_r2_g162_h141_t21 - x_r2_g162 - x_r2_g141 >= -1
 lin1_21_3_5: p_r3_g5_h151_t21 - x_r3_g5 <= 0
 lin2_21_3_5: p_r3_g5_h151_t21 - x_r3_g151 <= 0
 lin3_21_3_5: p_r3_g5_h151_t21 - x_r3_g5 - x_r3_g151 >= -1
 lin1_21_3_26: p_r3_g26_h5_t21 - x_r3_g26 <= 0
 lin2_21_3_26: p_r3_g26_h5_t21 - x_r3_g5 <= 0
 lin3_21_3_26: p_r3_g26_h5_t21 - x_r3_g26 - x_r3_g5 >= -1
 lin1_21_3_38: p_r3_g38_h17_t21 - x_r3_g38 <= 0
 lin2_21_3_38: p_r3_g38_h17_t21 - x_r3_g17 <= 0
 lin3_21_3_38: p_r3_g38_h17_t21 - x_r3_g38 - x_r3_g17 >= -1
 lin1_21_3_42: p_r3_g42_h21_t21 - x_r3_g42 <= 0
 lin2_21_3_42: p_r3_g42_h21_t21 - x_r3_g21 <= 0
 lin3_21_3_42: p_r3_g42_h21_t21 - x_r3_g42 - x_r3_g21 >= -1
 lin1_21_3_60: p_r3_g60_h39_t21 - x_r3_g60 <= 0
 lin2_21_3_60: p_r3_g60_h39_t21 - x_r3_g39 <= 0
 lin3_21_3_60: p_r3_g60_h39_t21 - x_r3_g60 - x_r3_g39 >= -1
 lin1_21_3_83: p_r3_g83_h62_t21 - x_r3_g83 <= 0
 lin2_21_3_83: p_r3_g83_h62_t21 - x_r3_g62 <= 0
 lin3_21_3_83: p_r3_g83_h62_t21 - x_r3_g83 - x_r3_g62 >= -1
 lin1_21_3_87: p_r3_g87_h66_t21 - x_r3_g87 <= 0
 lin2_21_3_87: p_r3_g87_h66_t21 - x_r3_g66 <= 0
 lin3_21_3_87: p_r3_g87_h66_t21 - x_r3_g87 - x_r3_g66 >= -1
 lin1_21_3_89: p_r3_g89_h68_t21 - x_r3_g89 <= 0
 lin2_21_3_89: p_r3_g89_h68_t21 - x_r3_g68 <= 0
 lin3_21_3_89: p_r3_g89_h68_t21 - x_r3_g89 - x_r3_g68 >= -1
 lin1_21_3_90: p_r3_g90_h69_t21 - x_r3_g90 <= 0
 lin2_21_3_90: p_r3_g90_h69_t21 - x_r3_g69 <= 0
 lin3_21_3_90: p_r3_g90_h69_t21 - x_r3_g90 - x_r3_g69 >= -1
 lin1_21_3_117: p_r3_g117_h96_t21 - x_r3_g117 <= 0
 lin2_21_3_117: p_r3_g117_h96_t21 - x_r3_g96 <= 0
 lin3_21_3_117: p_r3_g117_h96_t21 - x_r3_g117 - x_r3_g96 >= -1
 lin1_21_3_158: p_r3_g158_h137_t21 - x_r3_g158 <= 0
 lin2_21_3_158: p_r3_g158_h137_t21 - x_r3_g137 <= 0
 lin3_21_3_158: p_r3_g158_h137_t21 - x_r3_g158 - x_r3_g137 >= -1
 defect_21: 1 d_21 - 1 x_r0_g4 - 1 x_r0_g5 - 1 x_r0_g11 - 1 x_r0_g12 - 1 x_r0_g15 - 2 x_r0_g19 - 2 x_r0_g24 - 2 x_r0_g34 - 1 x_r0_g47 - 1 x_r0_g56 - 1 x_r0_g57 - 1 x_r0_g66 - 2 x_r0_g69 - 1 x_r0_g72 - 2 x_r0_g79 - 1 x_r0_g89 - 1 x_r0_g91 - 1 x_r0_g106 - 1 x_r0_g119 - 1 x_r0_g136 - 1 x_r0_g143 - 1 x_r0_g159 - 1 x_r1_g5 - 1 x_r1_g6 - 1 x_r1_g23 - 2 x_r1_g36 - 1 x_r1_g48 - 2 x_r1_g60 - 1 x_r1_g68 - 1 x_r1_g69 - 2 x_r1_g74 - 1 x_r1_g82 - 1 x_r1_g98 - 1 x_r1_g99 - 1 x_r1_g109 - 1 x_r1_g124 - 1 x_r1_g129 - 1 x_r1_g138 - 1 x_r1_g145 - 2 x_r1_g161 - 1 x_r2_g21 - 1 x_r2_g27 - 2 x_r2_g35 - 1 x_r2_g52 - 1 x_r2_g61 - 1 x_r2_g73 - 1 x_r2_g85 - 1 x_r2_g93 - 2 x_r2_g101 - 1 x_r2_g103 - 1 x_r2_g105 - 1 x_r2_g106 - 2 x_r2_g111 - 2 x_r2_g119 - 1 x_r2_g130 - 1 x_r2_g135 - 1 x_r2_g139 - 1 x_r2_g141 - 2 x_r2_g147 - 1 x_r2_g157 - 1 x_r2_g161 - 1 x_r3_g17 - 2 x_r3_g22 - 1 x_r3_g23 - 1 x_r3_g24 - 2 x_r3_g25 - 1 x_r3_g26 - 2 x_r3_g34 - 1 x_r3_g38 - 1 x_r3_g39 - 1 x_r3_g51 - 2 x_r3_g53 - 1 x_r3_g60 - 1 x_r3_g62 - 1 x_r3_g66 - 1 x_r3_g68 - 1 x_r3_g73 - 1 x_r3_g87 - 1 x_r3_g89 - 1 x_r3_g90 - 1 x_r3_g96 - 1 x_r3_g117 - 1 x_r3_g118 - 1 x_r3_g124 - 1 x_r3_g125 - 1 x_r3_g149 - 1 x_r3_g154 - 1 x_r3_g158 - 1 x_r3_g161 - 2 x_r3_g166 - 1 p_r0_g4_h150_t21 - 1 p_r0_g74_h53_t21 - 1 p_r0_g93_h72_t21 - 1 p_r0_g106_h85_t21 - 1 p_r0_g112_h91_t21 - 1 p_r0_g124_h103_t21 - 1 p_r0_g163_h142_t21 - 1 p_r1_g42_h21_t21 - 1 p_r1_g50_h29_t21 - 1 p_r1_g61_h40_t21 - 1 p_r1_g64_h43_t21 - 1 p_r1_g69_h48_t21 - 1 p_r1_g77_h56_t21 - 1 p_r1_g82_h61_t21 - 1 p_r1_g98_h77_t21 - 1 p_r1_g109_h88_t21 - 1 p_r1_g145_h124_t21 - 1 p_r1_g148_h127_t21 - 1 p_r1_g162_h141_t21 - 1 p_r2_g15_h161_t21 - 1 p_r2_g34_h13_t21 - 1 p_r2_g51_h30_t21 - 1 p_r2_g53_h32_t21 - 1 p_r2_g61_h40_t21 - 1 p_r2_g73_h52_t21 - 1 p_r2_g74_h53_t21 - 1 p_r2_g104_h83_t21 - 1 p_r2_g106_h85_t21 - 1 p_r2_g112_h91_t21 - 1 p_r2_g124_h103_t21 - 1 p_r2_g133_h112_t21 - 1 p_r2_g139_h118_t21 - 1 p_r2_g162_h141_t21 - 1 p_r3_g5_h151_t21 - 1 p_r3_g26_h5_t21 - 1 p_r3_g38_h17_t21 - 1 p_r3_g42_h21_t21 - 1 p_r3_g60_h39_t21 - 1 p_r3_g83_h62_t21 - 1 p_r3_g87_h66_t21 - 1 p_r3_g89_h68_t21 - 1 p_r3_g90_h69_t21 - 1 p_r3_g117_h96_t21 - 1 p_r3_g158_h137_t21 = -64
 abs_pos_21: d_21 - u_21 <= 0
 abs_neg_21: - d_21 - u_21 <= 0
 max_def_21: u_21 - M <= 0
 cap_21: u_21 <= 0
 lin1_27_0_19: p_r0_g19_h159_t27 - x_r0_g19 <= 0
 lin2_27_0_19: p_r0_g19_h159_t27 - x_r0_g159 <= 0
 lin3_27_0_19: p_r0_g19_h159_t27 - x_r0_g19 - x_r0_g159 >= -1
 lin1_27_0_34: p_r0_g34_h7_t27 - x_r0_g34 <= 0
 lin2_27_0_34: p_r0_g34_h7_t27 - x_r0_g7 <= 0
 lin3_27_0_34: p_r0_g34_h7_t27 - x_r0_g34 - x_r0_g7 >= -1
 lin1_27_0_39: p_r0_g39_h12_t27 - x_r0_g39 <= 0
 lin2_27_0_39: p_r0_g39_h12_t27 - x_r0_g12 <= 0
 lin3_27_0_39: p_r0_g39_h12_t27 - x_r0_g39 - x_r0_g12 >= -1
 lin1_27_0_66: p_r0_g66_h39_t27 - x_r0_g66 <= 0
 lin2_27_0_66: p_r0_g66_h39_t27 - x_r0_g39 <= 0
 lin3_27_0_66: p_r0_g66_h39_t27 - x_r0_g66 - x_r0_g39 >= -1
 lin1_27_0_74: p_r0_g74_h47_t27 - x_r0_g74 <= 0
 lin2_27_0_74: p_r0_g74_h47_t27 - x_r0_g47 <= 0
 lin3_27_0_74: p_r0_g74_h47_t27 - x_r0_g74 - x_r0_g47 >= -1
 lin1_27_0_93: p_r0_g93_h66_t27 - x_r0_g93 <= 0
 lin2_27_0_93: p_r0_g93_h66_t27 - x_r0_g66 <= 0
 lin3_27_0_93: p_r0_g93_h66_t27 - x_r0_g93 - x_r0_g66 >= -1
 lin1_27_0_106: p_r0_g106_h79_t27 - x_r0_g106 <= 0
 lin2_27_0_106: p_r0_g106_h79_t27 - x_r0_g79 <= 0
 lin3_27_0_106: p_r0_g106_h79_t27 - x_r0_g106 - x_r0_g79 >= -1
 lin1_27_0_112: p_r0_g112_h85_t27 - x_r0_g112 <= 0
 lin2_27_0_112: p_r0_g112_h85_t27 - x_r0_g85 <= 0
 lin3_27_0_112: p_r0_g112_h85_t27 - x_r0_g112 - x_r0_g85 >= -1
 lin1_27_0_135: p_r0_g135_h108_t27 - x_r0_g135 <= 0
 lin2_27_0_135: p_r0_g135_h108_t27 - x_r0_g108 <= 0
 lin3_27_0_135: p_r0_g135_h108_t27 - x_r0_g135 - x_r0_g108 >= -1
 lin1_27_0_146: p_r0_g146_h119_t27 - x_r0_g146 <= 0
 lin2_27_0_146: p_r0_g146_h119_t27 - x_r0_g119 <= 0
 lin3_27_0_146: p_r0_g146_h119_t27 - x_r0_g146 - x_r0_g119 >= -1
 lin1_27_0_163: p_r0_g163_h136_t27 - x_r0_g163 <= 0
 lin2_27_0_163: p_r0_g163_h136_t27 - x_r0_g136 <= 0
 lin3_27_0_163: p_r0_g163_h136_t27 - x_r0_g163 - x_r0_g136 >= -1
 lin1_27_1_1: p_r1_g1_h141_t27 - x_r1_g1 <= 0
 lin2_27_1_1: p_r1_g1_h141_t27 - x_r1_g141 <= 0
 lin3_27_1_1: p_r1_g1_h141_t27 - x_r1_g1 - x_r1_g141 >= -1
 lin1_27_1_5: p_r1_g5_h145_t27 - x_r1_g5 <= 0
 lin2_27_1_5: p_r1_g5_h145_t27 - x_r1_g145 <= 0
 lin3_27_1_5: p_r1_g5_h145_t27 - x_r1_g5 - x_r1_g145 >= -1
 lin1_27_1_21: p_r1_g21_h161_t27 - x_r1_g21 <= 0
 lin2_27_1_21: p_r1_g21_h161_t27 - x_r1_g161 <= 0
 lin3_27_1_21: p_r1_g21_h161_t27 - x_r1_g21 - x_r1_g161 >= -1
 lin1_27_1_23: p_r1_g23_h163_t27 - x_r1_g23 <= 0
 lin2_27_1_23: p_r1_g23_h163_t27 - x_r1_g163 <= 0
 lin3_27_1_23: p_r1_g23_h163_t27 - x_r1_g23 - x_r1_g163 >= -1
 lin1_27_1_48: p_r1_g48_h21_t27 - x_r1_g48 <= 0
 lin2_27_1_48: p_r1_g48_h21_t27 - x_r1_g21 <= 0
 lin3_27_1_48: p_r1_g48_h21_t27 - x_r1_g48 - x_r1_g21 >= -1
 lin1_27_1_50: p_r1_g50_h23_t27 - x_r1_g50 <= 0
 lin2_27_1_50: p_r1_g50_h23_t27 - x_r1_g23 <= 0
 lin3_27_1_50: p_r1_g50_h23_t27 - x_r1_g50 - x_r1_g23 >= -1
 lin1_27_1_56: p_r1_g56_h29_t27 - x_r1_g56 <= 0
 lin2_27_1_56: p_r1_g56_h29_t27 - x_r1_g29 <= 0
 lin3_27_1_56: p_r1_g56_h29_t27 - x_r1_g56 - x_r1_g29 >= -1
 lin1_27_1_61: p_r1_g61_h34_t27 - x_r1_g61 <= 0
 lin2_27_1_61: p_r1_g61_h34_t27 - x_r1_g34 <= 0
 lin3_27_1_61: p_r1_g61_h34_t27 - x_r1_g61 - x_r1_g34 >= -1
 lin1_27_1_69: p_r1_g69_h42_t27 - x_r1_g69 <= 0
 lin2_27_1_69: p_r1_g69_h42_t27 - x_r1_g42 <= 0
 lin3_27_1_69: p_r1_g69_h42_t27 - x_r1_g69 - x_r1_g42 >= -1
 lin1_27_1_77: p_r1_g77_h50_t27 - x_r1_g77 <= 0
 lin2_27_1_77: p_r1_g77_h50_t27 - x_r1_g50 <= 0
 lin3_27_1_77: p_r1_g77_h50_t27 - x_r1_g77 - x_r1_g50 >= -1
 lin1_27_1_88: p_r1_g88_h61_t27 - x_r1_g88 <= 0
 lin2_27_1_88: p_r1_g88_h61_t27 - x_r1_g61 <= 0
 lin3_27_1_88: p_r1_g88_h61_t27 - x_r1_g88 - x_r1_g61 >= -1
 lin1_27_1_104: p_r1_g104_h77_t27 - x_r1_g104 <= 0
 lin2_27_1_104: p_r1_g104_h77_t27 - x_r1_g77 <= 0
 lin3_27_1_104: p_r1_g104_h77_t27 - x_r1_g104 - x_r1_g77 >= -1
 lin1_27_1_109: p_r1_g109_h82_t27 - x_r1_g109 <= 0
 lin2_27_1_109: p_r1_g109_h82_t27 - x_r1_g82 <= 0
 lin3_27_1_109: p_r1_g109_h82_t27 - x_r1_g109 - x_r1_g82 >= -1
 lin1_27_2_21: p_r2_g21_h161_t27 - x_r2_g21 <= 0
 lin2_27_2_21: p_r2_g21_h161_t27 - x_r2_g161 <= 0
 lin3_27_2_21: p_r2_g21_h161_t27 - x_r2_g21 - x_r2_g161 >= -1
 lin1_27_2_40: p_r2_g40_h13_t27 - x_r2_g40 <= 0
 lin2_27_2_40: p_r2_g40_h13_t27 - x_r2_g13 <= 0
 lin3_27_2_40: p_r2_g40_h13_t27 - x_r2_g40 - x_r2_g13 >= -1
 lin1_27_2_61: p_r2_g61_h34_t27 - x_r2_g61 <= 0
 lin2_27_2_61: p_r2_g61_h34_t27 - x_r2_g34 <= 0
 lin3_27_2_61: p_r2_g61_h34_t27 - x_r2_g61 - x_r2_g34 >= -1
 lin1_27_2_85: p_r2_g85_h58_t27 - x_r2_g85 <= 0
 lin2_27_2_85: p_r2_g85_h58_t27 - x_r2_g58 <= 0
 lin3_27_2_85: p_r2_g85_h58_t27 - x_r2_g85 - x_r2_g58 >= -1
 lin1_27_2_101: p_r2_g101_h74_t27 - x_r2_g101 <= 0
 lin2_27_2_101: p_r2_g101_h74_t27 - x_r2_g74 <= 0
 lin3_27_2_101: p_r2_g101_h74_t27 - x_r2_g101 - x_r2_g74 >= -1
 lin1_27_2_112: p_r2_g112_h85_t27 - x_r2_g112 <= 0
 lin2_27_2_112: p_r2_g112_h85_t27 - x_r2_g85 <= 0
 lin3_27_2_112: p_r2_g112_h85_t27 - x_r2_g112 - x_r2_g85 >= -1
 lin1_27_2_118: p_r2_g118_h91_t27 - x_r2_g118 <= 0
 lin2_27_2_118: p_r2_g118_h91_t27 - x_r2_g91 <= 0
 lin3_27_2_118: p_r2_g118_h91_t27 - x_r2_g118 - x_r2_g91 >= -1
 lin1_27_2_130: p_r2_g130_h103_t27 - x_r2_g130 <= 0
 lin2_27_2_130: p_r2_g130_h103_t27 - x_r2_g103 <= 0
 lin3_27_2_130: p_r2_g130_h103_t27 - x_r2_g130 - x_r2_g103 >= -1
 lin1_27_2_133: p_r2_g133_h106_t27 - x_r2_g133 <= 0
 lin2_27_2_133: p_r2_g133_h106_t27 - x_r2_g106 <= 0
 lin3_27_2_133: p_r2_g133_h106_t27 - x_r2_g133 - x_r2_g106 >= -1
 lin1_27_2_139: p_r2_g139_h112_t27 - x_r2_g139 <= 0
 lin2_27_2_139: p_r2_g139_h112_t27 - x_r2_g112 <= 0
 lin3_27_2_139: p_r2_g139_h112_t27 - x_r2_g139 - x_r2_g112 >= -1
 lin1_27_2_157: p_r2_g157_h130_t27 - x_r2_g157 <= 0
 lin2_27_2_157: p_r2_g157_h130_t27 - x_r2_g130 <= 0
 lin3_27_2_157: p_r2_g157_h130_t27 - x_r2_g157 - x_r2_g130 >= -1
 lin1_27_2_162: p_r2_g162_h135_t27 - x_r2_g162 <= 0
 lin2_27_2_162: p_r2_g162_h135_t27 - x_r2_g135 <= 0
 lin3_27_2_162: p_r2_g162_h135_t27 - x_r2_g162 - x_r2_g135 >= -1
 lin1_27_3_21: p_r3_g21_h161_t27 - x_r3_g21 <= 0
 lin2_27_3_21: p_r3_g21_h161_t27 - x_r3_g161 <= 0
 lin3_27_3_21: p_r3_g21_h161_t27 - x_r3_g21 - x_r3_g161 >= -1
 lin1_27_3_26: p_r3_g26_h166_t27 - x_r3_g26 <= 0
 lin2_27_3_26: p_r3_g26_h166_t27 - x_r3_g166 <= 0
 lin3_27_3_26: p_r3_g26_h166_t27 - x_r3_g26 - x_r3_g166 >= -1
 lin1_27_3_51: p_r3_g51_h24_t27 - x_r3_g51 <= 0
 lin2_27_3_51: p_r3_g51_h24_t27 - x_r3_g24 <= 0
 lin3_27_3_51: p_r3_g51_h24_t27 - x_r3_g51 - x_r3_g24 >= -1
 lin1_27_3_53: p_r3_g53_h26_t27 - x_r3_g53 <= 0
 lin2_27_3_53: p_r3_g53_h26_t27 - x_r3_g26 <= 0
 lin3_27_3_53: p_r3_g53_h26_t27 - x_r3_g53 - x_r3_g26 >= -1
 lin1_27_3_66: p_r3_g66_h39_t27 - x_r3_g66 <= 0
 lin2_27_3_66: p_r3_g66_h39_t27 - x_r3_g39 <= 0
 lin3_27_3_66: p_r3_g66_h39_t27 - x_r3_g66 - x_r3_g39 >= -1
 lin1_27_3_69: p_r3_g69_h42_t27 - x_r3_g69 <= 0
 lin2_27_3_69: p_r3_g69_h42_t27 - x_r3_g42 <= 0
 lin3_27_3_69: p_r3_g69_h42_t27 - x_r3_g69 - x_r3_g42 >= -1
 lin1_27_3_87: p_r3_g87_h60_t27 - x_r3_g87 <= 0
 lin2_27_3_87: p_r3_g87_h60_t27 - x_r3_g60 <= 0
 lin3_27_3_87: p_r3_g87_h60_t27 - x_r3_g87 - x_r3_g60 >= -1
 lin1_27_3_89: p_r3_g89_h62_t27 - x_r3_g89 <= 0
 lin2_27_3_89: p_r3_g89_h62_t27 - x_r3_g62 <= 0
 lin3_27_3_89: p_r3_g89_h62_t27 - x_r3_g89 - x_r3_g62 >= -1
 lin1_27_3_96: p_r3_g96_h69_t27 - x_r3_g96 <= 0
 lin2_27_3_96: p_r3_g96_h69_t27 - x_r3_g69 <= 0
 lin3_27_3_96: p_r3_g96_h69_t27 - x_r3_g96 - x_r3_g69 >= -1
 lin1_27_3_100: p_r3_g100_h73_t27 - x_r3_g100 <= 0
 lin2_27_3_100: p_r3_g100_h73_t27 - x_r3_g73 <= 0
 lin3_27_3_100: p_r3_g100_h73_t27 - x_r3_g100 - x_r3_g73 >= -1
 lin1_27_3_117: p_r3_g117_h90_t27 - x_r3_g117 <= 0
 lin2_27_3_117: p_r3_g117_h90_t27 - x_r3_g90 <= 0
 lin3_27_3_117: p_r3_g117_h90_t27 - x_r3_g117 - x_r3_g90 >= -1
 lin1_27_3_151: p_r3_g151_h124_t27 - x_r3_g151 <= 0
 lin2_27_3_151: p_r3_g151_h124_t27 - x_r3_g124 <= 0
 lin3_27_3_151: p_r3_g151_h124_t27 - x_r3_g151 - x_r3_g124 >= -1
 defect_27: 1 d_27 - 2 x_r0_g11 - 1 x_r0_g12 - 2 x_r0_g15 - 1 x_r0_g19 - 1 x_r0_g24 - 1 x_r0_g47 - 1 x_r0_g57 - 1 x_r0_g65 - 1 x_r0_g69 - 1 x_r0_g72 - 1 x_r0_g74 - 1 x_r0_g79 - 1 x_r0_g85 - 2 x_r0_g89 - 1 x_r0_g91 - 1 x_r0_g93 - 1 x_r0_g112 - 1 x_r0_g124 - 2 x_r0_g143 - 1 x_r0_g146 - 1 x_r0_g150 - 1 x_r0_g159 - 1 x_r1_g5 - 1 x_r1_g6 - 1 x_r1_g42 - 1 x_r1_g43 - 1 x_r1_g60 - 2 x_r1_g64 - 1 x_r1_g68 - 1 x_r1_g69 - 2 x_r1_g76 - 1 x_r1_g84 - 1 x_r1_g88 - 2 x_r1_g127 - 1 x_r1_g129 - 1 x_r1_g141 - 2 x_r1_g155 - 1 x_r2_g13 - 1 x_r2_g21 - 1 x_r2_g27 - 1 x_r2_g34 - 1 x_r2_g45 - 1 x_r2_g51 - 1 x_r2_g52 - 2 x_r2_g53 - 1 x_r2_g58 - 1 x_r2_g73 - 2 x_r2_g83 - 1 x_r2_g91 - 1 x_r2_g93 - 1 x_r2_g101 - 2 x_r2_g105 - 1 x_r2_g124 - 1 x_r2_g133 - 2 x_r2_g141 - 2 x_r2_g147 - 1 x_r2_g161 - 2 x_r3_g5 - 2 x_r3_g22 - 1 x_r3_g23 - 1 x_r3_g31 - 1 x_r3_g34 - 1 x_r3_g38 - 1 x_r3_g39 - 1 x_r3_g51 - 1 x_r3_g53 - 1 x_r3_g68 - 1 x_r3_g73 - 1 x_r3_g83 - 1 x_r3_g96 - 1 x_r3_g100 - 1 x_r3_g117 - 1 x_r3_g118 - 1 x_r3_g125 - 1 x_r3_g137 - 2 x_r3_g149 - 1 x_r3_g153 - 1 x_r3_g154 - 1 x_r3_g156 - 1 x_r3_g158 - 1 x_r3_g161 - 1 x_r3_g166 - 1 p_r0_g19_h159_t27 - 1 p_r0_g34_h7_t27 - 1 p_r0_g39_h12_t27 - 1 p_r0_g66_h39_t27 - 1 p_r0_g74_h47_t27 - 1 p_r0_g93_h66_t27 - 1 p_r0_g106_h79_t27 - 1 p_r0_g112_h85_t27 - 1 p_r0_g135_h108_t27 - 1 p_r0_g146_h119_t27 - 1 p_r0_g163_h136_t27 - 1 p_r1_g1_h141_t27 - 1 p_r1_g5_h145_t27 - 1 p_r1_g21_h161_t27 - 1 p_r1_g23_h163_t27 - 1 p_r1_g48_h21_t27 - 1 p_r1_g50_h23_t27 - 1 p_r1_g56_h29_t27 - 1 p_r1_g61_h34_t27 - 1 p_r1_g69_h42_t27 - 1 p_r1_g77_h50_t27 - 1 p_r1_g88_h61_t27 - 1 p_r1_g104_h77_t27 - 1 p_r1_g109_h82_t27 - 1 p_r2_g21_h161_t27 - 1 p_r2_g40_h13_t27 - 1 p_r2_g61_h34_t27 - 1 p_r2_g85_h58_t27 - 1 p_r2_g101_h74_t27 - 1 p_r2_g112_h85_t27 - 1 p_r2_g118_h91_t27 - 1 p_r2_g130_h103_t27 - 1 p_r2_g133_h106_t27 - 1 p_r2_g139_h112_t27 - 1 p_r2_g157_h130_t27 - 1 p_r2_g162_h135_t27 - 1 p_r3_g21_h161_t27 - 1 p_r3_g26_h166_t27 - 1 p_r3_g51_h24_t27 - 1 p_r3_g53_h26_t27 - 1 p_r3_g66_h39_t27 - 1 p_r3_g69_h42_t27 - 1 p_r3_g87_h60_t27 - 1 p_r3_g89_h62_t27 - 1 p_r3_g96_h69_t27 - 1 p_r3_g100_h73_t27 - 1 p_r3_g117_h90_t27 - 1 p_r3_g151_h124_t27 = -74
 abs_pos_27: d_27 - u_27 <= 0
 abs_neg_27: - d_27 - u_27 <= 0
 max_def_27: u_27 - M <= 0
 cap_27: u_27 <= 2
 lin1_29_0_4: p_r0_g4_h142_t29 - x_r0_g4 <= 0
 lin2_29_0_4: p_r0_g4_h142_t29 - x_r0_g142 <= 0
 lin3_29_0_4: p_r0_g4_h142_t29 - x_r0_g4 - x_r0_g142 >= -1
 lin1_29_0_5: p_r0_g5_h143_t29 - x_r0_g5 <= 0
 lin2_29_0_5: p_r0_g5_h143_t29 - x_r0_g143 <= 0
 lin3_29_0_5: p_r0_g5_h143_t29 - x_r0_g5 - x_r0_g143 >= -1
 lin1_29_0_12: p_r0_g12_h150_t29 - x_r0_g12 <= 0
 lin2_29_0_12: p_r0_g12_h150_t29 - x_r0_g150 <= 0
 lin3_29_0_12: p_r0_g12_h150_t29 - x_r0_g12 - x_r0_g150 >= -1
 lin1_29_0_34: p_r0_g34_h5_t29 - x_r0_g34 <= 0
 lin2_29_0_34: p_r0_g34_h5_t29 - x_r0_g5 <= 0
 lin3_29_0_34: p_r0_g34_h5_t29 - x_r0_g34 - x_r0_g5 >= -1
 lin1_29_0_53: p_r0_g53_h24_t29 - x_r0_g53 <= 0
 lin2_29_0_53: p_r0_g53_h24_t29 - x_r0_g24 <= 0
 lin3_29_0_53: p_r0_g53_h24_t29 - x_r0_g53 - x_r0_g24 >= -1
 lin1_29_0_85: p_r0_g85_h56_t29 - x_r0_g85 <= 0
 lin2_29_0_85: p_r0_g85_h56_t29 - x_r0_g56 <= 0
 lin3_29_0_85: p_r0_g85_h56_t29 - x_r0_g85 - x_r0_g56 >= -1
 lin1_29_0_103: p_r0_g103_h74_t29 - x_r0_g103 <= 0
 lin2_29_0_103: p_r0_g103_h74_t29 - x_r0_g74 <= 0
 lin3_29_0_103: p_r0_g103_h74_t29 - x_r0_g103 - x_r0_g74 >= -1
 lin1_29_0_108: p_r0_g108_h79_t29 - x_r0_g108 <= 0
 lin2_29_0_108: p_r0_g108_h79_t29 - x_r0_g79 <= 0
 lin3_29_0_108: p_r0_g108_h79_t29 - x_r0_g108 - x_r0_g79 >= -1
 lin1_29_0_135: p_r0_g135_h106_t29 - x_r0_g135 <= 0
 lin2_29_0_135: p_r0_g135_h106_t29 - x_r0_g106 <= 0
 lin3_29_0_135: p_r0_g135_h106_t29 - x_r0_g135 - x_r0_g106 >= -1
 lin1_29_1_23: p_r1_g23_h161_t29 - x_r1_g23 <= 0
 lin2_29_1_23: p_r1_g23_h161_t29 - x_r1_g161 <= 0
 lin3_29_1_23: p_r1_g23_h161_t29 - x_r1_g23 - x_r1_g161 >= -1
 lin1_29_1_34: p_r1_g34_h5_t29 - x_r1_g34 <= 0
 lin2_29_1_34: p_r1_g34_h5_t29 - x_r1_g5 <= 0
 lin3_29_1_34: p_r1_g34_h5_t29 - x_r1_g34 - x_r1_g5 >= -1
 lin1_29_1_50: p_r1_g50_h21_t29 - x_r1_g50 <= 0
 lin2_29_1_50: p_r1_g50_h21_t29 - x_r1_g21 <= 0
 lin3_29_1_50: p_r1_g50_h21_t29 - x_r1_g50 - x_r1_g21 >= -1
 lin1_29_1_69: p_r1_g69_h40_t29 - x_r1_g69 <= 0
 lin2_29_1_69: p_r1_g69_h40_t29 - x_r1_g40 <= 0
 lin3_29_1_69: p_r1_g69_h40_t29 - x_r1_g69 - x_r1_g40 >= -1
 lin1_29_1_77: p_r1_g77_h48_t29 - x_r1_g77 <= 0
 lin2_29_1_77: p_r1_g77_h48_t29 - x_r1_g48 <= 0
 lin3_29_1_77: p_r1_g77_h48_t29 - x_r1_g77 - x_r1_g48 >= -1
 lin1_29_1_98: p_r1_g98_h69_t29 - x_r1_g98 <= 0
 lin2_29_1_98: p_r1_g98_h69_t29 - x_r1_g69 <= 0
 lin3_29_1_98: p_r1_g98_h69_t29 - x_r1_g98 - x_r1_g69 >= -1
 lin1_29_1_127: p_r1_g127_h98_t29 - x_r1_g127 <= 0
 lin2_29_1_127: p_r1_g127_h98_t29 - x_r1_g98 <= 0
 lin3_29_1_127: p_r1_g127_h98_t29 - x_r1_g127 - x_r1_g98 >= -1
 lin1_29_1_138: p_r1_g138_h109_t29 - x_r1_g138 <= 0
 lin2_29_1_138: p_r1_g138_h109_t29 - x_r1_g109 <= 0
 lin3_29_1_138: p_r1_g138_h109_t29 - x_r1_g138 - x_r1_g109 >= -1
 lin1_29_2_61: p_r2_g61_h32_t29 - x_r2_g61 <= 0
 lin2_29_2_61: p_r2_g61_h32_t29 - x_r2_g32 <= 0
 lin3_29_2_61: p_r2_g61_h32_t29 - x_r2_g61 - x_r2_g32 >= -1
 lin1_29_2_74: p_r2_g74_h45_t29 - x_r2_g74 <= 0
 lin2_29_2_74: p_r2_g74_h45_t29 - x_r2_g45 <= 0
 lin3_29_2_74: p_r2_g74_h45_t29 - x_r2_g74 - x_r2_g45 >= -1
 lin1_29_2_103: p_r2_g103_h74_t29 - x_r2_g103 <= 0
 lin2_29_2_103: p_r2_g103_h74_t29 - x_r2_g74 <= 0
 lin3_29_2_103: p_r2_g103_h74_t29 - x_r2_g103 - x_r2_g74 >= -1
 lin1_29_2_112: p_r2_g112_h83_t29 - x_r2_g112 <= 0
 lin2_29_2_112: p_r2_g112_h83_t29 - x_r2_g83 <= 0
 lin3_29_2_112: p_r2_g112_h83_t29 - x_r2_g112 - x_r2_g83 >= -1
 lin1_29_2_130: p_r2_g130_h101_t29 - x_r2_g130 <= 0
 lin2_29_2_130: p_r2_g130_h101_t29 - x_r2_g101 <= 0
 lin3_29_2_130: p_r2_g130_h101_t29 - x_r2_g130 - x_r2_g101 >= -1
 lin1_29_2_133: p_r2_g133_h104_t29 - x_r2_g133 <= 0
 lin2_29_2_133: p_r2_g133_h104_t29 - x_r2_g104 <= 0
 lin3_29_2_133: p_r2_g133_h104_t29 - x_r2_g133 - x_r2_g104 >= -1
 lin1_29_2_135: p_r2_g135_h106_t29 - x_r2_g135 <= 0
 lin2_29_2_135: p_r2_g135_h106_t29 - x_r2_g106 <= 0
 lin3_29_2_135: p_r2_g135_h106_t29 - x_r2_g135 - x_r2_g106 >= -1
 lin1_29_2_141: p_r2_g141_h112_t29 - x_r2_g141 <= 0
 lin2_29_2_141: p_r2_g141_h112_t29 - x_r2_g112 <= 0
 lin3_29_2_141: p_r2_g141_h112_t29 - x_r2_g141 - x_r2_g112 >= -1
 lin1_29_2_147: p_r2_g147_h118_t29 - x_r2_g147 <= 0
 lin2_29_2_147: p_r2_g147_h118_t29 - x_r2_g118 <= 0
 lin3_29_2_147: p_r2_g147_h118_t29 - x_r2_g147 - x_r2_g118 >= -1
 lin1_29_2_162: p_r2_g162_h133_t29 - x_r2_g162 <= 0
 lin2_29_2_162: p_r2_g162_h133_t29 - x_r2_g133 <= 0
 lin3_29_2_162: p_r2_g162_h133_t29 - x_r2_g162 - x_r2_g133 >= -1
 lin1_29_3_23: p_r3_g23_h161_t29 - x_r3_g23 <= 0
 lin2_29_3_23: p_r3_g23_h161_t29 - x_r3_g161 <= 0
 lin3_29_3_23: p_r3_g23_h161_t29 - x_r3_g23 - x_r3_g161 >= -1
 lin1_29_3_34: p_r3_g34_h5_t29 - x_r3_g34 <= 0
 lin2_29_3_34: p_r3_g34_h5_t29 - x_r3_g5 <= 0
 lin3_29_3_34: p_r3_g34_h5_t29 - x_r3_g34 - x_r3_g5 >= -1
 lin1_29_3_51: p_r3_g51_h22_t29 - x_r3_g51 <= 0
 lin2_29_3_51: p_r3_g51_h22_t29 - x_r3_g22 <= 0
 lin3_29_3_51: p_r3_g51_h22_t29 - x_r3_g51 - x_r3_g22 >= -1
 lin1_29_3_53: p_r3_g53_h24_t29 - x_r3_g53 <= 0
 lin2_29_3_53: p_r3_g53_h24_t29 - x_r3_g24 <= 0
 lin3_29_3_53: p_r3_g53_h24_t29 - x_r3_g53 - x_r3_g24 >= -1
 lin1_29_3_60: p_r3_g60_h31_t29 - x_r3_g60 <= 0
 lin2_29_3_60: p_r3_g60_h31_t29 - x_r3_g31 <= 0
 lin3_29_3_60: p_r3_g60_h31_t29 - x_r3_g60 - x_r3_g31 >= -1
 lin1_29_3_68: p_r3_g68_h39_t29 - x_r3_g68 <= 0
 lin2_29_3_68: p_r3_g68_h39_t29 - x_r3_g39 <= 0
 lin3_29_3_68: p_r3_g68_h39_t29 - x_r3_g68 - x_r3_g39 >= -1
 lin1_29_3_89: p_r3_g89_h60_t29 - x_r3_g89 <= 0
 lin2_29_3_89: p_r3_g89_h60_t29 - x_r3_g60 <= 0
 lin3_29_3_89: p_r3_g89_h60_t29 - x_r3_g89 - x_r3_g60 >= -1
 lin1_29_3_118: p_r3_g118_h89_t29 - x_r3_g118 <= 0
 lin2_29_3_118: p_r3_g118_h89_t29 - x_r3_g89 <= 0
 lin3_29_3_118: p_r3_g118_h89_t29 - x_r3_g118 - x_r3_g89 >= -1
 lin1_29_3_125: p_r3_g125_h96_t29 - x_r3_g125 <= 0
 lin2_29_3_125: p_r3_g125_h96_t29 - x_r3_g96 <= 0
 lin3_29_3_125: p_r3_g125_h96_t29 - x_r3_g125 - x_r3_g96 >= -1
 lin1_29_3_153: p_r3_g153_h124_t29 - x_r3_g153 <= 0
 lin2_29_3_153: p_r3_g153_h124_t29 - x_r3_g124 <= 0
 lin3_29_3_153: p_r3_g153_h124_t29 - x_r3_g153 - x_r3_g124 >= -1
 lin1_29_3_154: p_r3_g154_h125_t29 - x_r3_g154 <= 0
 lin2_29_3_154: p_r3_g154_h125_t29 - x_r3_g125 <= 0
 lin3_29_3_154: p_r3_g154_h125_t29 - x_r3_g154 - x_r3_g125 >= -1
 lin1_29_3_166: p_r3_g166_h137_t29 - x_r3_g166 <= 0
 lin2_29_3_166: p_r3_g166_h137_t29 - x_r3_g137 <= 0
 lin3_29_3_166: p_r3_g166_h137_t29 - x_r3_g166 - x_r3_g137 >= -1
 defect_29: 1 d_29 - 2 x_r0_g1 - 1 x_r0_g7 - 2 x_r0_g11 - 2 x_r0_g19 - 1 x_r0_g34 - 1 x_r0_g39 - 1 x_r0_g65 - 1 x_r0_g66 - 2 x_r0_g69 - 2 x_r0_g72 - 1 x_r0_g74 - 1 x_r0_g89 - 2 x_r0_g91 - 1 x_r0_g93 - 1 x_r0_g103 - 1 x_r0_g106 - 1 x_r0_g108 - 1 x_r0_g119 - 1 x_r0_g126 - 1 x_r0_g136 - 1 x_r0_g142 - 1 x_r0_g163 - 1 x_r1_g21 - 1 x_r1_g36 - 1 x_r1_g40 - 1 x_r1_g50 - 1 x_r1_g56 - 2 x_r1_g60 - 2 x_r1_g61 - 1 x_r1_g68 - 1 x_r1_g74 - 1 x_r1_g82 - 1 x_r1_g84 - 2 x_r1_g99 - 1 x_r1_g109 - 1 x_r1_g124 - 1 x_r1_g127 - 1 x_r1_g129 - 2 x_r1_g141 - 2 x_r1_g148 - 1 x_r1_g161 - 1 x_r1_g163 - 1 x_r2_g13 - 1 x_r2_g15 - 2 x_r2_g27 - 1 x_r2_g30 - 1 x_r2_g34 - 1 x_r2_g35 - 1 x_r2_g51 - 1 x_r2_g53 - 1 x_r2_g61 - 1 x_r2_g73 - 2 x_r2_g85 - 1 x_r2_g91 - 2 x_r2_g93 - 1 x_r2_g103 - 1 x_r2_g104 - 1 x_r2_g105 - 2 x_r2_g111 - 2 x_r2_g119 - 1 x_r2_g124 - 2 x_r2_g139 - 1 x_r2_g157 - 1 x_r2_g161 - 1 x_r3_g5 - 1 x_r3_g17 - 1 x_r3_g22 - 1 x_r3_g24 - 1 x_r3_g25 - 1 x_r3_g26 - 1 x_r3_g31 - 1 x_r3_g38 - 1 x_r3_g42 - 1 x_r3_g51 - 1 x_r3_g66 - 2 x_r3_g69 - 1 x_r3_g83 - 2 x_r3_g90 - 1 x_r3_g100 - 1 x_r3_g117 - 1 x_r3_g137 - 2 x_r3_g151 - 2 x_r3_g156 - 2 x_r3_g158 - 1 x_r3_g166 - 1 p_r0_g4_h142_t29 - 1 p_r0_g5_h143_t29 - 1 p_r0_g12_h150_t29 - 1 p_r0_g34_h5_t29 - 1 p_r0_g53_h24_t29 - 1 p_r0_g85_h56_t29 - 1 p_r0_g103_h74_t29 - 1 p_r0_g108_h79_t29 - 1 p_r0_g135_h106_t29 - 1 p_r1_g23_h161_t29 - 1 p_r1_g34_h5_t29 - 1 p_r1_g50_h21_t29 - 1 p_r1_g69_h40_t29 - 1 p_r1_g77_h48_t29 - 1 p_r1_g98_h69_t29 - 1 p_r1_g127_h98_t29 - 1 p_r1_g138_h109_t29 - 1 p_r2_g61_h32_t29 - 1 p_r2_g74_h45_t29 - 1 p_r2_g103_h74_t29 - 1 p_r2_g112_h83_t29 - 1 p_r2_g130_h101_t29 - 1 p_r2_g133_h104_t29 - 1 p_r2_g135_h106_t29 - 1 p_r2_g141_h112_t29 - 1 p_r2_g147_h118_t29 - 1 p_r2_g162_h133_t29 - 1 p_r3_g23_h161_t29 - 1 p_r3_g34_h5_t29 - 1 p_r3_g51_h22_t29 - 1 p_r3_g53_h24_t29 - 1 p_r3_g60_h31_t29 - 1 p_r3_g68_h39_t29 - 1 p_r3_g89_h60_t29 - 1 p_r3_g118_h89_t29 - 1 p_r3_g125_h96_t29 - 1 p_r3_g153_h124_t29 - 1 p_r3_g154_h125_t29 - 1 p_r3_g166_h137_t29 = -67
 abs_pos_29: d_29 - u_29 <= 0
 abs_neg_29: - d_29 - u_29 <= 0
 max_def_29: u_29 - M <= 0
 cap_29: u_29 <= 1
 lin1_34_0_39: p_r0_g39_h5_t34 - x_r0_g39 <= 0
 lin2_34_0_39: p_r0_g39_h5_t34 - x_r0_g5 <= 0
 lin3_34_0_39: p_r0_g39_h5_t34 - x_r0_g39 - x_r0_g5 >= -1
 lin1_34_0_53: p_r0_g53_h19_t34 - x_r0_g53 <= 0
 lin2_34_0_53: p_r0_g53_h19_t34 - x_r0_g19 <= 0
 lin3_34_0_53: p_r0_g53_h19_t34 - x_r0_g53 - x_r0_g19 >= -1
 lin1_34_0_91: p_r0_g91_h57_t34 - x_r0_g91 <= 0
 lin2_34_0_91: p_r0_g91_h57_t34 - x_r0_g57 <= 0
 lin3_34_0_91: p_r0_g91_h57_t34 - x_r0_g91 - x_r0_g57 >= -1
 lin1_34_0_103: p_r0_g103_h69_t34 - x_r0_g103 <= 0
 lin2_34_0_103: p_r0_g103_h69_t34 - x_r0_g69 <= 0
 lin3_34_0_103: p_r0_g103_h69_t34 - x_r0_g103 - x_r0_g69 >= -1
 lin1_34_0_106: p_r0_g106_h72_t34 - x_r0_g106 <= 0
 lin2_34_0_106: p_r0_g106_h72_t34 - x_r0_g72 <= 0
 lin3_34_0_106: p_r0_g106_h72_t34 - x_r0_g106 - x_r0_g72 >= -1
 lin1_34_0_108: p_r0_g108_h74_t34 - x_r0_g108 <= 0
 lin2_34_0_108: p_r0_g108_h74_t34 - x_r0_g74 <= 0
 lin3_34_0_108: p_r0_g108_h74_t34 - x_r0_g108 - x_r0_g74 >= -1
 lin1_34_0_119: p_r0_g119_h85_t34 - x_r0_g119 <= 0
 lin2_34_0_119: p_r0_g119_h85_t34 - x_r0_g85 <= 0
 lin3_34_0_119: p_r0_g119_h85_t34 - x_r0_g119 - x_r0_g85 >= -1
 lin1_34_0_142: p_r0_g142_h108_t34 - x_r0_g142 <= 0
 lin2_34_0_142: p_r0_g142_h108_t34 - x_r0_g108 <= 0
 lin3_34_0_142: p_r0_g142_h108_t34 - x_r0_g142 - x_r0_g108 >= -1
 lin1_34_0_146: p_r0_g146_h112_t34 - x_r0_g146 <= 0
 lin2_34_0_146: p_r0_g146_h112_t34 - x_r0_g112 <= 0
 lin3_34_0_146: p_r0_g146_h112_t34 - x_r0_g146 - x_r0_g112 >= -1
 lin1_34_1_5: p_r1_g5_h138_t34 - x_r1_g5 <= 0
 lin2_34_1_5: p_r1_g5_h138_t34 - x_r1_g138 <= 0
 lin3_34_1_5: p_r1_g5_h138_t34 - x_r1_g5 - x_r1_g138 >= -1
 lin1_34_1_29: p_r1_g29_h162_t34 - x_r1_g29 <= 0
 lin2_34_1_29: p_r1_g29_h162_t34 - x_r1_g162 <= 0
 lin3_34_1_29: p_r1_g29_h162_t34 - x_r1_g29 - x_r1_g162 >= -1
 lin1_34_1_40: p_r1_g40_h6_t34 - x_r1_g40 <= 0
 lin2_34_1_40: p_r1_g40_h6_t34 - x_r1_g6 <= 0
 lin3_34_1_40: p_r1_g40_h6_t34 - x_r1_g40 - x_r1_g6 >= -1
 lin1_34_1_68: p_r1_g68_h34_t34 - x_r1_g68 <= 0
 lin2_34_1_68: p_r1_g68_h34_t34 - x_r1_g34 <= 0
 lin3_34_1_68: p_r1_g68_h34_t34 - x_r1_g68 - x_r1_g34 >= -1
 lin1_34_1_74: p_r1_g74_h40_t34 - x_r1_g74 <= 0
 lin2_34_1_74: p_r1_g74_h40_t34 - x_r1_g40 <= 0
 lin3_34_1_74: p_r1_g74_h40_t34 - x_r1_g74 - x_r1_g40 >= -1
 lin1_34_1_76: p_r1_g76_h42_t34 - x_r1_g76 <= 0
 lin2_34_1_76: p_r1_g76_h42_t34 - x_r1_g42 <= 0
 lin3_34_1_76: p_r1_g76_h42_t34 - x_r1_g76 - x_r1_g42 >= -1
 lin1_34_1_77: p_r1_g77_h43_t34 - x_r1_g77 <= 0
 lin2_34_1_77: p_r1_g77_h43_t34 - x_r1_g43 <= 0
 lin3_34_1_77: p_r1_g77_h43_t34 - x_r1_g77 - x_r1_g43 >= -1
 lin1_34_1_82: p_r1_g82_h48_t34 - x_r1_g82 <= 0
 lin2_34_1_82: p_r1_g82_h48_t34 - x_r1_g48 <= 0
 lin3_34_1_82: p_r1_g82_h48_t34 - x_r1_g82 - x_r1_g48 >= -1
 lin1_34_1_84: p_r1_g84_h50_t34 - x_r1_g84 <= 0
 lin2_34_1_84: p_r1_g84_h50_t34 - x_r1_g50 <= 0
 lin3_34_1_84: p_r1_g84_h50_t34 - x_r1_g84 - x_r1_g50 >= -1
 lin1_34_1_98: p_r1_g98_h64_t34 - x_r1_g98 <= 0
 lin2_34_1_98: p_r1_g98_h64_t34 - x_r1_g64 <= 0
 lin3_34_1_98: p_r1_g98_h64_t34 - x_r1_g98 - x_r1_g64 >= -1
 lin1_34_1_138: p_r1_g138_h104_t34 - x_r1_g138 <= 0
 lin2_34_1_138: p_r1_g138_h104_t34 - x_r1_g104 <= 0
 lin3_34_1_138: p_r1_g138_h104_t34 - x_r1_g138 - x_r1_g104 >= -1
 lin1_34_1_161: p_r1_g161_h127_t34 - x_r1_g161 <= 0
 lin2_34_1_161: p_r1_g161_h127_t34 - x_r1_g127 <= 0
 lin3_34_1_161: p_r1_g161_h127_t34 - x_r1_g161 - x_r1_g127 >= -1
 lin1_34_1_163: p_r1_g163_h129_t34 - x_r1_g163 <= 0
 lin2_34_1_163: p_r1_g163_h129_t34 - x_r1_g129 <= 0
 lin3_34_1_163: p_r1_g163_h129_t34 - x_r1_g163 - x_r1_g129 >= -1
 lin1_34_2_61: p_r2_g61_h27_t34 - x_r2_g61 <= 0
 lin2_34_2_61: p_r2_g61_h27_t34 - x_r2_g27 <= 0
 lin3_34_2_61: p_r2_g61_h27_t34 - x_r2_g61 - x_r2_g27 >= -1
 lin1_34_2_74: p_r2_g74_h40_t34 - x_r2_g74 <= 0
 lin2_34_2_74: p_r2_g74_h40_t34 - x_r2_g40 <= 0
 lin3_34_2_74: p_r2_g74_h40_t34 - x_r2_g74 - x_r2_g40 >= -1
 lin1_34_2_85: p_r2_g85_h51_t34 - x_r2_g85 <= 0
 lin2_34_2_85: p_r2_g85_h51_t34 - x_r2_g51 <= 0
 lin3_34_2_85: p_r2_g85_h51_t34 - x_r2_g85 - x_r2_g51 >= -1
 lin1_34_2_119: p_r2_g119_h85_t34 - x_r2_g119 <= 0
 lin2_34_2_119: p_r2_g119_h85_t34 - x_r2_g85 <= 0
 lin3_34_2_119: p_r2_g119_h85_t34 - x_r2_g119 - x_r2_g85 >= -1
 lin1_34_2_135: p_r2_g135_h101_t34 - x_r2_g135 <= 0
 lin2_34_2_135: p_r2_g135_h101_t34 - x_r2_g101 <= 0
 lin3_34_2_135: p_r2_g135_h101_t34 - x_r2_g135 - x_r2_g101 >= -1
 lin1_34_2_139: p_r2_g139_h105_t34 - x_r2_g139 <= 0
 lin2_34_2_139: p_r2_g139_h105_t34 - x_r2_g105 <= 0
 lin3_34_2_139: p_r2_g139_h105_t34 - x_r2_g139 - x_r2_g105 >= -1
 lin1_34_3_21: p_r3_g21_h154_t34 - x_r3_g21 <= 0
 lin2_34_3_21: p_r3_g21_h154_t34 - x_r3_g154 <= 0
 lin3_34_3_21: p_r3_g21_h154_t34 - x_r3_g21 - x_r3_g154 >= -1
 lin1_34_3_23: p_r3_g23_h156_t34 - x_r3_g23 <= 0
 lin2_34_3_23: p_r3_g23_h156_t34 - x_r3_g156 <= 0
 lin3_34_3_23: p_r3_g23_h156_t34 - x_r3_g23 - x_r3_g156 >= -1
 lin1_34_3_25: p_r3_g25_h158_t34 - x_r3_g25 <= 0
 lin2_34_3_25: p_r3_g25_h158_t34 - x_r3_g158 <= 0
 lin3_34_3_25: p_r3_g25_h158_t34 - x_r3_g25 - x_r3_g158 >= -1
 lin1_34_3_39: p_r3_g39_h5_t34 - x_r3_g39 <= 0
 lin2_34_3_39: p_r3_g39_h5_t34 - x_r3_g5 <= 0
 lin3_34_3_39: p_r3_g39_h5_t34 - x_r3_g39 - x_r3_g5 >= -1
 lin1_34_3_51: p_r3_g51_h17_t34 - x_r3_g51 <= 0
 lin2_34_3_51: p_r3_g51_h17_t34 - x_r3_g17 <= 0
 lin3_34_3_51: p_r3_g51_h17_t34 - x_r3_g51 - x_r3_g17 >= -1
 lin1_34_3_60: p_r3_g60_h26_t34 - x_r3_g60 <= 0
 lin2_34_3_60: p_r3_g60_h26_t34 - x_r3_g26 <= 0
 lin3_34_3_60: p_r3_g60_h26_t34 - x_r3_g60 - x_r3_g26 >= -1
 lin1_34_3_68: p_r3_g68_h34_t34 - x_r3_g68 <= 0
 lin2_34_3_68: p_r3_g68_h34_t34 - x_r3_g34 <= 0
 lin3_34_3_68: p_r3_g68_h34_t34 - x_r3_g68 - x_r3_g34 >= -1
 lin1_34_3_73: p_r3_g73_h39_t34 - x_r3_g73 <= 0
 lin2_34_3_73: p_r3_g73_h39_t34 - x_r3_g39 <= 0
 lin3_34_3_73: p_r3_g73_h39_t34 - x_r3_g73 - x_r3_g39 >= -1
 lin1_34_3_87: p_r3_g87_h53_t34 - x_r3_g87 <= 0
 lin2_34_3_87: p_r3_g87_h53_t34 - x_r3_g53 <= 0
 lin3_34_3_87: p_r3_g87_h53_t34 - x_r3_g87 - x_r3_g53 >= -1
 lin1_34_3_96: p_r3_g96_h62_t34 - x_r3_g96 <= 0
 lin2_34_3_96: p_r3_g96_h62_t34 - x_r3_g62 <= 0
 lin3_34_3_96: p_r3_g96_h62_t34 - x_r3_g96 - x_r3_g62 >= -1
 lin1_34_3_100: p_r3_g100_h66_t34 - x_r3_g100 <= 0
 lin2_34_3_100: p_r3_g100_h66_t34 - x_r3_g66 <= 0
 lin3_34_3_100: p_r3_g100_h66_t34 - x_r3_g100 - x_r3_g66 >= -1
 lin1_34_3_117: p_r3_g117_h83_t34 - x_r3_g117 <= 0
 lin2_34_3_117: p_r3_g117_h83_t34 - x_r3_g83 <= 0
 lin3_34_3_117: p_r3_g117_h83_t34 - x_r3_g117 - x_r3_g83 >= -1
 lin1_34_3_124: p_r3_g124_h90_t34 - x_r3_g124 <= 0
 lin2_34_3_124: p_r3_g124_h90_t34 - x_r3_g90 <= 0
 lin3_34_3_124: p_r3_g124_h90_t34 - x_r3_g124 - x_r3_g90 >= -1
 lin1_34_3_151: p_r3_g151_h117_t34 - x_r3_g151 <= 0
 lin2_34_3_151: p_r3_g151_h117_t34 - x_r3_g117 <= 0
 lin3_34_3_151: p_r3_g151_h117_t34 - x_r3_g151 - x_r3_g117 >= -1
 lin1_34_3_158: p_r3_g158_h124_t34 - x_r3_g158 <= 0
 lin2_34_3_158: p_r3_g158_h124_t34 - x_r3_g124 <= 0
 lin3_34_3_158: p_r3_g158_h124_t34 - x_r3_g158 - x_r3_g124 >= -1
 defect_34: 1 d_34 - 2 x_r0_g4 - 1 x_r0_g11 - 1 x_r0_g12 - 1 x_r0_g15 - 1 x_r0_g19 - 2 x_r0_g24 - 1 x_r0_g34 - 1 x_r0_g47 - 1 x_r0_g56 - 1 x_r0_g66 - 1 x_r0_g72 - 1 x_r0_g74 - 2 x_r0_g79 - 1 x_r0_g85 - 2 x_r0_g89 - 2 x_r0_g93 - 1 x_r0_g103 - 2 x_r0_g124 - 1 x_r0_g126 - 1 x_r0_g135 - 2 x_r0_g136 - 1 x_r0_g146 - 1 x_r0_g150 - 1 x_r0_g163 - 1 x_r1_g5 - 1 x_r1_g21 - 2 x_r1_g23 - 1 x_r1_g36 - 1 x_r1_g56 - 1 x_r1_g60 - 2 x_r1_g61 - 1 x_r1_g69 - 1 x_r1_g74 - 1 x_r1_g98 - 1 x_r1_g99 - 1 x_r1_g104 - 1 x_r1_g124 - 1 x_r1_g129 - 1 x_r1_g141 - 2 x_r1_g148 - 1 x_r1_g162 - 2 x_r2_g15 - 1 x_r2_g27 - 2 x_r2_g30 - 1 x_r2_g32 - 2 x_r2_g34 - 1 x_r2_g35 - 2 x_r2_g52 - 1 x_r2_g73 - 1 x_r2_g83 - 1 x_r2_g93 - 1 x_r2_g103 - 1 x_r2_g106 - 1 x_r2_g112 - 1 x_r2_g118 - 1 x_r2_g119 - 2 x_r2_g124 - 1 x_r2_g133 - 2 x_r2_g147 - 2 x_r2_g161 - 1 x_r2_g162 - 1 x_r3_g5 - 1 x_r3_g21 - 1 x_r3_g25 - 1 x_r3_g31 - 1 x_r3_g38 - 2 x_r3_g42 - 1 x_r3_g53 - 1 x_r3_g60 - 1 x_r3_g62 - 1 x_r3_g66 - 1 x_r3_g83 - 2 x_r3_g89 - 1 x_r3_g100 - 1 x_r3_g137 - 1 x_r3_g151 - 2 x_r3_g153 - 1 x_r3_g156 - 2 x_r3_g161 - 1 p_r0_g39_h5_t34 - 1 p_r0_g53_h19_t34 - 1 p_r0_g91_h57_t34 - 1 p_r0_g103_h69_t34 - 1 p_r0_g106_h72_t34 - 1 p_r0_g108_h74_t34 - 1 p_r0_g119_h85_t34 - 1 p_r0_g142_h108_t34 - 1 p_r0_g146_h112_t34 - 1 p_r1_g5_h138_t34 - 1 p_r1_g29_h162_t34 - 1 p_r1_g40_h6_t34 - 1 p_r1_g68_h34_t34 - 1 p_r1_g74_h40_t34 - 1 p_r1_g76_h42_t34 - 1 p_r1_g77_h43_t34 - 1 p_r1_g82_h48_t34 - 1 p_r1_g84_h50_t34 - 1 p_r1_g98_h64_t34 - 1 p_r1_g138_h104_t34 - 1 p_r1_g161_h127_t34 - 1 p_r1_g163_h129_t34 - 1 p_r2_g61_h27_t34 - 1 p_r2_g74_h40_t34 - 1 p_r2_g85_h51_t34 - 1 p_r2_g119_h85_t34 - 1 p_r2_g135_h101_t34 - 1 p_r2_g139_h105_t34 - 1 p_r3_g21_h154_t34 - 1 p_r3_g23_h156_t34 - 1 p_r3_g25_h158_t34 - 1 p_r3_g39_h5_t34 - 1 p_r3_g51_h17_t34 - 1 p_r3_g60_h26_t34 - 1 p_r3_g68_h34_t34 - 1 p_r3_g73_h39_t34 - 1 p_r3_g87_h53_t34 - 1 p_r3_g96_h62_t34 - 1 p_r3_g100_h66_t34 - 1 p_r3_g117_h83_t34 - 1 p_r3_g124_h90_t34 - 1 p_r3_g151_h117_t34 - 1 p_r3_g158_h124_t34 = -46
 abs_pos_34: d_34 - u_34 <= 0
 abs_neg_34: - d_34 - u_34 <= 0
 max_def_34: u_34 - M <= 0
 cap_34: u_34 <= 2
 lin1_36_0_4: p_r0_g4_h135_t36 - x_r0_g4 <= 0
 lin2_36_0_4: p_r0_g4_h135_t36 - x_r0_g135 <= 0
 lin3_36_0_4: p_r0_g4_h135_t36 - x_r0_g4 - x_r0_g135 >= -1
 lin1_36_0_5: p_r0_g5_h136_t36 - x_r0_g5 <= 0
 lin2_36_0_5: p_r0_g5_h136_t36 - x_r0_g136 <= 0
 lin3_36_0_5: p_r0_g5_h136_t36 - x_r0_g5 - x_r0_g136 >= -1
 lin1_36_0_11: p_r0_g11_h142_t36 - x_r0_g11 <= 0
 lin2_36_0_11: p_r0_g11_h142_t36 - x_r0_g142 <= 0
 lin3_36_0_11: p_r0_g11_h142_t36 - x_r0_g11 - x_r0_g142 >= -1
 lin1_36_0_12: p_r0_g12_h143_t36 - x_r0_g12 <= 0
 lin2_36_0_12: p_r0_g12_h143_t36 - x_r0_g143 <= 0
 lin3_36_0_12: p_r0_g12_h143_t36 - x_r0_g12 - x_r0_g143 >= -1
 lin1_36_0_15: p_r0_g15_h146_t36 - x_r0_g15 <= 0
 lin2_36_0_15: p_r0_g15_h146_t36 - x_r0_g146 <= 0
 lin3_36_0_15: p_r0_g15_h146_t36 - x_r0_g15 - x_r0_g146 >= -1
 lin1_36_0_19: p_r0_g19_h150_t36 - x_r0_g19 <= 0
 lin2_36_0_19: p_r0_g19_h150_t36 - x_r0_g150 <= 0
 lin3_36_0_19: p_r0_g19_h150_t36 - x_r0_g19 - x_r0_g150 >= -1
 lin1_36_0_47: p_r0_g47_h11_t36 - x_r0_g47 <= 0
 lin2_36_0_47: p_r0_g47_h11_t36 - x_r0_g11 <= 0
 lin3_36_0_47: p_r0_g47_h11_t36 - x_r0_g47 - x_r0_g11 >= -1
 lin1_36_0_89: p_r0_g89_h53_t36 - x_r0_g89 <= 0
 lin2_36_0_89: p_r0_g89_h53_t36 - x_r0_g53 <= 0
 lin3_36_0_89: p_r0_g89_h53_t36 - x_r0_g89 - x_r0_g53 >= -1
 lin1_36_0_93: p_r0_g93_h57_t36 - x_r0_g93 <= 0
 lin2_36_0_93: p_r0_g93_h57_t36 - x_r0_g57 <= 0
 lin3_36_0_93: p_r0_g93_h57_t36 - x_r0_g93 - x_r0_g57 >= -1
 lin1_36_0_108: p_r0_g108_h72_t36 - x_r0_g108 <= 0
 lin2_36_0_108: p_r0_g108_h72_t36 - x_r0_g72 <= 0
 lin3_36_0_108: p_r0_g108_h72_t36 - x_r0_g108 - x_r0_g72 >= -1
 lin1_36_0_142: p_r0_g142_h106_t36 - x_r0_g142 <= 0
 lin2_36_0_142: p_r0_g142_h106_t36 - x_r0_g106 <= 0
 lin3_36_0_142: p_r0_g142_h106_t36 - x_r0_g142 - x_r0_g106 >= -1
 lin1_36_1_42: p_r1_g42_h6_t36 - x_r1_g42 <= 0
 lin2_36_1_42: p_r1_g42_h6_t36 - x_r1_g6 <= 0
 lin3_36_1_42: p_r1_g42_h6_t36 - x_r1_g42 - x_r1_g6 >= -1
 lin1_36_1_76: p_r1_g76_h40_t36 - x_r1_g76 <= 0
 lin2_36_1_76: p_r1_g76_h40_t36 - x_r1_g40 <= 0
 lin3_36_1_76: p_r1_g76_h40_t36 - x_r1_g76 - x_r1_g40 >= -1
 lin1_36_1_84: p_r1_g84_h48_t36 - x_r1_g84 <= 0
 lin2_36_1_84: p_r1_g84_h48_t36 - x_r1_g48 <= 0
 lin3_36_1_84: p_r1_g84_h48_t36 - x_r1_g84 - x_r1_g48 >= -1
 lin1_36_1_104: p_r1_g104_h68_t36 - x_r1_g104 <= 0
 lin2_36_1_104: p_r1_g104_h68_t36 - x_r1_g68 <= 0
 lin3_36_1_104: p_r1_g104_h68_t36 - x_r1_g104 - x_r1_g68 >= -1
 lin1_36_1_124: p_r1_g124_h88_t36 - x_r1_g124 <= 0
 lin2_36_1_124: p_r1_g124_h88_t36 - x_r1_g88 <= 0
 lin3_36_1_124: p_r1_g124_h88_t36 - x_r1_g124 - x_r1_g88 >= -1
 lin1_36_1_145: p_r1_g145_h109_t36 - x_r1_g145 <= 0
 lin2_36_1_145: p_r1_g145_h109_t36 - x_r1_g109 <= 0
 lin3_36_1_145: p_r1_g145_h109_t36 - x_r1_g145 - x_r1_g109 >= -1
 lin1_36_1_163: p_r1_g163_h127_t36 - x_r1_g163 <= 0
 lin2_36_1_163: p_r1_g163_h127_t36 - x_r1_g127 <= 0
 lin3_36_1_163: p_r1_g163_h127_t36 - x_r1_g163 - x_r1_g127 >= -1
 lin1_36_2_30: p_r2_g30_h161_t36 - x_r2_g30 <= 0
 lin2_36_2_30: p_r2_g30_h161_t36 - x_r2_g161 <= 0
 lin3_36_2_30: p_r2_g30_h161_t36 - x_r2_g30 - x_r2_g161 >= -1
 lin1_36_2_51: p_r2_g51_h15_t36 - x_r2_g51 <= 0
 lin2_36_2_51: p_r2_g51_h15_t36 - x_r2_g15 <= 0
 lin3_36_2_51: p_r2_g51_h15_t36 - x_r2_g51 - x_r2_g15 >= -1
 lin1_36_2_119: p_r2_g119_h83_t36 - x_r2_g119 <= 0
 lin2_36_2_119: p_r2_g119_h83_t36 - x_r2_g83 <= 0
 lin3_36_2_119: p_r2_g119_h83_t36 - x_r2_g119 - x_r2_g83 >= -1
 lin1_36_2_139: p_r2_g139_h103_t36 - x_r2_g139 <= 0
 lin2_36_2_139: p_r2_g139_h103_t36 - x_r2_g103 <= 0
 lin3_36_2_139: p_r2_g139_h103_t36 - x_r2_g139 - x_r2_g103 >= -1
 lin1_36_2_141: p_r2_g141_h105_t36 - x_r2_g141 <= 0
 lin2_36_2_141: p_r2_g141_h105_t36 - x_r2_g105 <= 0
 lin3_36_2_141: p_r2_g141_h105_t36 - x_r2_g141 - x_r2_g105 >= -1
 lin1_36_2_147: p_r2_g147_h111_t36 - x_r2_g147 <= 0
 lin2_36_2_147: p_r2_g147_h111_t36 - x_r2_g111 <= 0
 lin3_36_2_147: p_r2_g147_h111_t36 - x_r2_g147 - x_r2_g111 >= -1
 lin1_36_3_22: p_r3_g22_h153_t36 - x_r3_g22 <= 0
 lin2_36_3_22: p_r3_g22_h153_t36 - x_r3_g153 <= 0
 lin3_36_3_22: p_r3_g22_h153_t36 - x_r3_g22 - x_r3_g153 >= -1
 lin1_36_3_23: p_r3_g23_h154_t36 - x_r3_g23 <= 0
 lin2_36_3_23: p_r3_g23_h154_t36 - x_r3_g154 <= 0
 lin3_36_3_23: p_r3_g23_h154_t36 - x_r3_g23 - x_r3_g154 >= -1
 lin1_36_3_25: p_r3_g25_h156_t36 - x_r3_g25 <= 0
 lin2_36_3_25: p_r3_g25_h156_t36 - x_r3_g156 <= 0
 lin3_36_3_25: p_r3_g25_h156_t36 - x_r3_g25 - x_r3_g156 >= -1
 lin1_36_3_53: p_r3_g53_h17_t36 - x_r3_g53 <= 0
 lin2_36_3_53: p_r3_g53_h17_t36 - x_r3_g17 <= 0
 lin3_36_3_53: p_r3_g53_h17_t36 - x_r3_g53 - x_r3_g17 >= -1
 lin1_36_3_60: p_r3_g60_h24_t36 - x_r3_g60 <= 0
 lin2_36_3_60: p_r3_g60_h24_t36 - x_r3_g24 <= 0
 lin3_36_3_60: p_r3_g60_h24_t36 - x_r3_g60 - x_r3_g24 >= -1
 lin1_36_3_62: p_r3_g62_h26_t36 - x_r3_g62 <= 0
 lin2_36_3_62: p_r3_g62_h26_t36 - x_r3_g26 <= 0
 lin3_36_3_62: p_r3_g62_h26_t36 - x_r3_g62 - x_r3_g26 >= -1
 lin1_36_3_87: p_r3_g87_h51_t36 - x_r3_g87 <= 0
 lin2_36_3_87: p_r3_g87_h51_t36 - x_r3_g51 <= 0
 lin3_36_3_87: p_r3_g87_h51_t36 - x_r3_g87 - x_r3_g51 >= -1
 lin1_36_3_89: p_r3_g89_h53_t36 - x_r3_g89 <= 0
 lin2_36_3_89: p_r3_g89_h53_t36 - x_r3_g53 <= 0
 lin3_36_3_89: p_r3_g89_h53_t36 - x_r3_g89 - x_r3_g53 >= -1
 lin1_36_3_96: p_r3_g96_h60_t36 - x_r3_g96 <= 0
 lin2_36_3_96: p_r3_g96_h60_t36 - x_r3_g60 <= 0
 lin3_36_3_96: p_r3_g96_h60_t36 - x_r3_g96 - x_r3_g60 >= -1
 lin1_36_3_125: p_r3_g125_h89_t36 - x_r3_g125 <= 0
 lin2_36_3_125: p_r3_g125_h89_t36 - x_r3_g89 <= 0
 lin3_36_3_125: p_r3_g125_h89_t36 - x_r3_g125 - x_r3_g89 >= -1
 lin1_36_3_153: p_r3_g153_h117_t36 - x_r3_g153 <= 0
 lin2_36_3_153: p_r3_g153_h117_t36 - x_r3_g117 <= 0
 lin3_36_3_153: p_r3_g153_h117_t36 - x_r3_g153 - x_r3_g117 >= -1
 lin1_36_3_154: p_r3_g154_h118_t36 - x_r3_g154 <= 0
 lin2_36_3_154: p_r3_g154_h118_t36 - x_r3_g118 <= 0
 lin3_36_3_154: p_r3_g154_h118_t36 - x_r3_g154 - x_r3_g118 >= -1
 lin1_36_3_161: p_r3_g161_h125_t36 - x_r3_g161 <= 0
 lin2_36_3_161: p_r3_g161_h125_t36 - x_r3_g125 <= 0
 lin3_36_3_161: p_r3_g161_h125_t36 - x_r3_g161 - x_r3_g125 >= -1
 defect_36: 1 d_36 - 2 x_r0_g1 - 1 x_r0_g4 - 1 x_r0_g7 - 1 x_r0_g12 - 1 x_r0_g15 - 1 x_r0_g19 - 1 x_r0_g24 - 2 x_r0_g34 - 1 x_r0_g39 - 1 x_r0_g56 - 1 x_r0_g65 - 2 x_r0_g66 - 1 x_r0_g72 - 1 x_r0_g74 - 1 x_r0_g79 - 1 x_r0_g85 - 2 x_r0_g91 - 2 x_r0_g103 - 1 x_r0_g106 - 1 x_r0_g119 - 2 x_r0_g124 - 1 x_r0_g126 - 1 x_r0_g136 - 1 x_r0_g159 - 1 x_r0_g163 - 2 x_r1_g1 - 1 x_r1_g21 - 1 x_r1_g23 - 2 x_r1_g29 - 1 x_r1_g34 - 1 x_r1_g42 - 1 x_r1_g43 - 1 x_r1_g56 - 1 x_r1_g60 - 1 x_r1_g61 - 1 x_r1_g64 - 1 x_r1_g68 - 1 x_r1_g74 - 1 x_r1_g76 - 1 x_r1_g77 - 1 x_r1_g82 - 1 x_r1_g98 - 1 x_r1_g104 - 1 x_r1_g124 - 1 x_r1_g127 - 1 x_r1_g141 - 1 x_r1_g148 - 1 x_r1_g155 - 1 x_r1_g162 - 1 x_r1_g163 - 1 x_r2_g13 - 1 x_r2_g21 - 2 x_r2_g27 - 2 x_r2_g32 - 1 x_r2_g34 - 1 x_r2_g40 - 1 x_r2_g58 - 1 x_r2_g61 - 1 x_r2_g74 - 2 x_r2_g85 - 1 x_r2_g91 - 1 x_r2_g93 - 2 x_r2_g101 - 2 x_r2_g104 - 1 x_r2_g111 - 1 x_r2_g112 - 1 x_r2_g118 - 1 x_r2_g124 - 1 x_r2_g130 - 1 x_r2_g135 - 2 x_r2_g157 - 2 x_r2_g162 - 1 x_r3_g5 - 1 x_r3_g17 - 1 x_r3_g23 - 1 x_r3_g25 - 1 x_r3_g31 - 2 x_r3_g38 - 1 x_r3_g39 - 2 x_r3_g42 - 1 x_r3_g62 - 1 x_r3_g66 - 1 x_r3_g68 - 1 x_r3_g73 - 2 x_r3_g83 - 1 x_r3_g87 - 1 x_r3_g117 - 1 x_r3_g124 - 1 x_r3_g137 - 1 x_r3_g149 - 1 x_r3_g151 - 2 x_r3_g158 - 1 x_r3_g161 - 1 p_r0_g4_h135_t36 - 1 p_r0_g5_h136_t36 - 1 p_r0_g11_h142_t36 - 1 p_r0_g12_h143_t36 - 1 p_r0_g15_h146_t36 - 1 p_r0_g19_h150_t36 - 1 p_r0_g47_h11_t36 - 1 p_r0_g89_h53_t36 - 1 p_r0_g93_h57_t36 - 1 p_r0_g108_h72_t36 - 1 p_r0_g142_h106_t36 - 1 p_r1_g42_h6_t36 - 1 p_r1_g76_h40_t36 - 1 p_r1_g84_h48_t36 - 1 p_r1_g104_h68_t36 - 1 p_r1_g124_h88_t36 - 1 p_r1_g145_h109_t36 - 1 p_r1_g163_h127_t36 - 1 p_r2_g30_h161_t36 - 1 p_r2_g51_h15_t36 - 1 p_r2_g119_h83_t36 - 1 p_r2_g139_h103_t36 - 1 p_r2_g141_h105_t36 - 1 p_r2_g147_h111_t36 - 1 p_r3_g22_h153_t36 - 1 p_r3_g23_h154_t36 - 1 p_r3_g25_h156_t36 - 1 p_r3_g53_h17_t36 - 1 p_r3_g60_h24_t36 - 1 p_r3_g62_h26_t36 - 1 p_r3_g87_h51_t36 - 1 p_r3_g89_h53_t36 - 1 p_r3_g96_h60_t36 - 1 p_r3_g125_h89_t36 - 1 p_r3_g153_h117_t36 - 1 p_r3_g154_h118_t36 - 1 p_r3_g161_h125_t36 = -77
 abs_pos_36: d_36 - u_36 <= 0
 abs_neg_36: - d_36 - u_36 <= 0
 max_def_36: u_36 - M <= 0
 cap_36: u_36 <= 2
 lin1_39_0_7: p_r0_g7_h135_t39 - x_r0_g7 <= 0
 lin2_39_0_7: p_r0_g7_h135_t39 - x_r0_g135 <= 0
 lin3_39_0_7: p_r0_g7_h135_t39 - x_r0_g7 - x_r0_g135 >= -1
 lin1_39_0_15: p_r0_g15_h143_t39 - x_r0_g15 <= 0
 lin2_39_0_15: p_r0_g15_h143_t39 - x_r0_g143 <= 0
 lin3_39_0_15: p_r0_g15_h143_t39 - x_r0_g15 - x_r0_g143 >= -1
 lin1_39_0_108: p_r0_g108_h69_t39 - x_r0_g108 <= 0
 lin2_39_0_108: p_r0_g108_h69_t39 - x_r0_g69 <= 0
 lin3_39_0_108: p_r0_g108_h69_t39 - x_r0_g108 - x_r0_g69 >= -1
 lin1_39_0_124: p_r0_g124_h85_t39 - x_r0_g124 <= 0
 lin2_39_0_124: p_r0_g124_h85_t39 - x_r0_g85 <= 0
 lin3_39_0_124: p_r0_g124_h85_t39 - x_r0_g124 - x_r0_g85 >= -1
 lin1_39_0_142: p_r0_g142_h103_t39 - x_r0_g142 <= 0
 lin2_39_0_142: p_r0_g142_h103_t39 - x_r0_g103 <= 0
 lin3_39_0_142: p_r0_g142_h103_t39 - x_r0_g142 - x_r0_g103 >= -1
 lin1_39_0_163: p_r0_g163_h124_t39 - x_r0_g163 <= 0
 lin2_39_0_163: p_r0_g163_h124_t39 - x_r0_g124 <= 0
 lin3_39_0_163: p_r0_g163_h124_t39 - x_r0_g163 - x_r0_g124 >= -1
 lin1_39_1_1: p_r1_g1_h129_t39 - x_r1_g1 <= 0
 lin2_39_1_1: p_r1_g1_h129_t39 - x_r1_g129 <= 0
 lin3_39_1_1: p_r1_g1_h129_t39 - x_r1_g1 - x_r1_g129 >= -1
 lin1_39_1_34: p_r1_g34_h162_t39 - x_r1_g34 <= 0
 lin2_39_1_34: p_r1_g34_h162_t39 - x_r1_g162 <= 0
 lin3_39_1_34: p_r1_g34_h162_t39 - x_r1_g34 - x_r1_g162 >= -1
 lin1_39_1_40: p_r1_g40_h1_t39 - x_r1_g40 <= 0
 lin2_39_1_40: p_r1_g40_h1_t39 - x_r1_g1 <= 0
 lin3_39_1_40: p_r1_g40_h1_t39 - x_r1_g40 - x_r1_g1 >= -1
 lin1_39_1_60: p_r1_g60_h21_t39 - x_r1_g60 <= 0
 lin2_39_1_60: p_r1_g60_h21_t39 - x_r1_g21 <= 0
 lin3_39_1_60: p_r1_g60_h21_t39 - x_r1_g60 - x_r1_g21 >= -1
 lin1_39_1_68: p_r1_g68_h29_t39 - x_r1_g68 <= 0
 lin2_39_1_68: p_r1_g68_h29_t39 - x_r1_g29 <= 0
 lin3_39_1_68: p_r1_g68_h29_t39 - x_r1_g68 - x_r1_g29 >= -1
 lin1_39_1_82: p_r1_g82_h43_t39 - x_r1_g82 <= 0
 lin2_39_1_82: p_r1_g82_h43_t39 - x_r1_g43 <= 0
 lin3_39_1_82: p_r1_g82_h43_t39 - x_r1_g82 - x_r1_g43 >= -1
 lin1_39_1_99: p_r1_g99_h60_t39 - x_r1_g99 <= 0
 lin2_39_1_99: p_r1_g99_h60_t39 - x_r1_g60 <= 0
 lin3_39_1_99: p_r1_g99_h60_t39 - x_r1_g99 - x_r1_g60 >= -1
 lin1_39_1_127: p_r1_g127_h88_t39 - x_r1_g127 <= 0
 lin2_39_1_127: p_r1_g127_h88_t39 - x_r1_g88 <= 0
 lin3_39_1_127: p_r1_g127_h88_t39 - x_r1_g127 - x_r1_g88 >= -1
 lin1_39_1_138: p_r1_g138_h99_t39 - x_r1_g138 <= 0
 lin2_39_1_138: p_r1_g138_h99_t39 - x_r1_g99 <= 0
 lin3_39_1_138: p_r1_g138_h99_t39 - x_r1_g138 - x_r1_g99 >= -1
 lin1_39_1_148: p_r1_g148_h109_t39 - x_r1_g148 <= 0
 lin2_39_1_148: p_r1_g148_h109_t39 - x_r1_g109 <= 0
 lin3_39_1_148: p_r1_g148_h109_t39 - x_r1_g148 - x_r1_g109 >= -1
 lin1_39_1_163: p_r1_g163_h124_t39 - x_r1_g163 <= 0
 lin2_39_1_163: p_r1_g163_h124_t39 - x_r1_g124 <= 0
 lin3_39_1_163: p_r1_g163_h124_t39 - x_r1_g163 - x_r1_g124 >= -1
 lin1_39_2_13: p_r2_g13_h141_t39 - x_r2_g13 <= 0
 lin2_39_2_13: p_r2_g13_h141_t39 - x_r2_g141 <= 0
 lin3_39_2_13: p_r2_g13_h141_t39 - x_r2_g13 - x_r2_g141 >= -1
 lin1_39_2_34: p_r2_g34_h162_t39 - x_r2_g34 <= 0
 lin2_39_2_34: p_r2_g34_h162_t39 - x_r2_g162 <= 0
 lin3_39_2_34: p_r2_g34_h162_t39 - x_r2_g34 - x_r2_g162 >= -1
 lin1_39_2_52: p_r2_g52_h13_t39 - x_r2_g52 <= 0
 lin2_39_2_52: p_r2_g52_h13_t39 - x_r2_g13 <= 0
 lin3_39_2_52: p_r2_g52_h13_t39 - x_r2_g52 - x_r2_g13 >= -1
 lin1_39_2_73: p_r2_g73_h34_t39 - x_r2_g73 <= 0
 lin2_39_2_73: p_r2_g73_h34_t39 - x_r2_g34 <= 0
 lin3_39_2_73: p_r2_g73_h34_t39 - x_r2_g73 - x_r2_g34 >= -1
 lin1_39_2_74: p_r2_g74_h35_t39 - x_r2_g74 <= 0
 lin2_39_2_74: p_r2_g74_h35_t39 - x_r2_g35 <= 0
 lin3_39_2_74: p_r2_g74_h35_t39 - x_r2_g74 - x_r2_g35 >= -1
 lin1_39_2_91: p_r2_g91_h52_t39 - x_r2_g91 <= 0
 lin2_39_2_91: p_r2_g91_h52_t39 - x_r2_g52 <= 0
 lin3_39_2_91: p_r2_g91_h52_t39 - x_r2_g91 - x_r2_g52 >= -1
 lin1_39_2_112: p_r2_g112_h73_t39 - x_r2_g112 <= 0
 lin2_39_2_112: p_r2_g112_h73_t39 - x_r2_g73 <= 0
 lin3_39_2_112: p_r2_g112_h73_t39 - x_r2_g112 - x_r2_g73 >= -1
 lin1_39_2_124: p_r2_g124_h85_t39 - x_r2_g124 <= 0
 lin2_39_2_124: p_r2_g124_h85_t39 - x_r2_g85 <= 0
 lin3_39_2_124: p_r2_g124_h85_t39 - x_r2_g124 - x_r2_g85 >= -1
 lin1_39_2_130: p_r2_g130_h91_t39 - x_r2_g130 <= 0
 lin2_39_2_130: p_r2_g130_h91_t39 - x_r2_g91 <= 0
 lin3_39_2_130: p_r2_g130_h91_t39 - x_r2_g130 - x_r2_g91 >= -1
 lin1_39_2_157: p_r2_g157_h118_t39 - x_r2_g157 <= 0
 lin2_39_2_157: p_r2_g157_h118_t39 - x_r2_g118 <= 0
 lin3_39_2_157: p_r2_g157_h118_t39 - x_r2_g157 - x_r2_g118 >= -1
 lin1_39_3_21: p_r3_g21_h149_t39 - x_r3_g21 <= 0
 lin2_39_3_21: p_r3_g21_h149_t39 - x_r3_g149 <= 0
 lin3_39_3_21: p_r3_g21_h149_t39 - x_r3_g21 - x_r3_g149 >= -1
 lin1_39_3_23: p_r3_g23_h151_t39 - x_r3_g23 <= 0
 lin2_39_3_23: p_r3_g23_h151_t39 - x_r3_g151 <= 0
 lin3_39_3_23: p_r3_g23_h151_t39 - x_r3_g23 - x_r3_g151 >= -1
 lin1_39_3_25: p_r3_g25_h153_t39 - x_r3_g25 <= 0
 lin2_39_3_25: p_r3_g25_h153_t39 - x_r3_g153 <= 0
 lin3_39_3_25: p_r3_g25_h153_t39 - x_r3_g25 - x_r3_g153 >= -1
 lin1_39_3_26: p_r3_g26_h154_t39 - x_r3_g26 <= 0
 lin2_39_3_26: p_r3_g26_h154_t39 - x_r3_g154 <= 0
 lin3_39_3_26: p_r3_g26_h154_t39 - x_r3_g26 - x_r3_g154 >= -1
 lin1_39_3_38: p_r3_g38_h166_t39 - x_r3_g38 <= 0
 lin2_39_3_38: p_r3_g38_h166_t39 - x_r3_g166 <= 0
 lin3_39_3_38: p_r3_g38_h166_t39 - x_r3_g38 - x_r3_g166 >= -1
 lin1_39_3_60: p_r3_g60_h21_t39 - x_r3_g60 <= 0
 lin2_39_3_60: p_r3_g60_h21_t39 - x_r3_g21 <= 0
 lin3_39_3_60: p_r3_g60_h21_t39 - x_r3_g60 - x_r3_g21 >= -1
 lin1_39_3_62: p_r3_g62_h23_t39 - x_r3_g62 <= 0
 lin2_39_3_62: p_r3_g62_h23_t39 - x_r3_g23 <= 0
 lin3_39_3_62: p_r3_g62_h23_t39 - x_r3_g62 - x_r3_g23 >= -1
 lin1_39_3_73: p_r3_g73_h34_t39 - x_r3_g73 <= 0
 lin2_39_3_73: p_r3_g73_h34_t39 - x_r3_g34 <= 0
 lin3_39_3_73: p_r3_g73_h34_t39 - x_r3_g73 - x_r3_g34 >= -1
 lin1_39_3_90: p_r3_g90_h51_t39 - x_r3_g90 <= 0
 lin2_39_3_90: p_r3_g90_h51_t39 - x_r3_g51 <= 0
 lin3_39_3_90: p_r3_g90_h51_t39 - x_r3_g90 - x_r3_g51 >= -1
 lin1_39_3_156: p_r3_g156_h117_t39 - x_r3_g156 <= 0
 lin2_39_3_156: p_r3_g156_h117_t39 - x_r3_g117 <= 0
 lin3_39_3_156: p_r3_g156_h117_t39 - x_r3_g156 - x_r3_g117 >= -1
 defect_39: 1 d_39 - 1 x_r0_g1 - 2 x_r0_g4 - 1 x_r0_g7 - 1 x_r0_g11 - 1 x_r0_g12 - 1 x_r0_g15 - 1 x_r0_g19 - 2 x_r0_g24 - 1 x_r0_g53 - 1 x_r0_g69 - 1 x_r0_g72 - 1 x_r0_g74 - 2 x_r0_g79 - 1 x_r0_g85 - 1 x_r0_g91 - 2 x_r0_g93 - 1 x_r0_g106 - 1 x_r0_g112 - 1 x_r0_g119 - 1 x_r0_g126 - 1 x_r0_g142 - 1 x_r0_g150 - 1 x_r0_g159 - 1 x_r1_g5 - 1 x_r1_g23 - 1 x_r1_g29 - 1 x_r1_g36 - 1 x_r1_g40 - 2 x_r1_g42 - 1 x_r1_g48 - 2 x_r1_g50 - 1 x_r1_g56 - 1 x_r1_g61 - 2 x_r1_g64 - 1 x_r1_g68 - 1 x_r1_g69 - 1 x_r1_g74 - 2 x_r1_g76 - 1 x_r1_g77 - 1 x_r1_g84 - 1 x_r1_g88 - 1 x_r1_g104 - 1 x_r1_g109 - 1 x_r1_g127 - 1 x_r1_g129 - 1 x_r1_g138 - 1 x_r1_g148 - 1 x_r1_g155 - 1 x_r1_g162 - 1 x_r2_g21 - 1 x_r2_g30 - 1 x_r2_g32 - 1 x_r2_g35 - 1 x_r2_g40 - 1 x_r2_g51 - 1 x_r2_g53 - 1 x_r2_g74 - 1 x_r2_g83 - 1 x_r2_g85 - 1 x_r2_g93 - 1 x_r2_g101 - 1 x_r2_g103 - 1 x_r2_g104 - 1 x_r2_g111 - 1 x_r2_g112 - 2 x_r2_g119 - 1 x_r2_g124 - 1 x_r2_g133 - 1 x_r2_g135 - 1 x_r2_g141 - 2 x_r2_g161 - 1 x_r3_g17 - 1 x_r3_g22 - 1 x_r3_g26 - 1 x_r3_g34 - 1 x_r3_g39 - 1 x_r3_g42 - 1 x_r3_g51 - 1 x_r3_g60 - 1 x_r3_g66 - 2 x_r3_g69 - 1 x_r3_g73 - 1 x_r3_g83 - 1 x_r3_g89 - 1 x_r3_g90 - 2 x_r3_g100 - 1 x_r3_g117 - 1 x_r3_g124 - 1 x_r3_g125 - 2 x_r3_g137 - 1 x_r3_g149 - 1 x_r3_g151 - 1 x_r3_g156 - 2 x_r3_g158 - 1 x_r3_g161 - 1 x_r3_g166 - 1 p_r0_g7_h135_t39 - 1 p_r0_g15_h143_t39 - 1 p_r0_g108_h69_t39 - 1 p_r0_g124_h85_t39 - 1 p_r0_g142_h103_t39 - 1 p_r0_g163_h124_t39 - 1 p_r1_g1_h129_t39 - 1 p_r1_g34_h162_t39 - 1 p_r1_g40_h1_t39 - 1 p_r1_g60_h21_t39 - 1 p_r1_g68_h29_t39 - 1 p_r1_g82_h43_t39 - 1 p_r1_g99_h60_t39 - 1 p_r1_g127_h88_t39 - 1 p_r1_g138_h99_t39 - 1 p_r1_g148_h109_t39 - 1 p_r1_g163_h124_t39 - 1 p_r2_g13_h141_t39 - 1 p_r2_g34_h162_t39 - 1 p_r2_g52_h13_t39 - 1 p_r2_g73_h34_t39 - 1 p_r2_g74_h35_t39 - 1 p_r2_g91_h52_t39 - 1 p_r2_g112_h73_t39 - 1 p_r2_g124_h85_t39 - 1 p_r2_g130_h91_t39 - 1 p_r2_g157_h118_t39 - 1 p_r3_g21_h149_t39 - 1 p_r3_g23_h151_t39 - 1 p_r3_g25_h153_t39 - 1 p_r3_g26_h154_t39 - 1 p_r3_g38_h166_t39 - 1 p_r3_g60_h21_t39 - 1 p_r3_g62_h23_t39 - 1 p_r3_g73_h34_t39 - 1 p_r3_g90_h51_t39 - 1 p_r3_g156_h117_t39 = -63
 abs_pos_39: d_39 - u_39 <= 0
 abs_neg_39: - d_39 - u_39 <= 0
 max_def_39: u_39 - M <= 0
 cap_39: u_39 <= 0
 lin1_40_0_15: p_r0_g15_h142_t40 - x_r0_g15 <= 0
 lin2_40_0_15: p_r0_g15_h142_t40 - x_r0_g142 <= 0
 lin3_40_0_15: p_r0_g15_h142_t40 - x_r0_g15 - x_r0_g142 >= -1
 lin1_40_0_19: p_r0_g19_h146_t40 - x_r0_g19 <= 0
 lin2_40_0_19: p_r0_g19_h146_t40 - x_r0_g146 <= 0
 lin3_40_0_19: p_r0_g19_h146_t40 - x_r0_g19 - x_r0_g146 >= -1
 lin1_40_0_47: p_r0_g47_h7_t40 - x_r0_g47 <= 0
 lin2_40_0_47: p_r0_g47_h7_t40 - x_r0_g7 <= 0
 lin3_40_0_47: p_r0_g47_h7_t40 - x_r0_g47 - x_r0_g7 >= -1
 lin1_40_0_74: p_r0_g74_h34_t40 - x_r0_g74 <= 0
 lin2_40_0_74: p_r0_g74_h34_t40 - x_r0_g34 <= 0
 lin3_40_0_74: p_r0_g74_h34_t40 - x_r0_g74 - x_r0_g34 >= -1
 lin1_40_0_79: p_r0_g79_h39_t40 - x_r0_g79 <= 0
 lin2_40_0_79: p_r0_g79_h39_t40 - x_r0_g39 <= 0
 lin3_40_0_79: p_r0_g79_h39_t40 - x_r0_g79 - x_r0_g39 >= -1
 lin1_40_0_93: p_r0_g93_h53_t40 - x_r0_g93 <= 0
 lin2_40_0_93: p_r0_g93_h53_t40 - x_r0_g53 <= 0
 lin3_40_0_93: p_r0_g93_h53_t40 - x_r0_g93 - x_r0_g53 >= -1
 lin1_40_0_106: p_r0_g106_h66_t40 - x_r0_g106 <= 0
 lin2_40_0_106: p_r0_g106_h66_t40 - x_r0_g66 <= 0
 lin3_40_0_106: p_r0_g106_h66_t40 - x_r0_g106 - x_r0_g66 >= -1
 lin1_40_0_112: p_r0_g112_h72_t40 - x_r0_g112 <= 0
 lin2_40_0_112: p_r0_g112_h72_t40 - x_r0_g72 <= 0
 lin3_40_0_112: p_r0_g112_h72_t40 - x_r0_g112 - x_r0_g72 >= -1
 lin1_40_0_119: p_r0_g119_h79_t40 - x_r0_g119 <= 0
 lin2_40_0_119: p_r0_g119_h79_t40 - x_r0_g79 <= 0
 lin3_40_0_119: p_r0_g119_h79_t40 - x_r0_g119 - x_r0_g79 >= -1
 lin1_40_0_143: p_r0_g143_h103_t40 - x_r0_g143 <= 0
 lin2_40_0_143: p_r0_g143_h103_t40 - x_r0_g103 <= 0
 lin3_40_0_143: p_r0_g143_h103_t40 - x_r0_g143 - x_r0_g103 >= -1
 lin1_40_0_146: p_r0_g146_h106_t40 - x_r0_g146 <= 0
 lin2_40_0_146: p_r0_g146_h106_t40 - x_r0_g106 <= 0
 lin3_40_0_146: p_r0_g146_h106_t40 - x_r0_g146 - x_r0_g106 >= -1
 lin1_40_0_159: p_r0_g159_h119_t40 - x_r0_g159 <= 0
 lin2_40_0_159: p_r0_g159_h119_t40 - x_r0_g119 <= 0
 lin3_40_0_159: p_r0_g159_h119_t40 - x_r0_g159 - x_r0_g119 >= -1
 lin1_40_1_21: p_r1_g21_h148_t40 - x_r1_g21 <= 0
 lin2_40_1_21: p_r1_g21_h148_t40 - x_r1_g148 <= 0
 lin3_40_1_21: p_r1_g21_h148_t40 - x_r1_g21 - x_r1_g148 >= -1
 lin1_40_1_34: p_r1_g34_h161_t40 - x_r1_g34 <= 0
 lin2_40_1_34: p_r1_g34_h161_t40 - x_r1_g161 <= 0
 lin3_40_1_34: p_r1_g34_h161_t40 - x_r1_g34 - x_r1_g161 >= -1
 lin1_40_1_36: p_r1_g36_h163_t40 - x_r1_g36 <= 0
 lin2_40_1_36: p_r1_g36_h163_t40 - x_r1_g163 <= 0
 lin3_40_1_36: p_r1_g36_h163_t40 - x_r1_g36 - x_r1_g163 >= -1
 lin1_40_1_61: p_r1_g61_h21_t40 - x_r1_g61 <= 0
 lin2_40_1_61: p_r1_g61_h21_t40 - x_r1_g21 <= 0
 lin3_40_1_61: p_r1_g61_h21_t40 - x_r1_g61 - x_r1_g21 >= -1
 lin1_40_1_69: p_r1_g69_h29_t40 - x_r1_g69 <= 0
 lin2_40_1_69: p_r1_g69_h29_t40 - x_r1_g29 <= 0
 lin3_40_1_69: p_r1_g69_h29_t40 - x_r1_g69 - x_r1_g29 >= -1
 lin1_40_1_74: p_r1_g74_h34_t40 - x_r1_g74 <= 0
 lin2_40_1_74: p_r1_g74_h34_t40 - x_r1_g34 <= 0
 lin3_40_1_74: p_r1_g74_h34_t40 - x_r1_g74 - x_r1_g34 >= -1
 lin1_40_1_76: p_r1_g76_h36_t40 - x_r1_g76 <= 0
 lin2_40_1_76: p_r1_g76_h36_t40 - x_r1_g36 <= 0
 lin3_40_1_76: p_r1_g76_h36_t40 - x_r1_g76 - x_r1_g36 >= -1
 lin1_40_1_82: p_r1_g82_h42_t40 - x_r1_g82 <= 0
 lin2_40_1_82: p_r1_g82_h42_t40 - x_r1_g42 <= 0
 lin3_40_1_82: p_r1_g82_h42_t40 - x_r1_g82 - x_r1_g42 >= -1
 lin1_40_1_88: p_r1_g88_h48_t40 - x_r1_g88 <= 0
 lin2_40_1_88: p_r1_g88_h48_t40 - x_r1_g48 <= 0
 lin3_40_1_88: p_r1_g88_h48_t40 - x_r1_g88 - x_r1_g48 >= -1
 lin1_40_1_104: p_r1_g104_h64_t40 - x_r1_g104 <= 0
 lin2_40_1_104: p_r1_g104_h64_t40 - x_r1_g64 <= 0
 lin3_40_1_104: p_r1_g104_h64_t40 - x_r1_g104 - x_r1_g64 >= -1
 lin1_40_1_109: p_r1_g109_h69_t40 - x_r1_g109 <= 0
 lin2_40_1_109: p_r1_g109_h69_t40 - x_r1_g69 <= 0
 lin3_40_1_109: p_r1_g109_h69_t40 - x_r1_g109 - x_r1_g69 >= -1
 lin1_40_1_124: p_r1_g124_h84_t40 - x_r1_g124 <= 0
 lin2_40_1_124: p_r1_g124_h84_t40 - x_r1_g84 <= 0
 lin3_40_1_124: p_r1_g124_h84_t40 - x_r1_g124 - x_r1_g84 >= -1
 lin1_40_1_138: p_r1_g138_h98_t40 - x_r1_g138 <= 0
 lin2_40_1_138: p_r1_g138_h98_t40 - x_r1_g98 <= 0
 lin3_40_1_138: p_r1_g138_h98_t40 - x_r1_g138 - x_r1_g98 >= -1
 lin1_40_2_30: p_r2_g30_h157_t40 - x_r2_g30 <= 0
 lin2_40_2_30: p_r2_g30_h157_t40 - x_r2_g157 <= 0
 lin3_40_2_30: p_r2_g30_h157_t40 - x_r2_g30 - x_r2_g157 >= -1
 lin1_40_2_34: p_r2_g34_h161_t40 - x_r2_g34 <= 0
 lin2_40_2_34: p_r2_g34_h161_t40 - x_r2_g161 <= 0
 lin3_40_2_34: p_r2_g34_h161_t40 - x_r2_g34 - x_r2_g161 >= -1
 lin1_40_2_35: p_r2_g35_h162_t40 - x_r2_g35 <= 0
 lin2_40_2_35: p_r2_g35_h162_t40 - x_r2_g162 <= 0
 lin3_40_2_35: p_r2_g35_h162_t40 - x_r2_g35 - x_r2_g162 >= -1
 lin1_40_2_53: p_r2_g53_h13_t40 - x_r2_g53 <= 0
 lin2_40_2_53: p_r2_g53_h13_t40 - x_r2_g13 <= 0
 lin3_40_2_53: p_r2_g53_h13_t40 - x_r2_g53 - x_r2_g13 >= -1
 lin1_40_2_61: p_r2_g61_h21_t40 - x_r2_g61 <= 0
 lin2_40_2_61: p_r2_g61_h21_t40 - x_r2_g21 <= 0
 lin3_40_2_61: p_r2_g61_h21_t40 - x_r2_g61 - x_r2_g21 >= -1
 lin1_40_2_74: p_r2_g74_h34_t40 - x_r2_g74 <= 0
 lin2_40_2_74: p_r2_g74_h34_t40 - x_r2_g34 <= 0
 lin3_40_2_74: p_r2_g74_h34_t40 - x_r2_g74 - x_r2_g34 >= -1
 lin1_40_2_85: p_r2_g85_h45_t40 - x_r2_g85 <= 0
 lin2_40_2_85: p_r2_g85_h45_t40 - x_r2_g45 <= 0
 lin3_40_2_85: p_r2_g85_h45_t40 - x_r2_g85 - x_r2_g45 >= -1
 lin1_40_2_91: p_r2_g91_h51_t40 - x_r2_g91 <= 0
 lin2_40_2_91: p_r2_g91_h51_t40 - x_r2_g51 <= 0
 lin3_40_2_91: p_r2_g91_h51_t40 - x_r2_g91 - x_r2_g51 >= -1
 lin1_40_2_93: p_r2_g93_h53_t40 - x_r2_g93 <= 0
 lin2_40_2_93: p_r2_g93_h53_t40 - x_r2_g53 <= 0
 lin3_40_2_93: p_r2_g93_h53_t40 - x_r2_g93 - x_r2_g53 >= -1
 lin1_40_2_101: p_r2_g101_h61_t40 - x_r2_g101 <= 0
 lin2_40_2_101: p_r2_g101_h61_t40 - x_r2_g61 <= 0
 lin3_40_2_101: p_r2_g101_h61_t40 - x_r2_g101 - x_r2_g61 >= -1
 lin1_40_2_133: p_r2_g133_h93_t40 - x_r2_g133 <= 0
 lin2_40_2_133: p_r2_g133_h93_t40 - x_r2_g93 <= 0
 lin3_40_2_133: p_r2_g133_h93_t40 - x_r2_g133 - x_r2_g93 >= -1
 lin1_40_2_141: p_r2_g141_h101_t40 - x_r2_g141 <= 0
 lin2_40_2_141: p_r2_g141_h101_t40 - x_r2_g101 <= 0
 lin3_40_2_141: p_r2_g141_h101_t40 - x_r2_g141 - x_r2_g101 >= -1
 lin1_40_3_22: p_r3_g22_h149_t40 - x_r3_g22 <= 0
 lin2_40_3_22: p_r3_g22_h149_t40 - x_r3_g149 <= 0
 lin3_40_3_22: p_r3_g22_h149_t40 - x_r3_g22 - x_r3_g149 >= -1
 lin1_40_3_24: p_r3_g24_h151_t40 - x_r3_g24 <= 0
 lin2_40_3_24: p_r3_g24_h151_t40 - x_r3_g151 <= 0
 lin3_40_3_24: p_r3_g24_h151_t40 - x_r3_g24 - x_r3_g151 >= -1
 lin1_40_3_26: p_r3_g26_h153_t40 - x_r3_g26 <= 0
 lin2_40_3_26: p_r3_g26_h153_t40 - x_r3_g153 <= 0
 lin3_40_3_26: p_r3_g26_h153_t40 - x_r3_g26 - x_r3_g153 >= -1
 lin1_40_3_31: p_r3_g31_h158_t40 - x_r3_g31 <= 0
 lin2_40_3_31: p_r3_g31_h158_t40 - x_r3_g158 <= 0
 lin3_40_3_31: p_r3_g31_h158_t40 - x_r3_g31 - x_r3_g158 >= -1
 lin1_40_3_34: p_r3_g34_h161_t40 - x_r3_g34 <= 0
 lin2_40_3_34: p_r3_g34_h161_t40 - x_r3_g161 <= 0
 lin3_40_3_34: p_r3_g34_h161_t40 - x_r3_g34 - x_r3_g161 >= -1
 lin1_40_3_39: p_r3_g39_h166_t40 - x_r3_g39 <= 0
 lin2_40_3_39: p_r3_g39_h166_t40 - x_r3_g166 <= 0
 lin3_40_3_39: p_r3_g39_h166_t40 - x_r3_g39 - x_r3_g166 >= -1
 lin1_40_3_62: p_r3_g62_h22_t40 - x_r3_g62 <= 0
 lin2_40_3_62: p_r3_g62_h22_t40 - x_r3_g22 <= 0
 lin3_40_3_62: p_r3_g62_h22_t40 - x_r3_g62 - x_r3_g22 >= -1
 lin1_40_3_66: p_r3_g66_h26_t40 - x_r3_g66 <= 0
 lin2_40_3_66: p_r3_g66_h26_t40 - x_r3_g26 <= 0
 lin3_40_3_66: p_r3_g66_h26_t40 - x_r3_g66 - x_r3_g26 >= -1
 lin1_40_3_100: p_r3_g100_h60_t40 - x_r3_g100 <= 0
 lin2_40_3_100: p_r3_g100_h60_t40 - x_r3_g60 <= 0
 lin3_40_3_100: p_r3_g100_h60_t40 - x_r3_g100 - x_r3_g60 >= -1
 lin1_40_3_158: p_r3_g158_h118_t40 - x_r3_g158 <= 0
 lin2_40_3_158: p_r3_g158_h118_t40 - x_r3_g118 <= 0
 lin3_40_3_158: p_r3_g158_h118_t40 - x_r3_g158 - x_r3_g118 >= -1
 defect_40: 1 d_40 - 1 x_r0_g4 - 2 x_r0_g5 - 1 x_r0_g11 - 2 x_r0_g12 - 1 x_r0_g15 - 1 x_r0_g19 - 1 x_r0_g24 - 1 x_r0_g53 - 1 x_r0_g65 - 1 x_r0_g85 - 1 x_r0_g89 - 2 x_r0_g91 - 1 x_r0_g103 - 1 x_r0_g108 - 1 x_r0_g112 - 1 x_r0_g142 - 2 x_r0_g163 - 1 x_r1_g1 - 1 x_r1_g5 - 1 x_r1_g6 - 1 x_r1_g29 - 1 x_r1_g40 - 1 x_r1_g43 - 2 x_r1_g50 - 1 x_r1_g56 - 2 x_r1_g60 - 1 x_r1_g68 - 1 x_r1_g74 - 1 x_r1_g77 - 1 x_r1_g84 - 1 x_r1_g88 - 1 x_r1_g124 - 1 x_r1_g127 - 1 x_r1_g129 - 1 x_r1_g138 - 1 x_r1_g145 - 1 x_r1_g148 - 1 x_r1_g155 - 1 x_r1_g163 - 1 x_r2_g13 - 1 x_r2_g21 - 1 x_r2_g35 - 2 x_r2_g40 - 2 x_r2_g58 - 2 x_r2_g73 - 1 x_r2_g74 - 1 x_r2_g83 - 1 x_r2_g103 - 1 x_r2_g104 - 1 x_r2_g105 - 1 x_r2_g111 - 1 x_r2_g112 - 2 x_r2_g118 - 1 x_r2_g130 - 1 x_r2_g141 - 1 x_r2_g147 - 1 x_r2_g161 - 1 x_r2_g162 - 1 x_r3_g5 - 1 x_r3_g17 - 2 x_r3_g21 - 1 x_r3_g25 - 1 x_r3_g34 - 1 x_r3_g38 - 1 x_r3_g42 - 1 x_r3_g53 - 1 x_r3_g60 - 1 x_r3_g66 - 2 x_r3_g68 - 2 x_r3_g83 - 2 x_r3_g87 - 2 x_r3_g89 - 1 x_r3_g100 - 1 x_r3_g118 - 1 x_r3_g151 - 1 x_r3_g154 - 1 p_r0_g15_h142_t40 - 1 p_r0_g19_h146_t40 - 1 p_r0_g47_h7_t40 - 1 p_r0_g74_h34_t40 - 1 p_r0_g79_h39_t40 - 1 p_r0_g93_h53_t40 - 1 p_r0_g106_h66_t40 - 1 p_r0_g112_h72_t40 - 1 p_r0_g119_h79_t40 - 1 p_r0_g143_h103_t40 - 1 p_r0_g146_h106_t40 - 1 p_r0_g159_h119_t40 - 1 p_r1_g21_h148_t40 - 1 p_r1_g34_h161_t40 - 1 p_r1_g36_h163_t40 - 1 p_r1_g61_h21_t40 - 1 p_r1_g69_h29_t40 - 1 p_r1_g74_h34_t40 - 1 p_r1_g76_h36_t40 - 1 p_r1_g82_h42_t40 - 1 p_r1_g88_h48_t40 - 1 p_r1_g104_h64_t40 - 1 p_r1_g109_h69_t40 - 1 p_r1_g124_h84_t40 - 1 p_r1_g138_h98_t40 - 1 p_r2_g30_h157_t40 - 1 p_r2_g34_h161_t40 - 1 p_r2_g35_h162_t40 - 1 p_r2_g53_h13_t40 - 1 p_r2_g61_h21_t40 - 1 p_r2_g74_h34_t40 - 1 p_r2_g85_h45_t40 - 1 p_r2_g91_h51_t40 - 1 p_r2_g93_h53_t40 - 1 p_r2_g101_h61_t40 - 1 p_r2_g133_h93_t40 - 1 p_r2_g141_h101_t40 - 1 p_r3_g22_h149_t40 - 1 p_r3_g24_h151_t40 - 1 p_r3_g26_h153_t40 - 1 p_r3_g31_h158_t40 - 1 p_r3_g34_h161_t40 - 1 p_r3_g39_h166_t40 - 1 p_r3_g62_h22_t40 - 1 p_r3_g66_h26_t40 - 1 p_r3_g100_h60_t40 - 1 p_r3_g158_h118_t40 = -72
 abs_pos_40: d_40 - u_40 <= 0
 abs_neg_40: - d_40 - u_40 <= 0
 max_def_40: u_40 - M <= 0
 cap_40: u_40 <= 2
 lin1_42_0_1: p_r0_g1_h126_t42 - x_r0_g1 <= 0
 lin2_42_0_1: p_r0_g1_h126_t42 - x_r0_g126 <= 0
 lin3_42_0_1: p_r0_g1_h126_t42 - x_r0_g1 - x_r0_g126 >= -1
 lin1_42_0_11: p_r0_g11_h136_t42 - x_r0_g11 <= 0
 lin2_42_0_11: p_r0_g11_h136_t42 - x_r0_g136 <= 0
 lin3_42_0_11: p_r0_g11_h136_t42 - x_r0_g11 - x_r0_g136 >= -1
 lin1_42_0_34: p_r0_g34_h159_t42 - x_r0_g34 <= 0
 lin2_42_0_34: p_r0_g34_h159_t42 - x_r0_g159 <= 0
 lin3_42_0_34: p_r0_g34_h159_t42 - x_r0_g34 - x_r0_g159 >= -1
 lin1_42_0_47: p_r0_g47_h5_t42 - x_r0_g47 <= 0
 lin2_42_0_47: p_r0_g47_h5_t42 - x_r0_g5 <= 0
 lin3_42_0_47: p_r0_g47_h5_t42 - x_r0_g47 - x_r0_g5 >= -1
 lin1_42_0_53: p_r0_g53_h11_t42 - x_r0_g53 <= 0
 lin2_42_0_53: p_r0_g53_h11_t42 - x_r0_g11 <= 0
 lin3_42_0_53: p_r0_g53_h11_t42 - x_r0_g53 - x_r0_g11 >= -1
 lin1_42_0_57: p_r0_g57_h15_t42 - x_r0_g57 <= 0
 lin2_42_0_57: p_r0_g57_h15_t42 - x_r0_g15 <= 0
 lin3_42_0_57: p_r0_g57_h15_t42 - x_r0_g57 - x_r0_g15 >= -1
 lin1_42_0_66: p_r0_g66_h24_t42 - x_r0_g66 <= 0
 lin2_42_0_66: p_r0_g66_h24_t42 - x_r0_g24 <= 0
 lin3_42_0_66: p_r0_g66_h24_t42 - x_r0_g66 - x_r0_g24 >= -1
 lin1_42_0_89: p_r0_g89_h47_t42 - x_r0_g89 <= 0
 lin2_42_0_89: p_r0_g89_h47_t42 - x_r0_g47 <= 0
 lin3_42_0_89: p_r0_g89_h47_t42 - x_r0_g89 - x_r0_g47 >= -1
 lin1_42_0_108: p_r0_g108_h66_t42 - x_r0_g108 <= 0
 lin2_42_0_108: p_r0_g108_h66_t42 - x_r0_g66 <= 0
 lin3_42_0_108: p_r0_g108_h66_t42 - x_r0_g108 - x_r0_g66 >= -1
 lin1_42_0_135: p_r0_g135_h93_t42 - x_r0_g135 <= 0
 lin2_42_0_135: p_r0_g135_h93_t42 - x_r0_g93 <= 0
 lin3_42_0_135: p_r0_g135_h93_t42 - x_r0_g135 - x_r0_g93 >= -1
 lin1_42_0_150: p_r0_g150_h108_t42 - x_r0_g150 <= 0
 lin2_42_0_150: p_r0_g150_h108_t42 - x_r0_g108 <= 0
 lin3_42_0_150: p_r0_g150_h108_t42 - x_r0_g150 - x_r0_g108 >= -1
 lin1_42_1_23: p_r1_g23_h148_t42 - x_r1_g23 <= 0
 lin2_42_1_23: p_r1_g23_h148_t42 - x_r1_g148 <= 0
 lin3_42_1_23: p_r1_g23_h148_t42 - x_r1_g23 - x_r1_g148 >= -1
 lin1_42_1_36: p_r1_g36_h161_t42 - x_r1_g36 <= 0
 lin2_42_1_36: p_r1_g36_h161_t42 - x_r1_g161 <= 0
 lin3_42_1_36: p_r1_g36_h161_t42 - x_r1_g36 - x_r1_g161 >= -1
 lin1_42_1_43: p_r1_g43_h1_t42 - x_r1_g43 <= 0
 lin2_42_1_43: p_r1_g43_h1_t42 - x_r1_g1 <= 0
 lin3_42_1_43: p_r1_g43_h1_t42 - x_r1_g43 - x_r1_g1 >= -1
 lin1_42_1_48: p_r1_g48_h6_t42 - x_r1_g48 <= 0
 lin2_42_1_48: p_r1_g48_h6_t42 - x_r1_g6 <= 0
 lin3_42_1_48: p_r1_g48_h6_t42 - x_r1_g48 - x_r1_g6 >= -1
 lin1_42_1_76: p_r1_g76_h34_t42 - x_r1_g76 <= 0
 lin2_42_1_76: p_r1_g76_h34_t42 - x_r1_g34 <= 0
 lin3_42_1_76: p_r1_g76_h34_t42 - x_r1_g76 - x_r1_g34 >= -1
 lin1_42_1_82: p_r1_g82_h40_t42 - x_r1_g82 <= 0
 lin2_42_1_82: p_r1_g82_h40_t42 - x_r1_g40 <= 0
 lin3_42_1_82: p_r1_g82_h40_t42 - x_r1_g82 - x_r1_g40 >= -1
 lin1_42_1_84: p_r1_g84_h42_t42 - x_r1_g84 <= 0
 lin2_42_1_84: p_r1_g84_h42_t42 - x_r1_g42 <= 0
 lin3_42_1_84: p_r1_g84_h42_t42 - x_r1_g84 - x_r1_g42 >= -1
 lin1_42_1_98: p_r1_g98_h56_t42 - x_r1_g98 <= 0
 lin2_42_1_98: p_r1_g98_h56_t42 - x_r1_g56 <= 0
 lin3_42_1_98: p_r1_g98_h56_t42 - x_r1_g98 - x_r1_g56 >= -1
 lin1_42_1_124: p_r1_g124_h82_t42 - x_r1_g124 <= 0
 lin2_42_1_124: p_r1_g124_h82_t42 - x_r1_g82 <= 0
 lin3_42_1_124: p_r1_g124_h82_t42 - x_r1_g124 - x_r1_g82 >= -1
 lin1_42_1_141: p_r1_g141_h99_t42 - x_r1_g141 <= 0
 lin2_42_1_141: p_r1_g141_h99_t42 - x_r1_g99 <= 0
 lin3_42_1_141: p_r1_g141_h99_t42 - x_r1_g141 - x_r1_g99 >= -1
 lin1_42_2_32: p_r2_g32_h157_t42 - x_r2_g32 <= 0
 lin2_42_2_32: p_r2_g32_h157_t42 - x_r2_g157 <= 0
 lin3_42_2_32: p_r2_g32_h157_t42 - x_r2_g32 - x_r2_g157 >= -1
 lin1_42_2_74: p_r2_g74_h32_t42 - x_r2_g74 <= 0
 lin2_42_2_74: p_r2_g74_h32_t42 - x_r2_g32 <= 0
 lin3_42_2_74: p_r2_g74_h32_t42 - x_r2_g74 - x_r2_g32 >= -1
 lin1_42_2_93: p_r2_g93_h51_t42 - x_r2_g93 <= 0
 lin2_42_2_93: p_r2_g93_h51_t42 - x_r2_g51 <= 0
 lin3_42_2_93: p_r2_g93_h51_t42 - x_r2_g93 - x_r2_g51 >= -1
 lin1_42_2_103: p_r2_g103_h61_t42 - x_r2_g103 <= 0
 lin2_42_2_103: p_r2_g103_h61_t42 - x_r2_g61 <= 0
 lin3_42_2_103: p_r2_g103_h61_t42 - x_r2_g103 - x_r2_g61 >= -1
 lin1_42_2_133: p_r2_g133_h91_t42 - x_r2_g133 <= 0
 lin2_42_2_133: p_r2_g133_h91_t42 - x_r2_g91 <= 0
 lin3_42_2_133: p_r2_g133_h91_t42 - x_r2_g133 - x_r2_g91 >= -1
 lin1_42_2_135: p_r2_g135_h93_t42 - x_r2_g135 <= 0
 lin2_42_2_135: p_r2_g135_h93_t42 - x_r2_g93 <= 0
 lin3_42_2_135: p_r2_g135_h93_t42 - x_r2_g135 - x_r2_g93 >= -1
 lin1_42_2_147: p_r2_g147_h105_t42 - x_r2_g147 <= 0
 lin2_42_2_147: p_r2_g147_h105_t42 - x_r2_g105 <= 0
 lin3_42_2_147: p_r2_g147_h105_t42 - x_r2_g147 - x_r2_g105 >= -1
 lin1_42_2_161: p_r2_g161_h119_t42 - x_r2_g161 <= 0
 lin2_42_2_161: p_r2_g161_h119_t42 - x_r2_g119 <= 0
 lin3_42_2_161: p_r2_g161_h119_t42 - x_r2_g161 - x_r2_g119 >= -1
 lin1_42_3_24: p_r3_g24_h149_t42 - x_r3_g24 <= 0
 lin2_42_3_24: p_r3_g24_h149_t42 - x_r3_g149 <= 0
 lin3_42_3_24: p_r3_g24_h149_t42 - x_r3_g24 - x_r3_g149 >= -1
 lin1_42_3_26: p_r3_g26_h151_t42 - x_r3_g26 <= 0
 lin2_42_3_26: p_r3_g26_h151_t42 - x_r3_g151 <= 0
 lin3_42_3_26: p_r3_g26_h151_t42 - x_r3_g26 - x_r3_g151 >= -1
 lin1_42_3_31: p_r3_g31_h156_t42 - x_r3_g31 <= 0
 lin2_42_3_31: p_r3_g31_h156_t42 - x_r3_g156 <= 0
 lin3_42_3_31: p_r3_g31_h156_t42 - x_r3_g31 - x_r3_g156 >= -1
 lin1_42_3_66: p_r3_g66_h24_t42 - x_r3_g66 <= 0
 lin2_42_3_66: p_r3_g66_h24_t42 - x_r3_g24 <= 0
 lin3_42_3_66: p_r3_g66_h24_t42 - x_r3_g66 - x_r3_g24 >= -1
 lin1_42_3_68: p_r3_g68_h26_t42 - x_r3_g68 <= 0
 lin2_42_3_68: p_r3_g68_h26_t42 - x_r3_g26 <= 0
 lin3_42_3_68: p_r3_g68_h26_t42 - x_r3_g68 - x_r3_g26 >= -1
 lin1_42_3_73: p_r3_g73_h31_t42 - x_r3_g73 <= 0
 lin2_42_3_73: p_r3_g73_h31_t42 - x_r3_g31 <= 0
 lin3_42_3_73: p_r3_g73_h31_t42 - x_r3_g73 - x_r3_g31 >= -1
 lin1_42_3_125: p_r3_g125_h83_t42 - x_r3_g125 <= 0
 lin2_42_3_125: p_r3_g125_h83_t42 - x_r3_g83 <= 0
 lin3_42_3_125: p_r3_g125_h83_t42 - x_r3_g125 - x_r3_g83 >= -1
 lin1_42_3_166: p_r3_g166_h124_t42 - x_r3_g166 <= 0
 lin2_42_3_166: p_r3_g166_h124_t42 - x_r3_g124 <= 0
 lin3_42_3_166: p_r3_g166_h124_t42 - x_r3_g166 - x_r3_g124 >= -1
 defect_42: 1 d_42 - 1 x_r0_g1 - 1 x_r0_g4 - 2 x_r0_g7 - 2 x_r0_g12 - 1 x_r0_g24 - 2 x_r0_g56 - 1 x_r0_g69 - 1 x_r0_g72 - 1 x_r0_g74 - 1 x_r0_g79 - 2 x_r0_g85 - 1 x_r0_g89 - 1 x_r0_g91 - 1 x_r0_g93 - 1 x_r0_g112 - 1 x_r0_g119 - 1 x_r0_g142 - 1 x_r0_g143 - 1 x_r0_g150 - 1 x_r0_g163 - 1 x_r1_g5 - 1 x_r1_g21 - 1 x_r1_g23 - 1 x_r1_g29 - 1 x_r1_g34 - 1 x_r1_g36 - 1 x_r1_g48 - 1 x_r1_g60 - 1 x_r1_g61 - 1 x_r1_g68 - 1 x_r1_g69 - 1 x_r1_g74 - 1 x_r1_g77 - 2 x_r1_g88 - 1 x_r1_g98 - 1 x_r1_g99 - 2 x_r1_g104 - 1 x_r1_g124 - 1 x_r1_g129 - 1 x_r1_g138 - 2 x_r1_g145 - 1 x_r1_g155 - 1 x_r1_g161 - 1 x_r1_g162 - 1 x_r1_g163 - 1 x_r2_g15 - 1 x_r2_g21 - 1 x_r2_g27 - 1 x_r2_g35 - 2 x_r2_g40 - 1 x_r2_g52 - 2 x_r2_g73 - 1 x_r2_g74 - 1 x_r2_g83 - 2 x_r2_g85 - 1 x_r2_g91 - 1 x_r2_g105 - 2 x_r2_g106 - 1 x_r2_g111 - 1 x_r2_g118 - 1 x_r2_g124 - 1 x_r2_g139 - 1 x_r2_g157 - 1 x_r2_g162 - 1 x_r3_g5 - 2 x_r3_g17 - 1 x_r3_g21 - 2 x_r3_g23 - 1 x_r3_g34 - 2 x_r3_g38 - 1 x_r3_g39 - 1 x_r3_g51 - 1 x_r3_g60 - 1 x_r3_g62 - 1 x_r3_g66 - 1 x_r3_g68 - 2 x_r3_g69 - 1 x_r3_g83 - 2 x_r3_g87 - 1 x_r3_g89 - 1 x_r3_g96 - 1 x_r3_g100 - 1 x_r3_g117 - 2 x_r3_g118 - 1 x_r3_g137 - 2 x_r3_g153 - 1 x_r3_g154 - 2 x_r3_g161 - 1 x_r3_g166 - 1 p_r0_g1_h126_t42 - 1 p_r0_g11_h136_t42 - 1 p_r0_g34_h159_t42 - 1 p_r0_g47_h5_t42 - 1 p_r0_g53_h11_t42 - 1 p_r0_g57_h15_t42 - 1 p_r0_g66_h24_t42 - 1 p_r0_g89_h47_t42 - 1 p_r0_g108_h66_t42 - 1 p_r0_g135_h93_t42 - 1 p_r0_g150_h108_t42 - 1 p_r1_g23_h148_t42 - 1 p_r1_g36_h161_t42 - 1 p_r1_g43_h1_t42 - 1 p_r1_g48_h6_t42 - 1 p_r1_g76_h34_t42 - 1 p_r1_g82_h40_t42 - 1 p_r1_g84_h42_t42 - 1 p_r1_g98_h56_t42 - 1 p_r1_g124_h82_t42 - 1 p_r1_g141_h99_t42 - 1 p_r2_g32_h157_t42 - 1 p_r2_g74_h32_t42 - 1 p_r2_g93_h51_t42 - 1 p_r2_g103_h61_t42 - 1 p_r2_g133_h91_t42 - 1 p_r2_g135_h93_t42 - 1 p_r2_g147_h105_t42 - 1 p_r2_g161_h119_t42 - 1 p_r3_g24_h149_t42 - 1 p_r3_g26_h151_t42 - 1 p_r3_g31_h156_t42 - 1 p_r3_g66_h24_t42 - 1 p_r3_g68_h26_t42 - 1 p_r3_g73_h31_t42 - 1 p_r3_g125_h83_t42 - 1 p_r3_g166_h124_t42 = -59
 abs_pos_42: d_42 - u_42 <= 0
 abs_neg_42: - d_42 - u_42 <= 0
 max_def_42: u_42 - M <= 0
 cap_42: u_42 <= 0
 lin1_44_0_1: p_r0_g1_h124_t44 - x_r0_g1 <= 0
 lin2_44_0_1: p_r0_g1_h124_t44 - x_r0_g124 <= 0
 lin3_44_0_1: p_r0_g1_h124_t44 - x_r0_g1 - x_r0_g124 >= -1
 lin1_44_0_12: p_r0_g12_h135_t44 - x_r0_g12 <= 0
 lin2_44_0_12: p_r0_g12_h135_t44 - x_r0_g135 <= 0
 lin3_44_0_12: p_r0_g12_h135_t44 - x_r0_g12 - x_r0_g135 >= -1
 lin1_44_0_19: p_r0_g19_h142_t44 - x_r0_g19 <= 0
 lin2_44_0_19: p_r0_g19_h142_t44 - x_r0_g142 <= 0
 lin3_44_0_19: p_r0_g19_h142_t44 - x_r0_g19 - x_r0_g142 >= -1
 lin1_44_0_56: p_r0_g56_h12_t44 - x_r0_g56 <= 0
 lin2_44_0_56: p_r0_g56_h12_t44 - x_r0_g12 <= 0
 lin3_44_0_56: p_r0_g56_h12_t44 - x_r0_g56 - x_r0_g12 >= -1
 lin1_44_0_91: p_r0_g91_h47_t44 - x_r0_g91 <= 0
 lin2_44_0_91: p_r0_g91_h47_t44 - x_r0_g47 <= 0
 lin3_44_0_91: p_r0_g91_h47_t44 - x_r0_g91 - x_r0_g47 >= -1
 lin1_44_0_135: p_r0_g135_h91_t44 - x_r0_g135 <= 0
 lin2_44_0_135: p_r0_g135_h91_t44 - x_r0_g91 <= 0
 lin3_44_0_135: p_r0_g135_h91_t44 - x_r0_g135 - x_r0_g91 >= -1
 lin1_44_0_150: p_r0_g150_h106_t44 - x_r0_g150 <= 0
 lin2_44_0_150: p_r0_g150_h106_t44 - x_r0_g106 <= 0
 lin3_44_0_150: p_r0_g150_h106_t44 - x_r0_g150 - x_r0_g106 >= -1
 lin1_44_0_163: p_r0_g163_h119_t44 - x_r0_g163 <= 0
 lin2_44_0_163: p_r0_g163_h119_t44 - x_r0_g119 <= 0
 lin3_44_0_163: p_r0_g163_h119_t44 - x_r0_g163 - x_r0_g119 >= -1
 lin1_44_1_1: p_r1_g1_h124_t44 - x_r1_g1 <= 0
 lin2_44_1_1: p_r1_g1_h124_t44 - x_r1_g124 <= 0
 lin3_44_1_1: p_r1_g1_h124_t44 - x_r1_g1 - x_r1_g124 >= -1
 lin1_44_1_6: p_r1_g6_h129_t44 - x_r1_g6 <= 0
 lin2_44_1_6: p_r1_g6_h129_t44 - x_r1_g129 <= 0
 lin3_44_1_6: p_r1_g6_h129_t44 - x_r1_g6 - x_r1_g129 >= -1
 lin1_44_1_40: p_r1_g40_h163_t44 - x_r1_g40 <= 0
 lin2_44_1_40: p_r1_g40_h163_t44 - x_r1_g163 <= 0
 lin3_44_1_40: p_r1_g40_h163_t44 - x_r1_g40 - x_r1_g163 >= -1
 lin1_44_1_50: p_r1_g50_h6_t44 - x_r1_g50 <= 0
 lin2_44_1_50: p_r1_g50_h6_t44 - x_r1_g6 <= 0
 lin3_44_1_50: p_r1_g50_h6_t44 - x_r1_g50 - x_r1_g6 >= -1
 lin1_44_1_84: p_r1_g84_h40_t44 - x_r1_g84 <= 0
 lin2_44_1_84: p_r1_g84_h40_t44 - x_r1_g40 <= 0
 lin3_44_1_84: p_r1_g84_h40_t44 - x_r1_g84 - x_r1_g40 >= -1
 lin1_44_1_104: p_r1_g104_h60_t44 - x_r1_g104 <= 0
 lin2_44_1_104: p_r1_g104_h60_t44 - x_r1_g60 <= 0
 lin3_44_1_104: p_r1_g104_h60_t44 - x_r1_g104 - x_r1_g60 >= -1
 lin1_44_1_148: p_r1_g148_h104_t44 - x_r1_g148 <= 0
 lin2_44_1_148: p_r1_g148_h104_t44 - x_r1_g104 <= 0
 lin3_44_1_148: p_r1_g148_h104_t44 - x_r1_g148 - x_r1_g104 >= -1
 lin1_44_2_34: p_r2_g34_h157_t44 - x_r2_g34 <= 0
 lin2_44_2_34: p_r2_g34_h157_t44 - x_r2_g157 <= 0
 lin3_44_2_34: p_r2_g34_h157_t44 - x_r2_g34 - x_r2_g157 >= -1
 lin1_44_2_74: p_r2_g74_h30_t44 - x_r2_g74 <= 0
 lin2_44_2_74: p_r2_g74_h30_t44 - x_r2_g30 <= 0
 lin3_44_2_74: p_r2_g74_h30_t44 - x_r2_g74 - x_r2_g30 >= -1
 lin1_44_2_105: p_r2_g105_h61_t44 - x_r2_g105 <= 0
 lin2_44_2_105: p_r2_g105_h61_t44 - x_r2_g61 <= 0
 lin3_44_2_105: p_r2_g105_h61_t44 - x_r2_g105 - x_r2_g61 >= -1
 lin1_44_2_118: p_r2_g118_h74_t44 - x_r2_g118 <= 0
 lin2_44_2_118: p_r2_g118_h74_t44 - x_r2_g74 <= 0
 lin3_44_2_118: p_r2_g118_h74_t44 - x_r2_g118 - x_r2_g74 >= -1
 lin1_44_2_135: p_r2_g135_h91_t44 - x_r2_g135 <= 0
 lin2_44_2_135: p_r2_g135_h91_t44 - x_r2_g91 <= 0
 lin3_44_2_135: p_r2_g135_h91_t44 - x_r2_g135 - x_r2_g91 >= -1
 lin1_44_2_147: p_r2_g147_h103_t44 - x_r2_g147 <= 0
 lin2_44_2_147: p_r2_g147_h103_t44 - x_r2_g103 <= 0
 lin3_44_2_147: p_r2_g147_h103_t44 - x_r2_g147 - x_r2_g103 >= -1
 lin1_44_2_162: p_r2_g162_h118_t44 - x_r2_g162 <= 0
 lin2_44_2_162: p_r2_g162_h118_t44 - x_r2_g118 <= 0
 lin3_44_2_162: p_r2_g162_h118_t44 - x_r2_g162 - x_r2_g118 >= -1
 lin1_44_3_26: p_r3_g26_h149_t44 - x_r3_g26 <= 0
 lin2_44_3_26: p_r3_g26_h149_t44 - x_r3_g149 <= 0
 lin3_44_3_26: p_r3_g26_h149_t44 - x_r3_g26 - x_r3_g149 >= -1
 lin1_44_3_31: p_r3_g31_h154_t44 - x_r3_g31 <= 0
 lin2_44_3_31: p_r3_g31_h154_t44 - x_r3_g154 <= 0
 lin3_44_3_31: p_r3_g31_h154_t44 - x_r3_g31 - x_r3_g154 >= -1
 lin1_44_3_38: p_r3_g38_h161_t44 - x_r3_g38 <= 0
 lin2_44_3_38: p_r3_g38_h161_t44 - x_r3_g161 <= 0
 lin3_44_3_38: p_r3_g38_h161_t44 - x_r3_g38 - x_r3_g161 >= -1
 lin1_44_3_66: p_r3_g66_h22_t44 - x_r3_g66 <= 0
 lin2_44_3_66: p_r3_g66_h22_t44 - x_r3_g22 <= 0
 lin3_44_3_66: p_r3_g66_h22_t44 - x_r3_g66 - x_r3_g22 >= -1
 lin1_44_3_68: p_r3_g68_h24_t44 - x_r3_g68 <= 0
 lin2_44_3_68: p_r3_g68_h24_t44 - x_r3_g24 <= 0
 lin3_44_3_68: p_r3_g68_h24_t44 - x_r3_g68 - x_r3_g24 >= -1
 lin1_44_3_69: p_r3_g69_h25_t44 - x_r3_g69 <= 0
 lin2_44_3_69: p_r3_g69_h25_t44 - x_r3_g25 <= 0
 lin3_44_3_69: p_r3_g69_h25_t44 - x_r3_g69 - x_r3_g25 >= -1
 lin1_44_3_83: p_r3_g83_h39_t44 - x_r3_g83 <= 0
 lin2_44_3_83: p_r3_g83_h39_t44 - x_r3_g39 <= 0
 lin3_44_3_83: p_r3_g83_h39_t44 - x_r3_g83 - x_r3_g39 >= -1
 lin1_44_3_117: p_r3_g117_h73_t44 - x_r3_g117 <= 0
 lin2_44_3_117: p_r3_g117_h73_t44 - x_r3_g73 <= 0
 lin3_44_3_117: p_r3_g117_h73_t44 - x_r3_g117 - x_r3_g73 >= -1
 lin1_44_3_161: p_r3_g161_h117_t44 - x_r3_g161 <= 0
 lin2_44_3_161: p_r3_g161_h117_t44 - x_r3_g117 <= 0
 lin3_44_3_161: p_r3_g161_h117_t44 - x_r3_g161 - x_r3_g117 >= -1
 defect_44: 1 d_44 - 1 x_r0_g1 - 2 x_r0_g4 - 1 x_r0_g5 - 1 x_r0_g7 - 1 x_r0_g11 - 1 x_r0_g15 - 1 x_r0_g19 - 1 x_r0_g24 - 1 x_r0_g34 - 1 x_r0_g47 - 1 x_r0_g56 - 2 x_r0_g57 - 2 x_r0_g69 - 1 x_r0_g72 - 2 x_r0_g74 - 1 x_r0_g79 - 1 x_r0_g89 - 2 x_r0_g93 - 1 x_r0_g103 - 1 x_r0_g106 - 1 x_r0_g108 - 1 x_r0_g112 - 1 x_r0_g126 - 1 x_r0_g136 - 1 x_r0_g142 - 1 x_r0_g143 - 1 x_r0_g146 - 1 x_r0_g159 - 1 x_r0_g163 - 2 x_r1_g5 - 1 x_r1_g21 - 1 x_r1_g23 - 2 x_r1_g34 - 2 x_r1_g36 - 2 x_r1_g43 - 1 x_r1_g56 - 2 x_r1_g64 - 1 x_r1_g68 - 2 x_r1_g69 - 1 x_r1_g76 - 1 x_r1_g82 - 1 x_r1_g84 - 2 x_r1_g88 - 1 x_r1_g109 - 1 x_r1_g124 - 1 x_r1_g138 - 1 x_r1_g141 - 1 x_r1_g148 - 1 x_r1_g155 - 1 x_r1_g161 - 1 x_r1_g162 - 1 x_r1_g163 - 1 x_r2_g13 - 1 x_r2_g21 - 1 x_r2_g27 - 1 x_r2_g30 - 1 x_r2_g34 - 1 x_r2_g35 - 1 x_r2_g40 - 1 x_r2_g45 - 1 x_r2_g51 - 2 x_r2_g58 - 2 x_r2_g83 - 2 x_r2_g85 - 2 x_r2_g93 - 2 x_r2_g104 - 1 x_r2_g106 - 1 x_r2_g112 - 2 x_r2_g119 - 2 x_r2_g124 - 2 x_r2_g130 - 1 x_r2_g141 - 1 x_r2_g157 - 1 x_r2_g162 - 2 x_r3_g5 - 2 x_r3_g17 - 2 x_r3_g21 - 1 x_r3_g22 - 1 x_r3_g23 - 1 x_r3_g25 - 1 x_r3_g31 - 1 x_r3_g34 - 1 x_r3_g39 - 1 x_r3_g42 - 1 x_r3_g53 - 2 x_r3_g62 - 1 x_r3_g66 - 1 x_r3_g68 - 1 x_r3_g83 - 1 x_r3_g87 - 1 x_r3_g89 - 2 x_r3_g90 - 1 x_r3_g96 - 1 x_r3_g100 - 2 x_r3_g118 - 2 x_r3_g124 - 2 x_r3_g125 - 1 x_r3_g151 - 1 x_r3_g153 - 1 x_r3_g154 - 1 x_r3_g156 - 2 x_r3_g166 - 1 p_r0_g1_h124_t44 - 1 p_r0_g12_h135_t44 - 1 p_r0_g19_h142_t44 - 1 p_r0_g56_h12_t44 - 1 p_r0_g91_h47_t44 - 1 p_r0_g135_h91_t44 - 1 p_r0_g150_h106_t44 - 1 p_r0_g163_h119_t44 - 1 p_r1_g1_h124_t44 - 1 p_r1_g6_h129_t44 - 1 p_r1_g40_h163_t44 - 1 p_r1_g50_h6_t44 - 1 p_r1_g84_h40_t44 - 1 p_r1_g104_h60_t44 - 1 p_r1_g148_h104_t44 - 1 p_r2_g34_h157_t44 - 1 p_r2_g74_h30_t44 - 1 p_r2_g105_h61_t44 - 1 p_r2_g118_h74_t44 - 1 p_r2_g135_h91_t44 - 1 p_r2_g147_h103_t44 - 1 p_r2_g162_h118_t44 - 1 p_r3_g26_h149_t44 - 1 p_r3_g31_h154_t44 - 1 p_r3_g38_h161_t44 - 1 p_r3_g66_h22_t44 - 1 p_r3_g68_h24_t44 - 1 p_r3_g69_h25_t44 - 1 p_r3_g83_h39_t44 - 1 p_r3_g117_h73_t44 - 1 p_r3_g161_h117_t44 = -87
 abs_pos_44: d_44 - u_44 <= 0
 abs_neg_44: - d_44 - u_44 <= 0
 max_def_44: u_44 - M <= 0
 cap_44: u_44 <= 2
 lin1_47_0_4: p_r0_g4_h124_t47 - x_r0_g4 <= 0
 lin2_47_0_4: p_r0_g4_h124_t47 - x_r0_g124 <= 0
 lin3_47_0_4: p_r0_g4_h124_t47 - x_r0_g4 - x_r0_g124 >= -1
 lin1_47_0_15: p_r0_g15_h135_t47 - x_r0_g15 <= 0
 lin2_47_0_15: p_r0_g15_h135_t47 - x_r0_g135 <= 0
 lin3_47_0_15: p_r0_g15_h135_t47 - x_r0_g15 - x_r0_g135 >= -1
 lin1_47_0_39: p_r0_g39_h159_t47 - x_r0_g39 <= 0
 lin2_47_0_39: p_r0_g39_h159_t47 - x_r0_g159 <= 0
 lin3_47_0_39: p_r0_g39_h159_t47 - x_r0_g39 - x_r0_g159 >= -1
 lin1_47_0_66: p_r0_g66_h19_t47 - x_r0_g66 <= 0
 lin2_47_0_66: p_r0_g66_h19_t47 - x_r0_g19 <= 0
 lin3_47_0_66: p_r0_g66_h19_t47 - x_r0_g66 - x_r0_g19 >= -1
 lin1_47_0_103: p_r0_g103_h56_t47 - x_r0_g103 <= 0
 lin2_47_0_103: p_r0_g103_h56_t47 - x_r0_g56 <= 0
 lin3_47_0_103: p_r0_g103_h56_t47 - x_r0_g103 - x_r0_g56 >= -1
 lin1_47_0_112: p_r0_g112_h65_t47 - x_r0_g112 <= 0
 lin2_47_0_112: p_r0_g112_h65_t47 - x_r0_g65 <= 0
 lin3_47_0_112: p_r0_g112_h65_t47 - x_r0_g112 - x_r0_g65 >= -1
 lin1_47_0_119: p_r0_g119_h72_t47 - x_r0_g119 <= 0
 lin2_47_0_119: p_r0_g119_h72_t47 - x_r0_g72 <= 0
 lin3_47_0_119: p_r0_g119_h72_t47 - x_r0_g119 - x_r0_g72 >= -1
 lin1_47_0_126: p_r0_g126_h79_t47 - x_r0_g126 <= 0
 lin2_47_0_126: p_r0_g126_h79_t47 - x_r0_g79 <= 0
 lin3_47_0_126: p_r0_g126_h79_t47 - x_r0_g126 - x_r0_g79 >= -1
 lin1_47_0_136: p_r0_g136_h89_t47 - x_r0_g136 <= 0
 lin2_47_0_136: p_r0_g136_h89_t47 - x_r0_g89 <= 0
 lin3_47_0_136: p_r0_g136_h89_t47 - x_r0_g136 - x_r0_g89 >= -1
 lin1_47_0_150: p_r0_g150_h103_t47 - x_r0_g150 <= 0
 lin2_47_0_150: p_r0_g150_h103_t47 - x_r0_g103 <= 0
 lin3_47_0_150: p_r0_g150_h103_t47 - x_r0_g150 - x_r0_g103 >= -1
 lin1_47_0_159: p_r0_g159_h112_t47 - x_r0_g159 <= 0
 lin2_47_0_159: p_r0_g159_h112_t47 - x_r0_g112 <= 0
 lin3_47_0_159: p_r0_g159_h112_t47 - x_r0_g159 - x_r0_g112 >= -1
 lin1_47_1_21: p_r1_g21_h141_t47 - x_r1_g21 <= 0
 lin2_47_1_21: p_r1_g21_h141_t47 - x_r1_g141 <= 0
 lin3_47_1_21: p_r1_g21_h141_t47 - x_r1_g21 - x_r1_g141 >= -1
 lin1_47_1_42: p_r1_g42_h162_t47 - x_r1_g42 <= 0
 lin2_47_1_42: p_r1_g42_h162_t47 - x_r1_g162 <= 0
 lin3_47_1_42: p_r1_g42_h162_t47 - x_r1_g42 - x_r1_g162 >= -1
 lin1_47_1_43: p_r1_g43_h163_t47 - x_r1_g43 <= 0
 lin2_47_1_43: p_r1_g43_h163_t47 - x_r1_g163 <= 0
 lin3_47_1_43: p_r1_g43_h163_t47 - x_r1_g43 - x_r1_g163 >= -1
 lin1_47_1_48: p_r1_g48_h1_t47 - x_r1_g48 <= 0
 lin2_47_1_48: p_r1_g48_h1_t47 - x_r1_g1 <= 0
 lin3_47_1_48: p_r1_g48_h1_t47 - x_r1_g48 - x_r1_g1 >= -1
 lin1_47_1_68: p_r1_g68_h21_t47 - x_r1_g68 <= 0
 lin2_47_1_68: p_r1_g68_h21_t47 - x_r1_g21 <= 0
 lin3_47_1_68: p_r1_g68_h21_t47 - x_r1_g68 - x_r1_g21 >= -1
 lin1_47_1_76: p_r1_g76_h29_t47 - x_r1_g76 <= 0
 lin2_47_1_76: p_r1_g76_h29_t47 - x_r1_g29 <= 0
 lin3_47_1_76: p_r1_g76_h29_t47 - x_r1_g76 - x_r1_g29 >= -1
 lin1_47_1_124: p_r1_g124_h77_t47 - x_r1_g124 <= 0
 lin2_47_1_124: p_r1_g124_h77_t47 - x_r1_g77 <= 0
 lin3_47_1_124: p_r1_g124_h77_t47 - x_r1_g124 - x_r1_g77 >= -1
 lin1_47_1_129: p_r1_g129_h82_t47 - x_r1_g129 <= 0
 lin2_47_1_129: p_r1_g129_h82_t47 - x_r1_g82 <= 0
 lin3_47_1_129: p_r1_g129_h82_t47 - x_r1_g129 - x_r1_g82 >= -1
 lin1_47_1_145: p_r1_g145_h98_t47 - x_r1_g145 <= 0
 lin2_47_1_145: p_r1_g145_h98_t47 - x_r1_g98 <= 0
 lin3_47_1_145: p_r1_g145_h98_t47 - x_r1_g145 - x_r1_g98 >= -1
 lin1_47_2_13: p_r2_g13_h133_t47 - x_r2_g13 <= 0
 lin2_47_2_13: p_r2_g13_h133_t47 - x_r2_g133 <= 0
 lin3_47_2_13: p_r2_g13_h133_t47 - x_r2_g13 - x_r2_g133 >= -1
 lin1_47_2_15: p_r2_g15_h135_t47 - x_r2_g15 <= 0
 lin2_47_2_15: p_r2_g15_h135_t47 - x_r2_g135 <= 0
 lin3_47_2_15: p_r2_g15_h135_t47 - x_r2_g15 - x_r2_g135 >= -1
 lin1_47_2_21: p_r2_g21_h141_t47 - x_r2_g21 <= 0
 lin2_47_2_21: p_r2_g21_h141_t47 - x_r2_g141 <= 0
 lin3_47_2_21: p_r2_g21_h141_t47 - x_r2_g21 - x_r2_g141 >= -1
 lin1_47_2_27: p_r2_g27_h147_t47 - x_r2_g27 <= 0
 lin2_47_2_27: p_r2_g27_h147_t47 - x_r2_g147 <= 0
 lin3_47_2_27: p_r2_g27_h147_t47 - x_r2_g27 - x_r2_g147 >= -1
 lin1_47_2_74: p_r2_g74_h27_t47 - x_r2_g74 <= 0
 lin2_47_2_74: p_r2_g74_h27_t47 - x_r2_g27 <= 0
 lin3_47_2_74: p_r2_g74_h27_t47 - x_r2_g74 - x_r2_g27 >= -1
 lin1_47_2_105: p_r2_g105_h58_t47 - x_r2_g105 <= 0
 lin2_47_2_105: p_r2_g105_h58_t47 - x_r2_g58 <= 0
 lin3_47_2_105: p_r2_g105_h58_t47 - x_r2_g105 - x_r2_g58 >= -1
 lin1_47_2_130: p_r2_g130_h83_t47 - x_r2_g130 <= 0
 lin2_47_2_130: p_r2_g130_h83_t47 - x_r2_g83 <= 0
 lin3_47_2_130: p_r2_g130_h83_t47 - x_r2_g130 - x_r2_g83 >= -1
 lin1_47_3_5: p_r3_g5_h125_t47 - x_r3_g5 <= 0
 lin2_47_3_5: p_r3_g5_h125_t47 - x_r3_g125 <= 0
 lin3_47_3_5: p_r3_g5_h125_t47 - x_r3_g5 - x_r3_g125 >= -1
 lin1_47_3_17: p_r3_g17_h137_t47 - x_r3_g17 <= 0
 lin2_47_3_17: p_r3_g17_h137_t47 - x_r3_g137 <= 0
 lin3_47_3_17: p_r3_g17_h137_t47 - x_r3_g17 - x_r3_g137 >= -1
 lin1_47_3_31: p_r3_g31_h151_t47 - x_r3_g31 <= 0
 lin2_47_3_31: p_r3_g31_h151_t47 - x_r3_g151 <= 0
 lin3_47_3_31: p_r3_g31_h151_t47 - x_r3_g31 - x_r3_g151 >= -1
 lin1_47_3_34: p_r3_g34_h154_t47 - x_r3_g34 <= 0
 lin2_47_3_34: p_r3_g34_h154_t47 - x_r3_g154 <= 0
 lin3_47_3_34: p_r3_g34_h154_t47 - x_r3_g34 - x_r3_g154 >= -1
 lin1_47_3_38: p_r3_g38_h158_t47 - x_r3_g38 <= 0
 lin2_47_3_38: p_r3_g38_h158_t47 - x_r3_g158 <= 0
 lin3_47_3_38: p_r3_g38_h158_t47 - x_r3_g38 - x_r3_g158 >= -1
 lin1_47_3_68: p_r3_g68_h21_t47 - x_r3_g68 <= 0
 lin2_47_3_68: p_r3_g68_h21_t47 - x_r3_g21 <= 0
 lin3_47_3_68: p_r3_g68_h21_t47 - x_r3_g68 - x_r3_g21 >= -1
 lin1_47_3_69: p_r3_g69_h22_t47 - x_r3_g69 <= 0
 lin2_47_3_69: p_r3_g69_h22_t47 - x_r3_g22 <= 0
 lin3_47_3_69: p_r3_g69_h22_t47 - x_r3_g69 - x_r3_g22 >= -1
 lin1_47_3_73: p_r3_g73_h26_t47 - x_r3_g73 <= 0
 lin2_47_3_73: p_r3_g73_h26_t47 - x_r3_g26 <= 0
 lin3_47_3_73: p_r3_g73_h26_t47 - x_r3_g73 - x_r3_g26 >= -1
 lin1_47_3_89: p_r3_g89_h42_t47 - x_r3_g89 <= 0
 lin2_47_3_89: p_r3_g89_h42_t47 - x_r3_g42 <= 0
 lin3_47_3_89: p_r3_g89_h42_t47 - x_r3_g89 - x_r3_g42 >= -1
 lin1_47_3_100: p_r3_g100_h53_t47 - x_r3_g100 <= 0
 lin2_47_3_100: p_r3_g100_h53_t47 - x_r3_g53 <= 0
 lin3_47_3_100: p_r3_g100_h53_t47 - x_r3_g100 - x_r3_g53 >= -1
 lin1_47_3_137: p_r3_g137_h90_t47 - x_r3_g137 <= 0
 lin2_47_3_137: p_r3_g137_h90_t47 - x_r3_g90 <= 0
 lin3_47_3_137: p_r3_g137_h90_t47 - x_r3_g137 - x_r3_g90 >= -1
 defect_47: 1 d_47 - 1 x_r0_g1 - 1 x_r0_g4 - 1 x_r0_g5 - 2 x_r0_g7 - 2 x_r0_g11 - 2 x_r0_g12 - 1 x_r0_g15 - 1 x_r0_g19 - 2 x_r0_g53 - 1 x_r0_g66 - 1 x_r0_g69 - 1 x_r0_g72 - 2 x_r0_g85 - 1 x_r0_g89 - 1 x_r0_g93 - 1 x_r0_g106 - 1 x_r0_g108 - 1 x_r0_g124 - 1 x_r0_g126 - 1 x_r0_g135 - 1 x_r0_g150 - 2 x_r0_g163 - 1 x_r1_g6 - 1 x_r1_g23 - 2 x_r1_g34 - 1 x_r1_g36 - 2 x_r1_g40 - 1 x_r1_g42 - 1 x_r1_g43 - 1 x_r1_g48 - 1 x_r1_g50 - 1 x_r1_g56 - 1 x_r1_g60 - 1 x_r1_g61 - 1 x_r1_g68 - 1 x_r1_g74 - 1 x_r1_g76 - 1 x_r1_g84 - 1 x_r1_g99 - 1 x_r1_g104 - 2 x_r1_g109 - 1 x_r1_g127 - 2 x_r1_g138 - 1 x_r1_g145 - 1 x_r1_g155 - 1 x_r1_g161 - 1 x_r1_g162 - 1 x_r2_g13 - 1 x_r2_g21 - 1 x_r2_g30 - 1 x_r2_g32 - 1 x_r2_g35 - 1 x_r2_g40 - 1 x_r2_g45 - 2 x_r2_g51 - 1 x_r2_g61 - 2 x_r2_g73 - 1 x_r2_g74 - 1 x_r2_g85 - 2 x_r2_g93 - 1 x_r2_g101 - 2 x_r2_g103 - 1 x_r2_g104 - 1 x_r2_g105 - 1 x_r2_g106 - 2 x_r2_g111 - 1 x_r2_g112 - 1 x_r2_g118 - 1 x_r2_g124 - 1 x_r2_g133 - 1 x_r2_g141 - 1 x_r2_g157 - 2 x_r2_g161 - 1 x_r2_g162 - 1 x_r3_g22 - 1 x_r3_g23 - 1 x_r3_g24 - 1 x_r3_g25 - 1 x_r3_g26 - 1 x_r3_g31 - 1 x_r3_g34 - 1 x_r3_g39 - 1 x_r3_g42 - 2 x_r3_g51 - 1 x_r3_g53 - 1 x_r3_g60 - 1 x_r3_g66 - 1 x_r3_g83 - 2 x_r3_g87 - 1 x_r3_g90 - 2 x_r3_g96 - 1 x_r3_g124 - 1 x_r3_g125 - 1 x_r3_g153 - 1 x_r3_g156 - 1 x_r3_g158 - 1 x_r3_g161 - 2 x_r3_g166 - 1 p_r0_g4_h124_t47 - 1 p_r0_g15_h135_t47 - 1 p_r0_g39_h159_t47 - 1 p_r0_g66_h19_t47 - 1 p_r0_g103_h56_t47 - 1 p_r0_g112_h65_t47 - 1 p_r0_g119_h72_t47 - 1 p_r0_g126_h79_t47 - 1 p_r0_g136_h89_t47 - 1 p_r0_g150_h103_t47 - 1 p_r0_g159_h112_t47 - 1 p_r1_g21_h141_t47 - 1 p_r1_g42_h162_t47 - 1 p_r1_g43_h163_t47 - 1 p_r1_g48_h1_t47 - 1 p_r1_g68_h21_t47 - 1 p_r1_g76_h29_t47 - 1 p_r1_g124_h77_t47 - 1 p_r1_g129_h82_t47 - 1 p_r1_g145_h98_t47 - 1 p_r2_g13_h133_t47 - 1 p_r2_g15_h135_t47 - 1 p_r2_g21_h141_t47 - 1 p_r2_g27_h147_t47 - 1 p_r2_g74_h27_t47 - 1 p_r2_g105_h58_t47 - 1 p_r2_g130_h83_t47 - 1 p_r3_g5_h125_t47 - 1 p_r3_g17_h137_t47 - 1 p_r3_g31_h151_t47 - 1 p_r3_g34_h154_t47 - 1 p_r3_g38_h158_t47 - 1 p_r3_g68_h21_t47 - 1 p_r3_g69_h22_t47 - 1 p_r3_g73_h26_t47 - 1 p_r3_g89_h42_t47 - 1 p_r3_g100_h53_t47 - 1 p_r3_g137_h90_t47 = -56
 abs_pos_47: d_47 - u_47 <= 0
 abs_neg_47: - d_47 - u_47 <= 0
 max_def_47: u_47 - M <= 0
 cap_47: u_47 <= 2
 lin1_50_0_7: p_r0_g7_h124_t50 - x_r0_g7 <= 0
 lin2_50_0_7: p_r0_g7_h124_t50 - x_r0_g124 <= 0
 lin3_50_0_7: p_r0_g7_h124_t50 - x_r0_g7 - x_r0_g124 >= -1
 lin1_50_0_19: p_r0_g19_h136_t50 - x_r0_g19 <= 0
 lin2_50_0_19: p_r0_g19_h136_t50 - x_r0_g136 <= 0
 lin3_50_0_19: p_r0_g19_h136_t50 - x_r0_g19 - x_r0_g136 >= -1
 lin1_50_0_57: p_r0_g57_h7_t50 - x_r0_g57 <= 0
 lin2_50_0_57: p_r0_g57_h7_t50 - x_r0_g7 <= 0
 lin3_50_0_57: p_r0_g57_h7_t50 - x_r0_g57 - x_r0_g7 >= -1
 lin1_50_0_65: p_r0_g65_h15_t50 - x_r0_g65 <= 0
 lin2_50_0_65: p_r0_g65_h15_t50 - x_r0_g15 <= 0
 lin3_50_0_65: p_r0_g65_h15_t50 - x_r0_g65 - x_r0_g15 >= -1
 lin1_50_0_69: p_r0_g69_h19_t50 - x_r0_g69 <= 0
 lin2_50_0_69: p_r0_g69_h19_t50 - x_r0_g19 <= 0
 lin3_50_0_69: p_r0_g69_h19_t50 - x_r0_g69 - x_r0_g19 >= -1
 lin1_50_0_74: p_r0_g74_h24_t50 - x_r0_g74 <= 0
 lin2_50_0_74: p_r0_g74_h24_t50 - x_r0_g24 <= 0
 lin3_50_0_74: p_r0_g74_h24_t50 - x_r0_g74 - x_r0_g24 >= -1
 lin1_50_0_89: p_r0_g89_h39_t50 - x_r0_g89 <= 0
 lin2_50_0_89: p_r0_g89_h39_t50 - x_r0_g39 <= 0
 lin3_50_0_89: p_r0_g89_h39_t50 - x_r0_g89 - x_r0_g39 >= -1
 lin1_50_0_103: p_r0_g103_h53_t50 - x_r0_g103 <= 0
 lin2_50_0_103: p_r0_g103_h53_t50 - x_r0_g53 <= 0
 lin3_50_0_103: p_r0_g103_h53_t50 - x_r0_g103 - x_r0_g53 >= -1
 lin1_50_0_106: p_r0_g106_h56_t50 - x_r0_g106 <= 0
 lin2_50_0_106: p_r0_g106_h56_t50 - x_r0_g56 <= 0
 lin3_50_0_106: p_r0_g106_h56_t50 - x_r0_g106 - x_r0_g56 >= -1
 lin1_50_0_119: p_r0_g119_h69_t50 - x_r0_g119 <= 0
 lin2_50_0_119: p_r0_g119_h69_t50 - x_r0_g69 <= 0
 lin3_50_0_119: p_r0_g119_h69_t50 - x_r0_g119 - x_r0_g69 >= -1
 lin1_50_0_124: p_r0_g124_h74_t50 - x_r0_g124 <= 0
 lin2_50_0_124: p_r0_g124_h74_t50 - x_r0_g74 <= 0
 lin3_50_0_124: p_r0_g124_h74_t50 - x_r0_g124 - x_r0_g74 >= -1
 lin1_50_0_135: p_r0_g135_h85_t50 - x_r0_g135 <= 0
 lin2_50_0_135: p_r0_g135_h85_t50 - x_r0_g85 <= 0
 lin3_50_0_135: p_r0_g135_h85_t50 - x_r0_g135 - x_r0_g85 >= -1
 lin1_50_0_143: p_r0_g143_h93_t50 - x_r0_g143 <= 0
 lin2_50_0_143: p_r0_g143_h93_t50 - x_r0_g93 <= 0
 lin3_50_0_143: p_r0_g143_h93_t50 - x_r0_g143 - x_r0_g93 >= -1
 lin1_50_1_21: p_r1_g21_h138_t50 - x_r1_g21 <= 0
 lin2_50_1_21: p_r1_g21_h138_t50 - x_r1_g138 <= 0
 lin3_50_1_21: p_r1_g21_h138_t50 - x_r1_g21 - x_r1_g138 >= -1
 lin1_50_1_56: p_r1_g56_h6_t50 - x_r1_g56 <= 0
 lin2_50_1_56: p_r1_g56_h6_t50 - x_r1_g6 <= 0
 lin3_50_1_56: p_r1_g56_h6_t50 - x_r1_g56 - x_r1_g6 >= -1
 lin1_50_1_84: p_r1_g84_h34_t50 - x_r1_g84 <= 0
 lin2_50_1_84: p_r1_g84_h34_t50 - x_r1_g34 <= 0
 lin3_50_1_84: p_r1_g84_h34_t50 - x_r1_g84 - x_r1_g34 >= -1
 lin1_50_1_98: p_r1_g98_h48_t50 - x_r1_g98 <= 0
 lin2_50_1_98: p_r1_g98_h48_t50 - x_r1_g48 <= 0
 lin3_50_1_98: p_r1_g98_h48_t50 - x_r1_g98 - x_r1_g48 >= -1
 lin1_50_1_124: p_r1_g124_h74_t50 - x_r1_g124 <= 0
 lin2_50_1_124: p_r1_g124_h74_t50 - x_r1_g74 <= 0
 lin3_50_1_124: p_r1_g124_h74_t50 - x_r1_g124 - x_r1_g74 >= -1
 lin1_50_1_127: p_r1_g127_h77_t50 - x_r1_g127 <= 0
 lin2_50_1_127: p_r1_g127_h77_t50 - x_r1_g77 <= 0
 lin3_50_1_127: p_r1_g127_h77_t50 - x_r1_g127 - x_r1_g77 >= -1
 lin1_50_1_138: p_r1_g138_h88_t50 - x_r1_g138 <= 0
 lin2_50_1_138: p_r1_g138_h88_t50 - x_r1_g88 <= 0
 lin3_50_1_138: p_r1_g138_h88_t50 - x_r1_g138 - x_r1_g88 >= -1
 lin1_50_1_148: p_r1_g148_h98_t50 - x_r1_g148 <= 0
 lin2_50_1_148: p_r1_g148_h98_t50 - x_r1_g98 <= 0
 lin3_50_1_148: p_r1_g148_h98_t50 - x_r1_g148 - x_r1_g98 >= -1
 lin1_50_2_13: p_r2_g13_h130_t50 - x_r2_g13 <= 0
 lin2_50_2_13: p_r2_g13_h130_t50 - x_r2_g130 <= 0
 lin3_50_2_13: p_r2_g13_h130_t50 - x_r2_g13 - x_r2_g130 >= -1
 lin1_50_2_30: p_r2_g30_h147_t50 - x_r2_g30 <= 0
 lin2_50_2_30: p_r2_g30_h147_t50 - x_r2_g147 <= 0
 lin3_50_2_30: p_r2_g30_h147_t50 - x_r2_g30 - x_r2_g147 >= -1
 lin1_50_2_40: p_r2_g40_h157_t50 - x_r2_g40 <= 0
 lin2_50_2_40: p_r2_g40_h157_t50 - x_r2_g157 <= 0
 lin3_50_2_40: p_r2_g40_h157_t50 - x_r2_g40 - x_r2_g157 >= -1
 lin1_50_2_45: p_r2_g45_h162_t50 - x_r2_g45 <= 0
 lin2_50_2_45: p_r2_g45_h162_t50 - x_r2_g162 <= 0
 lin3_50_2_45: p_r2_g45_h162_t50 - x_r2_g45 - x_r2_g162 >= -1
 lin1_50_2_85: p_r2_g85_h35_t50 - x_r2_g85 <= 0
 lin2_50_2_85: p_r2_g85_h35_t50 - x_r2_g35 <= 0
 lin3_50_2_85: p_r2_g85_h35_t50 - x_r2_g85 - x_r2_g35 >= -1
 lin1_50_2_101: p_r2_g101_h51_t50 - x_r2_g101 <= 0
 lin2_50_2_101: p_r2_g101_h51_t50 - x_r2_g51 <= 0
 lin3_50_2_101: p_r2_g101_h51_t50 - x_r2_g101 - x_r2_g51 >= -1
 lin1_50_2_103: p_r2_g103_h53_t50 - x_r2_g103 <= 0
 lin2_50_2_103: p_r2_g103_h53_t50 - x_r2_g53 <= 0
 lin3_50_2_103: p_r2_g103_h53_t50 - x_r2_g103 - x_r2_g53 >= -1
 lin1_50_2_111: p_r2_g111_h61_t50 - x_r2_g111 <= 0
 lin2_50_2_111: p_r2_g111_h61_t50 - x_r2_g61 <= 0
 lin3_50_2_111: p_r2_g111_h61_t50 - x_r2_g111 - x_r2_g61 >= -1
 lin1_50_2_124: p_r2_g124_h74_t50 - x_r2_g124 <= 0
 lin2_50_2_124: p_r2_g124_h74_t50 - x_r2_g74 <= 0
 lin3_50_2_124: p_r2_g124_h74_t50 - x_r2_g124 - x_r2_g74 >= -1
 lin1_50_2_133: p_r2_g133_h83_t50 - x_r2_g133 <= 0
 lin2_50_2_133: p_r2_g133_h83_t50 - x_r2_g83 <= 0
 lin3_50_2_133: p_r2_g133_h83_t50 - x_r2_g133 - x_r2_g83 >= -1
 lin1_50_2_135: p_r2_g135_h85_t50 - x_r2_g135 <= 0
 lin2_50_2_135: p_r2_g135_h85_t50 - x_r2_g85 <= 0
 lin3_50_2_135: p_r2_g135_h85_t50 - x_r2_g135 - x_r2_g85 >= -1
 lin1_50_2_141: p_r2_g141_h91_t50 - x_r2_g141 <= 0
 lin2_50_2_141: p_r2_g141_h91_t50 - x_r2_g91 <= 0
 lin3_50_2_141: p_r2_g141_h91_t50 - x_r2_g141 - x_r2_g91 >= -1
 lin1_50_2_161: p_r2_g161_h111_t50 - x_r2_g161 <= 0
 lin2_50_2_161: p_r2_g161_h111_t50 - x_r2_g111 <= 0
 lin3_50_2_161: p_r2_g161_h111_t50 - x_r2_g161 - x_r2_g111 >= -1
 lin1_50_2_162: p_r2_g162_h112_t50 - x_r2_g162 <= 0
 lin2_50_2_162: p_r2_g162_h112_t50 - x_r2_g112 <= 0
 lin3_50_2_162: p_r2_g162_h112_t50 - x_r2_g162 - x_r2_g112 >= -1
 lin1_50_3_34: p_r3_g34_h151_t50 - x_r3_g34 <= 0
 lin2_50_3_34: p_r3_g34_h151_t50 - x_r3_g151 <= 0
 lin3_50_3_34: p_r3_g34_h151_t50 - x_r3_g34 - x_r3_g151 >= -1
 lin1_50_3_39: p_r3_g39_h156_t50 - x_r3_g39 <= 0
 lin2_50_3_39: p_r3_g39_h156_t50 - x_r3_g156 <= 0
 lin3_50_3_39: p_r3_g39_h156_t50 - x_r3_g39 - x_r3_g156 >= -1
 lin1_50_3_73: p_r3_g73_h23_t50 - x_r3_g73 <= 0
 lin2_50_3_73: p_r3_g73_h23_t50 - x_r3_g23 <= 0
 lin3_50_3_73: p_r3_g73_h23_t50 - x_r3_g73 - x_r3_g23 >= -1
 lin1_50_3_89: p_r3_g89_h39_t50 - x_r3_g89 <= 0
 lin2_50_3_89: p_r3_g89_h39_t50 - x_r3_g39 <= 0
 lin3_50_3_89: p_r3_g89_h39_t50 - x_r3_g89 - x_r3_g39 >= -1
 lin1_50_3_118: p_r3_g118_h68_t50 - x_r3_g118 <= 0
 lin2_50_3_118: p_r3_g118_h68_t50 - x_r3_g68 <= 0
 lin3_50_3_118: p_r3_g118_h68_t50 - x_r3_g118 - x_r3_g68 >= -1
 lin1_50_3_137: p_r3_g137_h87_t50 - x_r3_g137 <= 0
 lin2_50_3_137: p_r3_g137_h87_t50 - x_r3_g87 <= 0
 lin3_50_3_137: p_r3_g137_h87_t50 - x_r3_g137 - x_r3_g87 >= -1
 defect_50: 1 d_50 - 2 x_r0_g1 - 1 x_r0_g4 - 2 x_r0_g5 - 1 x_r0_g12 - 1 x_r0_g15 - 1 x_r0_g34 - 1 x_r0_g53 - 1 x_r0_g56 - 1 x_r0_g66 - 1 x_r0_g72 - 1 x_r0_g89 - 1 x_r0_g93 - 2 x_r0_g108 - 1 x_r0_g112 - 1 x_r0_g142 - 1 x_r0_g150 - 1 x_r0_g159 - 2 x_r0_g163 - 1 x_r1_g6 - 1 x_r1_g23 - 2 x_r1_g29 - 2 x_r1_g40 - 1 x_r1_g42 - 1 x_r1_g43 - 1 x_r1_g50 - 1 x_r1_g60 - 1 x_r1_g61 - 1 x_r1_g64 - 1 x_r1_g68 - 1 x_r1_g69 - 1 x_r1_g76 - 1 x_r1_g77 - 2 x_r1_g82 - 1 x_r1_g88 - 1 x_r1_g99 - 1 x_r1_g104 - 1 x_r1_g109 - 1 x_r1_g127 - 1 x_r1_g129 - 1 x_r1_g141 - 1 x_r1_g145 - 1 x_r1_g148 - 1 x_r1_g155 - 1 x_r1_g161 - 1 x_r1_g162 - 2 x_r1_g163 - 1 x_r2_g13 - 2 x_r2_g15 - 1 x_r2_g30 - 1 x_r2_g32 - 1 x_r2_g34 - 1 x_r2_g35 - 1 x_r2_g40 - 1 x_r2_g51 - 1 x_r2_g52 - 1 x_r2_g83 - 1 x_r2_g91 - 1 x_r2_g93 - 1 x_r2_g101 - 1 x_r2_g103 - 1 x_r2_g106 - 2 x_r2_g118 - 1 x_r2_g124 - 1 x_r2_g130 - 1 x_r2_g135 - 2 x_r3_g5 - 1 x_r3_g17 - 1 x_r3_g21 - 1 x_r3_g22 - 1 x_r3_g23 - 1 x_r3_g24 - 2 x_r3_g25 - 2 x_r3_g26 - 2 x_r3_g31 - 1 x_r3_g51 - 1 x_r3_g60 - 2 x_r3_g62 - 1 x_r3_g68 - 2 x_r3_g69 - 1 x_r3_g73 - 1 x_r3_g87 - 1 x_r3_g89 - 2 x_r3_g90 - 2 x_r3_g96 - 1 x_r3_g118 - 1 x_r3_g124 - 2 x_r3_g125 - 1 x_r3_g137 - 2 x_r3_g149 - 1 x_r3_g153 - 1 x_r3_g154 - 1 x_r3_g156 - 2 x_r3_g158 - 1 x_r3_g161 - 1 x_r3_g166 - 1 p_r0_g7_h124_t50 - 1 p_r0_g19_h136_t50 - 1 p_r0_g57_h7_t50 - 1 p_r0_g65_h15_t50 - 1 p_r0_g69_h19_t50 - 1 p_r0_g74_h24_t50 - 1 p_r0_g89_h39_t50 - 1 p_r0_g103_h53_t50 - 1 p_r0_g106_h56_t50 - 1 p_r0_g119_h69_t50 - 1 p_r0_g124_h74_t50 - 1 p_r0_g135_h85_t50 - 1 p_r0_g143_h93_t50 - 1 p_r1_g21_h138_t50 - 1 p_r1_g56_h6_t50 - 1 p_r1_g84_h34_t50 - 1 p_r1_g98_h48_t50 - 1 p_r1_g124_h74_t50 - 1 p_r1_g127_h77_t50 - 1 p_r1_g138_h88_t50 - 1 p_r1_g148_h98_t50 - 1 p_r2_g13_h130_t50 - 1 p_r2_g30_h147_t50 - 1 p_r2_g40_h157_t50 - 1 p_r2_g45_h162_t50 - 1 p_r2_g85_h35_t50 - 1 p_r2_g101_h51_t50 - 1 p_r2_g103_h53_t50 - 1 p_r2_g111_h61_t50 - 1 p_r2_g124_h74_t50 - 1 p_r2_g133_h83_t50 - 1 p_r2_g135_h85_t50 - 1 p_r2_g141_h91_t50 - 1 p_r2_g161_h111_t50 - 1 p_r2_g162_h112_t50 - 1 p_r3_g34_h151_t50 - 1 p_r3_g39_h156_t50 - 1 p_r3_g73_h23_t50 - 1 p_r3_g89_h39_t50 - 1 p_r3_g118_h68_t50 - 1 p_r3_g137_h87_t50 = -56
 abs_pos_50: d_50 - u_50 <= 0
 abs_neg_50: - d_50 - u_50 <= 0
 max_def_50: u_50 - M <= 0
 cap_50: u_50 <= 2
 lin1_56_0_1: p_r0_g1_h112_t56 - x_r0_g1 <= 0
 lin2_56_0_1: p_r0_g1_h112_t56 - x_r0_g112 <= 0
 lin3_56_0_1: p_r0_g1_h112_t56 - x_r0_g1 - x_r0_g112 >= -1
 lin1_56_0_15: p_r0_g15_h126_t56 - x_r0_g15 <= 0
 lin2_56_0_15: p_r0_g15_h126_t56 - x_r0_g126 <= 0
 lin3_56_0_15: p_r0_g15_h126_t56 - x_r0_g15 - x_r0_g126 >= -1
 lin1_56_0_24: p_r0_g24_h135_t56 - x_r0_g24 <= 0
 lin2_56_0_24: p_r0_g24_h135_t56 - x_r0_g135 <= 0
 lin3_56_0_24: p_r0_g24_h135_t56 - x_r0_g24 - x_r0_g135 >= -1
 lin1_56_0_39: p_r0_g39_h150_t56 - x_r0_g39 <= 0
 lin2_56_0_39: p_r0_g39_h150_t56 - x_r0_g150 <= 0
 lin3_56_0_39: p_r0_g39_h150_t56 - x_r0_g39 - x_r0_g150 >= -1
 lin1_56_0_57: p_r0_g57_h1_t56 - x_r0_g57 <= 0
 lin2_56_0_57: p_r0_g57_h1_t56 - x_r0_g1 <= 0
 lin3_56_0_57: p_r0_g57_h1_t56 - x_r0_g57 - x_r0_g1 >= -1
 lin1_56_0_103: p_r0_g103_h47_t56 - x_r0_g103 <= 0
 lin2_56_0_103: p_r0_g103_h47_t56 - x_r0_g47 <= 0
 lin3_56_0_103: p_r0_g103_h47_t56 - x_r0_g103 - x_r0_g47 >= -1
 lin1_56_0_112: p_r0_g112_h56_t56 - x_r0_g112 <= 0
 lin2_56_0_112: p_r0_g112_h56_t56 - x_r0_g56 <= 0
 lin3_56_0_112: p_r0_g112_h56_t56 - x_r0_g112 - x_r0_g56 >= -1
 lin1_56_0_135: p_r0_g135_h79_t56 - x_r0_g135 <= 0
 lin2_56_0_135: p_r0_g135_h79_t56 - x_r0_g79 <= 0
 lin3_56_0_135: p_r0_g135_h79_t56 - x_r0_g135 - x_r0_g79 >= -1
 lin1_56_0_159: p_r0_g159_h103_t56 - x_r0_g159 <= 0
 lin2_56_0_159: p_r0_g159_h103_t56 - x_r0_g103 <= 0
 lin3_56_0_159: p_r0_g159_h103_t56 - x_r0_g159 - x_r0_g103 >= -1
 lin1_56_1_34: p_r1_g34_h145_t56 - x_r1_g34 <= 0
 lin2_56_1_34: p_r1_g34_h145_t56 - x_r1_g145 <= 0
 lin3_56_1_34: p_r1_g34_h145_t56 - x_r1_g34 - x_r1_g145 >= -1
 lin1_56_1_50: p_r1_g50_h161_t56 - x_r1_g50 <= 0
 lin2_56_1_50: p_r1_g50_h161_t56 - x_r1_g161 <= 0
 lin3_56_1_50: p_r1_g50_h161_t56 - x_r1_g50 - x_r1_g161 >= -1
 lin1_56_1_61: p_r1_g61_h5_t56 - x_r1_g61 <= 0
 lin2_56_1_61: p_r1_g61_h5_t56 - x_r1_g5 <= 0
 lin3_56_1_61: p_r1_g61_h5_t56 - x_r1_g61 - x_r1_g5 >= -1
 lin1_56_1_77: p_r1_g77_h21_t56 - x_r1_g77 <= 0
 lin2_56_1_77: p_r1_g77_h21_t56 - x_r1_g21 <= 0
 lin3_56_1_77: p_r1_g77_h21_t56 - x_r1_g77 - x_r1_g21 >= -1
 lin1_56_1_98: p_r1_g98_h42_t56 - x_r1_g98 <= 0
 lin2_56_1_98: p_r1_g98_h42_t56 - x_r1_g42 <= 0
 lin3_56_1_98: p_r1_g98_h42_t56 - x_r1_g98 - x_r1_g42 >= -1
 lin1_56_1_99: p_r1_g99_h43_t56 - x_r1_g99 <= 0
 lin2_56_1_99: p_r1_g99_h43_t56 - x_r1_g43 <= 0
 lin3_56_1_99: p_r1_g99_h43_t56 - x_r1_g99 - x_r1_g43 >= -1
 lin1_56_1_104: p_r1_g104_h48_t56 - x_r1_g104 <= 0
 lin2_56_1_104: p_r1_g104_h48_t56 - x_r1_g48 <= 0
 lin3_56_1_104: p_r1_g104_h48_t56 - x_r1_g104 - x_r1_g48 >= -1
 lin1_56_1_124: p_r1_g124_h68_t56 - x_r1_g124 <= 0
 lin2_56_1_124: p_r1_g124_h68_t56 - x_r1_g68 <= 0
 lin3_56_1_124: p_r1_g124_h68_t56 - x_r1_g124 - x_r1_g68 >= -1
 lin1_56_1_138: p_r1_g138_h82_t56 - x_r1_g138 <= 0
 lin2_56_1_138: p_r1_g138_h82_t56 - x_r1_g82 <= 0
 lin3_56_1_138: p_r1_g138_h82_t56 - x_r1_g138 - x_r1_g82 >= -1
 lin1_56_1_155: p_r1_g155_h99_t56 - x_r1_g155 <= 0
 lin2_56_1_155: p_r1_g155_h99_t56 - x_r1_g99 <= 0
 lin3_56_1_155: p_r1_g155_h99_t56 - x_r1_g155 - x_r1_g99 >= -1
 lin1_56_2_13: p_r2_g13_h124_t56 - x_r2_g13 <= 0
 lin2_56_2_13: p_r2_g13_h124_t56 - x_r2_g124 <= 0
 lin3_56_2_13: p_r2_g13_h124_t56 - x_r2_g13 - x_r2_g124 >= -1
 lin1_56_2_30: p_r2_g30_h141_t56 - x_r2_g30 <= 0
 lin2_56_2_30: p_r2_g30_h141_t56 - x_r2_g141 <= 0
 lin3_56_2_30: p_r2_g30_h141_t56 - x_r2_g30 - x_r2_g141 >= -1
 lin1_56_2_51: p_r2_g51_h162_t56 - x_r2_g51 <= 0
 lin2_56_2_51: p_r2_g51_h162_t56 - x_r2_g162 <= 0
 lin3_56_2_51: p_r2_g51_h162_t56 - x_r2_g51 - x_r2_g162 >= -1
 lin1_56_2_83: p_r2_g83_h27_t56 - x_r2_g83 <= 0
 lin2_56_2_83: p_r2_g83_h27_t56 - x_r2_g27 <= 0
 lin3_56_2_83: p_r2_g83_h27_t56 - x_r2_g83 - x_r2_g27 >= -1
 lin1_56_2_91: p_r2_g91_h35_t56 - x_r2_g91 <= 0
 lin2_56_2_91: p_r2_g91_h35_t56 - x_r2_g35 <= 0
 lin3_56_2_91: p_r2_g91_h35_t56 - x_r2_g91 - x_r2_g35 >= -1
 lin1_56_2_101: p_r2_g101_h45_t56 - x_r2_g101 <= 0
 lin2_56_2_101: p_r2_g101_h45_t56 - x_r2_g45 <= 0
 lin3_56_2_101: p_r2_g101_h45_t56 - x_r2_g101 - x_r2_g45 >= -1
 lin1_56_2_130: p_r2_g130_h74_t56 - x_r2_g130 <= 0
 lin2_56_2_130: p_r2_g130_h74_t56 - x_r2_g74 <= 0
 lin3_56_2_130: p_r2_g130_h74_t56 - x_r2_g130 - x_r2_g74 >= -1
 lin1_56_2_139: p_r2_g139_h83_t56 - x_r2_g139 <= 0
 lin2_56_2_139: p_r2_g139_h83_t56 - x_r2_g83 <= 0
 lin3_56_2_139: p_r2_g139_h83_t56 - x_r2_g139 - x_r2_g83 >= -1
 lin1_56_2_141: p_r2_g141_h85_t56 - x_r2_g141 <= 0
 lin2_56_2_141: p_r2_g141_h85_t56 - x_r2_g85 <= 0
 lin3_56_2_141: p_r2_g141_h85_t56 - x_r2_g141 - x_r2_g85 >= -1
 lin1_56_2_147: p_r2_g147_h91_t56 - x_r2_g147 <= 0
 lin2_56_2_147: p_r2_g147_h91_t56 - x_r2_g91 <= 0
 lin3_56_2_147: p_r2_g147_h91_t56 - x_r2_g147 - x_r2_g91 >= -1
 lin1_56_2_157: p_r2_g157_h101_t56 - x_r2_g157 <= 0
 lin2_56_2_157: p_r2_g157_h101_t56 - x_r2_g101 <= 0
 lin3_56_2_157: p_r2_g157_h101_t56 - x_r2_g157 - x_r2_g101 >= -1
 lin1_56_2_161: p_r2_g161_h105_t56 - x_r2_g161 <= 0
 lin2_56_2_161: p_r2_g161_h105_t56 - x_r2_g105 <= 0
 lin3_56_2_161: p_r2_g161_h105_t56 - x_r2_g161 - x_r2_g105 >= -1
 lin1_56_2_162: p_r2_g162_h106_t56 - x_r2_g162 <= 0
 lin2_56_2_162: p_r2_g162_h106_t56 - x_r2_g106 <= 0
 lin3_56_2_162: p_r2_g162_h106_t56 - x_r2_g162 - x_r2_g106 >= -1
 lin1_56_3_26: p_r3_g26_h137_t56 - x_r3_g26 <= 0
 lin2_56_3_26: p_r3_g26_h137_t56 - x_r3_g137 <= 0
 lin3_56_3_26: p_r3_g26_h137_t56 - x_r3_g26 - x_r3_g137 >= -1
 lin1_56_3_38: p_r3_g38_h149_t56 - x_r3_g38 <= 0
 lin2_56_3_38: p_r3_g38_h149_t56 - x_r3_g149 <= 0
 lin3_56_3_38: p_r3_g38_h149_t56 - x_r3_g38 - x_r3_g149 >= -1
 lin1_56_3_42: p_r3_g42_h153_t56 - x_r3_g42 <= 0
 lin2_56_3_42: p_r3_g42_h153_t56 - x_r3_g153 <= 0
 lin3_56_3_42: p_r3_g42_h153_t56 - x_r3_g42 - x_r3_g153 >= -1
 lin1_56_3_73: p_r3_g73_h17_t56 - x_r3_g73 <= 0
 lin2_56_3_73: p_r3_g73_h17_t56 - x_r3_g17 <= 0
 lin3_56_3_73: p_r3_g73_h17_t56 - x_r3_g73 - x_r3_g17 >= -1
 lin1_56_3_87: p_r3_g87_h31_t56 - x_r3_g87 <= 0
 lin2_56_3_87: p_r3_g87_h31_t56 - x_r3_g31 <= 0
 lin3_56_3_87: p_r3_g87_h31_t56 - x_r3_g87 - x_r3_g31 >= -1
 lin1_56_3_90: p_r3_g90_h34_t56 - x_r3_g90 <= 0
 lin2_56_3_90: p_r3_g90_h34_t56 - x_r3_g34 <= 0
 lin3_56_3_90: p_r3_g90_h34_t56 - x_r3_g90 - x_r3_g34 >= -1
 lin1_56_3_118: p_r3_g118_h62_t56 - x_r3_g118 <= 0
 lin2_56_3_118: p_r3_g118_h62_t56 - x_r3_g62 <= 0
 lin3_56_3_118: p_r3_g118_h62_t56 - x_r3_g118 - x_r3_g62 >= -1
 lin1_56_3_124: p_r3_g124_h68_t56 - x_r3_g124 <= 0
 lin2_56_3_124: p_r3_g124_h68_t56 - x_r3_g68 <= 0
 lin3_56_3_124: p_r3_g124_h68_t56 - x_r3_g124 - x_r3_g68 >= -1
 lin1_56_3_125: p_r3_g125_h69_t56 - x_r3_g125 <= 0
 lin2_56_3_125: p_r3_g125_h69_t56 - x_r3_g69 <= 0
 lin3_56_3_125: p_r3_g125_h69_t56 - x_r3_g125 - x_r3_g69 >= -1
 lin1_56_3_156: p_r3_g156_h100_t56 - x_r3_g156 <= 0
 lin2_56_3_156: p_r3_g156_h100_t56 - x_r3_g100 <= 0
 lin3_56_3_156: p_r3_g156_h100_t56 - x_r3_g156 - x_r3_g100 >= -1
 defect_56: 1 d_56 - 1 x_r0_g5 - 2 x_r0_g7 - 2 x_r0_g11 - 2 x_r0_g12 - 1 x_r0_g34 - 1 x_r0_g47 - 1 x_r0_g57 - 1 x_r0_g66 - 1 x_r0_g69 - 2 x_r0_g93 - 1 x_r0_g108 - 1 x_r0_g119 - 2 x_r0_g124 - 1 x_r0_g126 - 1 x_r0_g136 - 1 x_r0_g146 - 1 x_r0_g159 - 1 x_r0_g163 - 2 x_r1_g1 - 1 x_r1_g6 - 1 x_r1_g21 - 1 x_r1_g23 - 1 x_r1_g29 - 1 x_r1_g34 - 1 x_r1_g40 - 1 x_r1_g43 - 1 x_r1_g48 - 1 x_r1_g56 - 2 x_r1_g74 - 2 x_r1_g76 - 1 x_r1_g82 - 1 x_r1_g84 - 1 x_r1_g88 - 1 x_r1_g98 - 1 x_r1_g104 - 1 x_r1_g109 - 1 x_r1_g129 - 1 x_r1_g138 - 1 x_r1_g145 - 1 x_r1_g148 - 1 x_r1_g155 - 1 x_r1_g163 - 1 x_r2_g15 - 1 x_r2_g21 - 1 x_r2_g30 - 1 x_r2_g34 - 1 x_r2_g40 - 1 x_r2_g52 - 1 x_r2_g58 - 1 x_r2_g73 - 1 x_r2_g74 - 2 x_r2_g104 - 1 x_r2_g105 - 1 x_r2_g111 - 2 x_r2_g112 - 1 x_r2_g118 - 1 x_r2_g119 - 1 x_r2_g124 - 1 x_r2_g139 - 1 x_r2_g157 - 1 x_r3_g5 - 1 x_r3_g17 - 1 x_r3_g22 - 1 x_r3_g23 - 1 x_r3_g24 - 1 x_r3_g25 - 1 x_r3_g31 - 1 x_r3_g34 - 1 x_r3_g38 - 1 x_r3_g42 - 1 x_r3_g51 - 1 x_r3_g60 - 1 x_r3_g62 - 1 x_r3_g66 - 1 x_r3_g68 - 1 x_r3_g69 - 1 x_r3_g73 - 2 x_r3_g83 - 1 x_r3_g87 - 1 x_r3_g89 - 1 x_r3_g90 - 1 x_r3_g96 - 2 x_r3_g117 - 1 x_r3_g124 - 1 x_r3_g137 - 1 x_r3_g151 - 2 x_r3_g154 - 1 x_r3_g156 - 1 x_r3_g158 - 2 x_r3_g166 - 1 p_r0_g1_h112_t56 - 1 p_r0_g15_h126_t56 - 1 p_r0_g24_h135_t56 - 1 p_r0_g39_h150_t56 - 1 p_r0_g57_h1_t56 - 1 p_r0_g103_h47_t56 - 1 p_r0_g112_h56_t56 - 1 p_r0_g135_h79_t56 - 1 p_r0_g159_h103_t56 - 1 p_r1_g34_h145_t56 - 1 p_r1_g50_h161_t56 - 1 p_r1_g61_h5_t56 - 1 p_r1_g77_h21_t56 - 1 p_r1_g98_h42_t56 - 1 p_r1_g99_h43_t56 - 1 p_r1_g104_h48_t56 - 1 p_r1_g124_h68_t56 - 1 p_r1_g138_h82_t56 - 1 p_r1_g155_h99_t56 - 1 p_r2_g13_h124_t56 - 1 p_r2_g30_h141_t56 - 1 p_r2_g51_h162_t56 - 1 p_r2_g83_h27_t56 - 1 p_r2_g91_h35_t56 - 1 p_r2_g101_h45_t56 - 1 p_r2_g130_h74_t56 - 1 p_r2_g139_h83_t56 - 1 p_r2_g141_h85_t56 - 1 p_r2_g147_h91_t56 - 1 p_r2_g157_h101_t56 - 1 p_r2_g161_h105_t56 - 1 p_r2_g162_h106_t56 - 1 p_r3_g26_h137_t56 - 1 p_r3_g38_h149_t56 - 1 p_r3_g42_h153_t56 - 1 p_r3_g73_h17_t56 - 1 p_r3_g87_h31_t56 - 1 p_r3_g90_h34_t56 - 1 p_r3_g118_h62_t56 - 1 p_r3_g124_h68_t56 - 1 p_r3_g125_h69_t56 - 1 p_r3_g156_h100_t56 = -75
 abs_pos_56: d_56 - u_56 <= 0
 abs_neg_56: - d_56 - u_56 <= 0
 max_def_56: u_56 - M <= 0
 cap_56: u_56 <= 2
 lin1_64_0_5: p_r0_g5_h108_t64 - x_r0_g5 <= 0
 lin2_64_0_5: p_r0_g5_h108_t64 - x_r0_g108 <= 0
 lin3_64_0_5: p_r0_g5_h108_t64 - x_r0_g5 - x_r0_g108 >= -1
 lin1_64_0_39: p_r0_g39_h142_t64 - x_r0_g39 <= 0
 lin2_64_0_39: p_r0_g39_h142_t64 - x_r0_g142 <= 0
 lin3_64_0_39: p_r0_g39_h142_t64 - x_r0_g39 - x_r0_g142 >= -1
 lin1_64_0_47: p_r0_g47_h150_t64 - x_r0_g47 <= 0
 lin2_64_0_47: p_r0_g47_h150_t64 - x_r0_g150 <= 0
 lin3_64_0_47: p_r0_g47_h150_t64 - x_r0_g47 - x_r0_g150 >= -1
 lin1_64_0_56: p_r0_g56_h159_t64 - x_r0_g56 <= 0
 lin2_64_0_56: p_r0_g56_h159_t64 - x_r0_g159 <= 0
 lin3_64_0_56: p_r0_g56_h159_t64 - x_r0_g56 - x_r0_g159 >= -1
 lin1_64_0_65: p_r0_g65_h1_t64 - x_r0_g65 <= 0
 lin2_64_0_65: p_r0_g65_h1_t64 - x_r0_g1 <= 0
 lin3_64_0_65: p_r0_g65_h1_t64 - x_r0_g65 - x_r0_g1 >= -1
 lin1_64_0_69: p_r0_g69_h5_t64 - x_r0_g69 <= 0
 lin2_64_0_69: p_r0_g69_h5_t64 - x_r0_g5 <= 0
 lin3_64_0_69: p_r0_g69_h5_t64 - x_r0_g69 - x_r0_g5 >= -1
 lin1_64_0_79: p_r0_g79_h15_t64 - x_r0_g79 <= 0
 lin2_64_0_79: p_r0_g79_h15_t64 - x_r0_g15 <= 0
 lin3_64_0_79: p_r0_g79_h15_t64 - x_r0_g79 - x_r0_g15 >= -1
 lin1_64_0_103: p_r0_g103_h39_t64 - x_r0_g103 <= 0
 lin2_64_0_103: p_r0_g103_h39_t64 - x_r0_g39 <= 0
 lin3_64_0_103: p_r0_g103_h39_t64 - x_r0_g103 - x_r0_g39 >= -1
 lin1_64_0_136: p_r0_g136_h72_t64 - x_r0_g136 <= 0
 lin2_64_0_136: p_r0_g136_h72_t64 - x_r0_g72 <= 0
 lin3_64_0_136: p_r0_g136_h72_t64 - x_r0_g136 - x_r0_g72 >= -1
 lin1_64_0_143: p_r0_g143_h79_t64 - x_r0_g143 <= 0
 lin2_64_0_143: p_r0_g143_h79_t64 - x_r0_g79 <= 0
 lin3_64_0_143: p_r0_g143_h79_t64 - x_r0_g143 - x_r0_g79 >= -1
 lin1_64_1_1: p_r1_g1_h104_t64 - x_r1_g1 <= 0
 lin2_64_1_1: p_r1_g1_h104_t64 - x_r1_g104 <= 0
 lin3_64_1_1: p_r1_g1_h104_t64 - x_r1_g1 - x_r1_g104 >= -1
 lin1_64_1_6: p_r1_g6_h109_t64 - x_r1_g6 <= 0
 lin2_64_1_6: p_r1_g6_h109_t64 - x_r1_g109 <= 0
 lin3_64_1_6: p_r1_g6_h109_t64 - x_r1_g6 - x_r1_g109 >= -1
 lin1_64_1_21: p_r1_g21_h124_t64 - x_r1_g21 <= 0
 lin2_64_1_21: p_r1_g21_h124_t64 - x_r1_g124 <= 0
 lin3_64_1_21: p_r1_g21_h124_t64 - x_r1_g21 - x_r1_g124 >= -1
 lin1_64_1_42: p_r1_g42_h145_t64 - x_r1_g42 <= 0
 lin2_64_1_42: p_r1_g42_h145_t64 - x_r1_g145 <= 0
 lin3_64_1_42: p_r1_g42_h145_t64 - x_r1_g42 - x_r1_g145 >= -1
 lin1_64_1_60: p_r1_g60_h163_t64 - x_r1_g60 <= 0
 lin2_64_1_60: p_r1_g60_h163_t64 - x_r1_g163 <= 0
 lin3_64_1_60: p_r1_g60_h163_t64 - x_r1_g60 - x_r1_g163 >= -1
 lin1_64_1_69: p_r1_g69_h5_t64 - x_r1_g69 <= 0
 lin2_64_1_69: p_r1_g69_h5_t64 - x_r1_g5 <= 0
 lin3_64_1_69: p_r1_g69_h5_t64 - x_r1_g69 - x_r1_g5 >= -1
 lin1_64_1_98: p_r1_g98_h34_t64 - x_r1_g98 <= 0
 lin2_64_1_98: p_r1_g98_h34_t64 - x_r1_g34 <= 0
 lin3_64_1_98: p_r1_g98_h34_t64 - x_r1_g98 - x_r1_g34 >= -1
 lin1_64_1_104: p_r1_g104_h40_t64 - x_r1_g104 <= 0
 lin2_64_1_104: p_r1_g104_h40_t64 - x_r1_g40 <= 0
 lin3_64_1_104: p_r1_g104_h40_t64 - x_r1_g104 - x_r1_g40 >= -1
 lin1_64_1_124: p_r1_g124_h60_t64 - x_r1_g124 <= 0
 lin2_64_1_124: p_r1_g124_h60_t64 - x_r1_g60 <= 0
 lin3_64_1_124: p_r1_g124_h60_t64 - x_r1_g124 - x_r1_g60 >= -1
 lin1_64_1_138: p_r1_g138_h74_t64 - x_r1_g138 <= 0
 lin2_64_1_138: p_r1_g138_h74_t64 - x_r1_g74 <= 0
 lin3_64_1_138: p_r1_g138_h74_t64 - x_r1_g138 - x_r1_g74 >= -1
 lin1_64_1_141: p_r1_g141_h77_t64 - x_r1_g141 <= 0
 lin2_64_1_141: p_r1_g141_h77_t64 - x_r1_g77 <= 0
 lin3_64_1_141: p_r1_g141_h77_t64 - x_r1_g141 - x_r1_g77 >= -1
 lin1_64_1_148: p_r1_g148_h84_t64 - x_r1_g148 <= 0
 lin2_64_1_148: p_r1_g148_h84_t64 - x_r1_g84 <= 0
 lin3_64_1_148: p_r1_g148_h84_t64 - x_r1_g148 - x_r1_g84 >= -1
 lin1_64_1_162: p_r1_g162_h98_t64 - x_r1_g162 <= 0
 lin2_64_1_162: p_r1_g162_h98_t64 - x_r1_g98 <= 0
 lin3_64_1_162: p_r1_g162_h98_t64 - x_r1_g162 - x_r1_g98 >= -1
 lin1_64_1_163: p_r1_g163_h99_t64 - x_r1_g163 <= 0
 lin2_64_1_163: p_r1_g163_h99_t64 - x_r1_g99 <= 0
 lin3_64_1_163: p_r1_g163_h99_t64 - x_r1_g163 - x_r1_g99 >= -1
 lin1_64_2_15: p_r2_g15_h118_t64 - x_r2_g15 <= 0
 lin2_64_2_15: p_r2_g15_h118_t64 - x_r2_g118 <= 0
 lin3_64_2_15: p_r2_g15_h118_t64 - x_r2_g15 - x_r2_g118 >= -1
 lin1_64_2_21: p_r2_g21_h124_t64 - x_r2_g21 <= 0
 lin2_64_2_21: p_r2_g21_h124_t64 - x_r2_g124 <= 0
 lin3_64_2_21: p_r2_g21_h124_t64 - x_r2_g21 - x_r2_g124 >= -1
 lin1_64_2_27: p_r2_g27_h130_t64 - x_r2_g27 <= 0
 lin2_64_2_27: p_r2_g27_h130_t64 - x_r2_g130 <= 0
 lin3_64_2_27: p_r2_g27_h130_t64 - x_r2_g27 - x_r2_g130 >= -1
 lin1_64_2_30: p_r2_g30_h133_t64 - x_r2_g30 <= 0
 lin2_64_2_30: p_r2_g30_h133_t64 - x_r2_g133 <= 0
 lin3_64_2_30: p_r2_g30_h133_t64 - x_r2_g30 - x_r2_g133 >= -1
 lin1_64_2_32: p_r2_g32_h135_t64 - x_r2_g32 <= 0
 lin2_64_2_32: p_r2_g32_h135_t64 - x_r2_g135 <= 0
 lin3_64_2_32: p_r2_g32_h135_t64 - x_r2_g32 - x_r2_g135 >= -1
 lin1_64_2_58: p_r2_g58_h161_t64 - x_r2_g58 <= 0
 lin2_64_2_58: p_r2_g58_h161_t64 - x_r2_g161 <= 0
 lin3_64_2_58: p_r2_g58_h161_t64 - x_r2_g58 - x_r2_g161 >= -1
 lin1_64_2_85: p_r2_g85_h21_t64 - x_r2_g85 <= 0
 lin2_64_2_85: p_r2_g85_h21_t64 - x_r2_g21 <= 0
 lin3_64_2_85: p_r2_g85_h21_t64 - x_r2_g85 - x_r2_g21 >= -1
 lin1_64_2_91: p_r2_g91_h27_t64 - x_r2_g91 <= 0
 lin2_64_2_91: p_r2_g91_h27_t64 - x_r2_g27 <= 0
 lin3_64_2_91: p_r2_g91_h27_t64 - x_r2_g91 - x_r2_g27 >= -1
 lin1_64_2_104: p_r2_g104_h40_t64 - x_r2_g104 <= 0
 lin2_64_2_104: p_r2_g104_h40_t64 - x_r2_g40 <= 0
 lin3_64_2_104: p_r2_g104_h40_t64 - x_r2_g104 - x_r2_g40 >= -1
 lin1_64_2_147: p_r2_g147_h83_t64 - x_r2_g147 <= 0
 lin2_64_2_147: p_r2_g147_h83_t64 - x_r2_g83 <= 0
 lin3_64_2_147: p_r2_g147_h83_t64 - x_r2_g147 - x_r2_g83 >= -1
 lin1_64_2_157: p_r2_g157_h93_t64 - x_r2_g157 <= 0
 lin2_64_2_157: p_r2_g157_h93_t64 - x_r2_g93 <= 0
 lin3_64_2_157: p_r2_g157_h93_t64 - x_r2_g157 - x_r2_g93 >= -1
 lin1_64_3_21: p_r3_g21_h124_t64 - x_r3_g21 <= 0
 lin2_64_3_21: p_r3_g21_h124_t64 - x_r3_g124 <= 0
 lin3_64_3_21: p_r3_g21_h124_t64 - x_r3_g21 - x_r3_g124 >= -1
 lin1_64_3_22: p_r3_g22_h125_t64 - x_r3_g22 <= 0
 lin2_64_3_22: p_r3_g22_h125_t64 - x_r3_g125 <= 0
 lin3_64_3_22: p_r3_g22_h125_t64 - x_r3_g22 - x_r3_g125 >= -1
 lin1_64_3_34: p_r3_g34_h137_t64 - x_r3_g34 <= 0
 lin2_64_3_34: p_r3_g34_h137_t64 - x_r3_g137 <= 0
 lin3_64_3_34: p_r3_g34_h137_t64 - x_r3_g34 - x_r3_g137 >= -1
 lin1_64_3_51: p_r3_g51_h154_t64 - x_r3_g51 <= 0
 lin2_64_3_51: p_r3_g51_h154_t64 - x_r3_g154 <= 0
 lin3_64_3_51: p_r3_g51_h154_t64 - x_r3_g51 - x_r3_g154 >= -1
 lin1_64_3_53: p_r3_g53_h156_t64 - x_r3_g53 <= 0
 lin2_64_3_53: p_r3_g53_h156_t64 - x_r3_g156 <= 0
 lin3_64_3_53: p_r3_g53_h156_t64 - x_r3_g53 - x_r3_g156 >= -1
 lin1_64_3_69: p_r3_g69_h5_t64 - x_r3_g69 <= 0
 lin2_64_3_69: p_r3_g69_h5_t64 - x_r3_g5 <= 0
 lin3_64_3_69: p_r3_g69_h5_t64 - x_r3_g69 - x_r3_g5 >= -1
 lin1_64_3_87: p_r3_g87_h23_t64 - x_r3_g87 <= 0
 lin2_64_3_87: p_r3_g87_h23_t64 - x_r3_g23 <= 0
 lin3_64_3_87: p_r3_g87_h23_t64 - x_r3_g87 - x_r3_g23 >= -1
 lin1_64_3_89: p_r3_g89_h25_t64 - x_r3_g89 <= 0
 lin2_64_3_89: p_r3_g89_h25_t64 - x_r3_g25 <= 0
 lin3_64_3_89: p_r3_g89_h25_t64 - x_r3_g89 - x_r3_g25 >= -1
 lin1_64_3_90: p_r3_g90_h26_t64 - x_r3_g90 <= 0
 lin2_64_3_90: p_r3_g90_h26_t64 - x_r3_g26 <= 0
 lin3_64_3_90: p_r3_g90_h26_t64 - x_r3_g90 - x_r3_g26 >= -1
 lin1_64_3_117: p_r3_g117_h53_t64 - x_r3_g117 <= 0
 lin2_64_3_117: p_r3_g117_h53_t64 - x_r3_g53 <= 0
 lin3_64_3_117: p_r3_g117_h53_t64 - x_r3_g117 - x_r3_g53 >= -1
 lin1_64_3_124: p_r3_g124_h60_t64 - x_r3_g124 <= 0
 lin2_64_3_124: p_r3_g124_h60_t64 - x_r3_g60 <= 0
 lin3_64_3_124: p_r3_g124_h60_t64 - x_r3_g124 - x_r3_g60 >= -1
 lin1_64_3_137: p_r3_g137_h73_t64 - x_r3_g137 <= 0
 lin2_64_3_137: p_r3_g137_h73_t64 - x_r3_g73 <= 0
 lin3_64_3_137: p_r3_g137_h73_t64 - x_r3_g137 - x_r3_g73 >= -1
 lin1_64_3_151: p_r3_g151_h87_t64 - x_r3_g151 <= 0
 lin2_64_3_151: p_r3_g151_h87_t64 - x_r3_g87 <= 0
 lin3_64_3_151: p_r3_g151_h87_t64 - x_r3_g151 - x_r3_g87 >= -1
 lin1_64_3_153: p_r3_g153_h89_t64 - x_r3_g153 <= 0
 lin2_64_3_153: p_r3_g153_h89_t64 - x_r3_g89 <= 0
 lin3_64_3_153: p_r3_g153_h89_t64 - x_r3_g153 - x_r3_g89 >= -1
 lin1_64_3_154: p_r3_g154_h90_t64 - x_r3_g154 <= 0
 lin2_64_3_154: p_r3_g154_h90_t64 - x_r3_g90 <= 0
 lin3_64_3_154: p_r3_g154_h90_t64 - x_r3_g154 - x_r3_g90 >= -1
 defect_64: 1 d_64 - 1 x_r0_g4 - 1 x_r0_g15 - 1 x_r0_g19 - 2 x_r0_g24 - 2 x_r0_g34 - 1 x_r0_g47 - 1 x_r0_g56 - 1 x_r0_g57 - 1 x_r0_g85 - 1 x_r0_g89 - 1 x_r0_g91 - 1 x_r0_g93 - 2 x_r0_g106 - 1 x_r0_g112 - 1 x_r0_g119 - 1 x_r0_g126 - 1 x_r0_g143 - 1 x_r0_g146 - 1 x_r1_g1 - 1 x_r1_g5 - 1 x_r1_g6 - 1 x_r1_g23 - 1 x_r1_g29 - 1 x_r1_g36 - 2 x_r1_g43 - 1 x_r1_g48 - 1 x_r1_g50 - 1 x_r1_g56 - 1 x_r1_g61 - 1 x_r1_g64 - 1 x_r1_g68 - 1 x_r1_g74 - 1 x_r1_g76 - 2 x_r1_g82 - 1 x_r1_g84 - 2 x_r1_g129 - 1 x_r1_g141 - 1 x_r1_g145 - 1 x_r1_g155 - 1 x_r2_g13 - 1 x_r2_g30 - 2 x_r2_g34 - 1 x_r2_g45 - 1 x_r2_g51 - 1 x_r2_g52 - 1 x_r2_g58 - 1 x_r2_g73 - 1 x_r2_g101 - 2 x_r2_g103 - 1 x_r2_g104 - 1 x_r2_g105 - 1 x_r2_g112 - 1 x_r2_g124 - 1 x_r2_g139 - 1 x_r2_g162 - 1 x_r3_g5 - 1 x_r3_g17 - 1 x_r3_g22 - 1 x_r3_g24 - 1 x_r3_g25 - 1 x_r3_g26 - 1 x_r3_g31 - 1 x_r3_g34 - 1 x_r3_g39 - 2 x_r3_g42 - 1 x_r3_g60 - 1 x_r3_g66 - 1 x_r3_g68 - 1 x_r3_g73 - 1 x_r3_g83 - 2 x_r3_g96 - 1 x_r3_g100 - 1 x_r3_g125 - 1 x_r3_g149 - 2 x_r3_g158 - 1 p_r0_g5_h108_t64 - 1 p_r0_g39_h142_t64 - 1 p_r0_g47_h150_t64 - 1 p_r0_g56_h159_t64 - 1 p_r0_g65_h1_t64 - 1 p_r0_g69_h5_t64 - 1 p_r0_g79_h15_t64 - 1 p_r0_g103_h39_t64 - 1 p_r0_g136_h72_t64 - 1 p_r0_g143_h79_t64 - 1 p_r1_g1_h104_t64 - 1 p_r1_g6_h109_t64 - 1 p_r1_g21_h124_t64 - 1 p_r1_g42_h145_t64 - 1 p_r1_g60_h163_t64 - 1 p_r1_g69_h5_t64 - 1 p_r1_g98_h34_t64 - 1 p_r1_g104_h40_t64 - 1 p_r1_g124_h60_t64 - 1 p_r1_g138_h74_t64 - 1 p_r1_g141_h77_t64 - 1 p_r1_g148_h84_t64 - 1 p_r1_g162_h98_t64 - 1 p_r1_g163_h99_t64 - 1 p_r2_g15_h118_t64 - 1 p_r2_g21_h124_t64 - 1 p_r2_g27_h130_t64 - 1 p_r2_g30_h133_t64 - 1 p_r2_g32_h135_t64 - 1 p_r2_g58_h161_t64 - 1 p_r2_g85_h21_t64 - 1 p_r2_g91_h27_t64 - 1 p_r2_g104_h40_t64 - 1 p_r2_g147_h83_t64 - 1 p_r2_g157_h93_t64 - 1 p_r3_g21_h124_t64 - 1 p_r3_g22_h125_t64 - 1 p_r3_g34_h137_t64 - 1 p_r3_g51_h154_t64 - 1 p_r3_g53_h156_t64 - 1 p_r3_g69_h5_t64 - 1 p_r3_g87_h23_t64 - 1 p_r3_g89_h25_t64 - 1 p_r3_g90_h26_t64 - 1 p_r3_g117_h53_t64 - 1 p_r3_g124_h60_t64 - 1 p_r3_g137_h73_t64 - 1 p_r3_g151_h87_t64 - 1 p_r3_g153_h89_t64 - 1 p_r3_g154_h90_t64 = -45
 abs_pos_64: d_64 - u_64 <= 0
 abs_neg_64: - d_64 - u_64 <= 0
 max_def_64: u_64 - M <= 0
 cap_64: u_64 <= 2
 lin1_67_0_12: p_r0_g12_h112_t67 - x_r0_g12 <= 0
 lin2_67_0_12: p_r0_g12_h112_t67 - x_r0_g112 <= 0
 lin3_67_0_12: p_r0_g12_h112_t67 - x_r0_g12 - x_r0_g112 >= -1
 lin1_67_0_19: p_r0_g19_h119_t67 - x_r0_g19 <= 0
 lin2_67_0_19: p_r0_g19_h119_t67 - x_r0_g119 <= 0
 lin3_67_0_19: p_r0_g19_h119_t67 - x_r0_g19 - x_r0_g119 >= -1
 lin1_67_0_24: p_r0_g24_h124_t67 - x_r0_g24 <= 0
 lin2_67_0_24: p_r0_g24_h124_t67 - x_r0_g124 <= 0
 lin3_67_0_24: p_r0_g24_h124_t67 - x_r0_g24 - x_r0_g124 >= -1
 lin1_67_0_72: p_r0_g72_h5_t67 - x_r0_g72 <= 0
 lin2_67_0_72: p_r0_g72_h5_t67 - x_r0_g5 <= 0
 lin3_67_0_72: p_r0_g72_h5_t67 - x_r0_g72 - x_r0_g5 >= -1
 lin1_67_0_74: p_r0_g74_h7_t67 - x_r0_g74 <= 0
 lin2_67_0_74: p_r0_g74_h7_t67 - x_r0_g7 <= 0
 lin3_67_0_74: p_r0_g74_h7_t67 - x_r0_g74 - x_r0_g7 >= -1
 lin1_67_0_79: p_r0_g79_h12_t67 - x_r0_g79 <= 0
 lin2_67_0_79: p_r0_g79_h12_t67 - x_r0_g12 <= 0
 lin3_67_0_79: p_r0_g79_h12_t67 - x_r0_g79 - x_r0_g12 >= -1
 lin1_67_0_91: p_r0_g91_h24_t67 - x_r0_g91 <= 0
 lin2_67_0_91: p_r0_g91_h24_t67 - x_r0_g24 <= 0
 lin3_67_0_91: p_r0_g91_h24_t67 - x_r0_g91 - x_r0_g24 >= -1
 lin1_67_0_106: p_r0_g106_h39_t67 - x_r0_g106 <= 0
 lin2_67_0_106: p_r0_g106_h39_t67 - x_r0_g39 <= 0
 lin3_67_0_106: p_r0_g106_h39_t67 - x_r0_g106 - x_r0_g39 >= -1
 lin1_67_0_124: p_r0_g124_h57_t67 - x_r0_g124 <= 0
 lin2_67_0_124: p_r0_g124_h57_t67 - x_r0_g57 <= 0
 lin3_67_0_124: p_r0_g124_h57_t67 - x_r0_g124 - x_r0_g57 >= -1
 lin1_67_0_136: p_r0_g136_h69_t67 - x_r0_g136 <= 0
 lin2_67_0_136: p_r0_g136_h69_t67 - x_r0_g69 <= 0
 lin3_67_0_136: p_r0_g136_h69_t67 - x_r0_g136 - x_r0_g69 >= -1
 lin1_67_0_146: p_r0_g146_h79_t67 - x_r0_g146 <= 0
 lin2_67_0_146: p_r0_g146_h79_t67 - x_r0_g79 <= 0
 lin3_67_0_146: p_r0_g146_h79_t67 - x_r0_g146 - x_r0_g79 >= -1
 lin1_67_1_29: p_r1_g29_h129_t67 - x_r1_g29 <= 0
 lin2_67_1_29: p_r1_g29_h129_t67 - x_r1_g129 <= 0
 lin3_67_1_29: p_r1_g29_h129_t67 - x_r1_g29 - x_r1_g129 >= -1
 lin1_67_1_48: p_r1_g48_h148_t67 - x_r1_g48 <= 0
 lin2_67_1_48: p_r1_g48_h148_t67 - x_r1_g148 <= 0
 lin3_67_1_48: p_r1_g48_h148_t67 - x_r1_g48 - x_r1_g148 >= -1
 lin1_67_1_61: p_r1_g61_h161_t67 - x_r1_g61 <= 0
 lin2_67_1_61: p_r1_g61_h161_t67 - x_r1_g161 <= 0
 lin3_67_1_61: p_r1_g61_h161_t67 - x_r1_g61 - x_r1_g161 >= -1
 lin1_67_1_68: p_r1_g68_h1_t67 - x_r1_g68 <= 0
 lin2_67_1_68: p_r1_g68_h1_t67 - x_r1_g1 <= 0
 lin3_67_1_68: p_r1_g68_h1_t67 - x_r1_g68 - x_r1_g1 >= -1
 lin1_67_1_88: p_r1_g88_h21_t67 - x_r1_g88 <= 0
 lin2_67_1_88: p_r1_g88_h21_t67 - x_r1_g21 <= 0
 lin3_67_1_88: p_r1_g88_h21_t67 - x_r1_g88 - x_r1_g21 >= -1
 lin1_67_1_109: p_r1_g109_h42_t67 - x_r1_g109 <= 0
 lin2_67_1_109: p_r1_g109_h42_t67 - x_r1_g42 <= 0
 lin3_67_1_109: p_r1_g109_h42_t67 - x_r1_g109 - x_r1_g42 >= -1
 lin1_67_1_127: p_r1_g127_h60_t67 - x_r1_g127 <= 0
 lin2_67_1_127: p_r1_g127_h60_t67 - x_r1_g60 <= 0
 lin3_67_1_127: p_r1_g127_h60_t67 - x_r1_g127 - x_r1_g60 >= -1
 lin1_67_1_141: p_r1_g141_h74_t67 - x_r1_g141 <= 0
 lin2_67_1_141: p_r1_g141_h74_t67 - x_r1_g74 <= 0
 lin3_67_1_141: p_r1_g141_h74_t67 - x_r1_g141 - x_r1_g74 >= -1
 lin1_67_1_155: p_r1_g155_h88_t67 - x_r1_g155 <= 0
 lin2_67_1_155: p_r1_g155_h88_t67 - x_r1_g88 <= 0
 lin3_67_1_155: p_r1_g155_h88_t67 - x_r1_g155 - x_r1_g88 >= -1
 lin1_67_2_30: p_r2_g30_h130_t67 - x_r2_g30 <= 0
 lin2_67_2_30: p_r2_g30_h130_t67 - x_r2_g130 <= 0
 lin3_67_2_30: p_r2_g30_h130_t67 - x_r2_g30 - x_r2_g130 >= -1
 lin1_67_2_35: p_r2_g35_h135_t67 - x_r2_g35 <= 0
 lin2_67_2_35: p_r2_g35_h135_t67 - x_r2_g135 <= 0
 lin3_67_2_35: p_r2_g35_h135_t67 - x_r2_g35 - x_r2_g135 >= -1
 lin1_67_2_61: p_r2_g61_h161_t67 - x_r2_g61 <= 0
 lin2_67_2_61: p_r2_g61_h161_t67 - x_r2_g161 <= 0
 lin3_67_2_61: p_r2_g61_h161_t67 - x_r2_g61 - x_r2_g161 >= -1
 lin1_67_2_101: p_r2_g101_h34_t67 - x_r2_g101 <= 0
 lin2_67_2_101: p_r2_g101_h34_t67 - x_r2_g34 <= 0
 lin3_67_2_101: p_r2_g101_h34_t67 - x_r2_g101 - x_r2_g34 >= -1
 lin1_67_2_112: p_r2_g112_h45_t67 - x_r2_g112 <= 0
 lin2_67_2_112: p_r2_g112_h45_t67 - x_r2_g45 <= 0
 lin3_67_2_112: p_r2_g112_h45_t67 - x_r2_g112 - x_r2_g45 >= -1
 lin1_67_2_118: p_r2_g118_h51_t67 - x_r2_g118 <= 0
 lin2_67_2_118: p_r2_g118_h51_t67 - x_r2_g51 <= 0
 lin3_67_2_118: p_r2_g118_h51_t67 - x_r2_g118 - x_r2_g51 >= -1
 lin1_67_2_119: p_r2_g119_h52_t67 - x_r2_g119 <= 0
 lin2_67_2_119: p_r2_g119_h52_t67 - x_r2_g52 <= 0
 lin3_67_2_119: p_r2_g119_h52_t67 - x_r2_g119 - x_r2_g52 >= -1
 lin1_67_2_141: p_r2_g141_h74_t67 - x_r2_g141 <= 0
 lin2_67_2_141: p_r2_g141_h74_t67 - x_r2_g74 <= 0
 lin3_67_2_141: p_r2_g141_h74_t67 - x_r2_g141 - x_r2_g74 >= -1
 lin1_67_3_17: p_r3_g17_h117_t67 - x_r3_g17 <= 0
 lin2_67_3_17: p_r3_g17_h117_t67 - x_r3_g117 <= 0
 lin3_67_3_17: p_r3_g17_h117_t67 - x_r3_g17 - x_r3_g117 >= -1
 lin1_67_3_24: p_r3_g24_h124_t67 - x_r3_g24 <= 0
 lin2_67_3_24: p_r3_g24_h124_t67 - x_r3_g124 <= 0
 lin3_67_3_24: p_r3_g24_h124_t67 - x_r3_g24 - x_r3_g124 >= -1
 lin1_67_3_25: p_r3_g25_h125_t67 - x_r3_g25 <= 0
 lin2_67_3_25: p_r3_g25_h125_t67 - x_r3_g125 <= 0
 lin3_67_3_25: p_r3_g25_h125_t67 - x_r3_g25 - x_r3_g125 >= -1
 lin1_67_3_51: p_r3_g51_h151_t67 - x_r3_g51 <= 0
 lin2_67_3_51: p_r3_g51_h151_t67 - x_r3_g151 <= 0
 lin3_67_3_51: p_r3_g51_h151_t67 - x_r3_g51 - x_r3_g151 >= -1
 lin1_67_3_53: p_r3_g53_h153_t67 - x_r3_g53 <= 0
 lin2_67_3_53: p_r3_g53_h153_t67 - x_r3_g153 <= 0
 lin3_67_3_53: p_r3_g53_h153_t67 - x_r3_g53 - x_r3_g153 >= -1
 lin1_67_3_66: p_r3_g66_h166_t67 - x_r3_g66 <= 0
 lin2_67_3_66: p_r3_g66_h166_t67 - x_r3_g166 <= 0
 lin3_67_3_66: p_r3_g66_h166_t67 - x_r3_g66 - x_r3_g166 >= -1
 lin1_67_3_89: p_r3_g89_h22_t67 - x_r3_g89 <= 0
 lin2_67_3_89: p_r3_g89_h22_t67 - x_r3_g22 <= 0
 lin3_67_3_89: p_r3_g89_h22_t67 - x_r3_g89 - x_r3_g22 >= -1
 lin1_67_3_90: p_r3_g90_h23_t67 - x_r3_g90 <= 0
 lin2_67_3_90: p_r3_g90_h23_t67 - x_r3_g23 <= 0
 lin3_67_3_90: p_r3_g90_h23_t67 - x_r3_g90 - x_r3_g23 >= -1
 lin1_67_3_118: p_r3_g118_h51_t67 - x_r3_g118 <= 0
 lin2_67_3_118: p_r3_g118_h51_t67 - x_r3_g51 <= 0
 lin3_67_3_118: p_r3_g118_h51_t67 - x_r3_g118 - x_r3_g51 >= -1
 lin1_67_3_154: p_r3_g154_h87_t67 - x_r3_g154 <= 0
 lin2_67_3_154: p_r3_g154_h87_t67 - x_r3_g87 <= 0
 lin3_67_3_154: p_r3_g154_h87_t67 - x_r3_g154 - x_r3_g87 >= -1
 lin1_67_3_156: p_r3_g156_h89_t67 - x_r3_g156 <= 0
 lin2_67_3_156: p_r3_g156_h89_t67 - x_r3_g89 <= 0
 lin3_67_3_156: p_r3_g156_h89_t67 - x_r3_g156 - x_r3_g89 >= -1
 defect_67: 1 d_67 - 2 x_r0_g1 - 1 x_r0_g11 - 1 x_r0_g34 - 1 x_r0_g39 - 1 x_r0_g53 - 1 x_r0_g56 - 1 x_r0_g57 - 2 x_r0_g65 - 1 x_r0_g72 - 1 x_r0_g85 - 1 x_r0_g91 - 1 x_r0_g93 - 2 x_r0_g103 - 1 x_r0_g106 - 1 x_r0_g112 - 1 x_r0_g119 - 1 x_r0_g126 - 1 x_r0_g135 - 1 x_r0_g136 - 1 x_r0_g142 - 1 x_r0_g143 - 1 x_r0_g146 - 1 x_r0_g159 - 1 x_r0_g163 - 2 x_r1_g23 - 1 x_r1_g29 - 1 x_r1_g36 - 2 x_r1_g40 - 1 x_r1_g48 - 2 x_r1_g56 - 1 x_r1_g60 - 1 x_r1_g61 - 1 x_r1_g64 - 1 x_r1_g77 - 1 x_r1_g82 - 1 x_r1_g98 - 2 x_r1_g99 - 1 x_r1_g104 - 1 x_r1_g124 - 1 x_r1_g127 - 1 x_r1_g129 - 1 x_r1_g138 - 1 x_r1_g145 - 1 x_r1_g148 - 2 x_r1_g162 - 1 x_r1_g163 - 2 x_r2_g13 - 2 x_r2_g15 - 1 x_r2_g21 - 2 x_r2_g27 - 1 x_r2_g32 - 1 x_r2_g34 - 1 x_r2_g35 - 1 x_r2_g40 - 1 x_r2_g51 - 1 x_r2_g52 - 2 x_r2_g53 - 1 x_r2_g58 - 1 x_r2_g61 - 1 x_r2_g73 - 1 x_r2_g74 - 1 x_r2_g83 - 2 x_r2_g85 - 1 x_r2_g91 - 2 x_r2_g93 - 1 x_r2_g101 - 1 x_r2_g104 - 1 x_r2_g106 - 1 x_r2_g118 - 1 x_r2_g130 - 1 x_r2_g133 - 1 x_r2_g135 - 1 x_r2_g139 - 1 x_r2_g141 - 1 x_r2_g147 - 1 x_r2_g157 - 1 x_r2_g161 - 1 x_r3_g22 - 1 x_r3_g23 - 1 x_r3_g31 - 1 x_r3_g34 - 1 x_r3_g38 - 2 x_r3_g39 - 1 x_r3_g42 - 2 x_r3_g60 - 2 x_r3_g62 - 1 x_r3_g68 - 1 x_r3_g69 - 2 x_r3_g73 - 1 x_r3_g87 - 1 x_r3_g96 - 1 x_r3_g118 - 1 x_r3_g137 - 1 x_r3_g149 - 1 x_r3_g153 - 2 x_r3_g161 - 1 x_r3_g166 - 1 p_r0_g12_h112_t67 - 1 p_r0_g19_h119_t67 - 1 p_r0_g24_h124_t67 - 1 p_r0_g72_h5_t67 - 1 p_r0_g74_h7_t67 - 1 p_r0_g79_h12_t67 - 1 p_r0_g91_h24_t67 - 1 p_r0_g106_h39_t67 - 1 p_r0_g124_h57_t67 - 1 p_r0_g136_h69_t67 - 1 p_r0_g146_h79_t67 - 1 p_r1_g29_h129_t67 - 1 p_r1_g48_h148_t67 - 1 p_r1_g61_h161_t67 - 1 p_r1_g68_h1_t67 - 1 p_r1_g88_h21_t67 - 1 p_r1_g109_h42_t67 - 1 p_r1_g127_h60_t67 - 1 p_r1_g141_h74_t67 - 1 p_r1_g155_h88_t67 - 1 p_r2_g30_h130_t67 - 1 p_r2_g35_h135_t67 - 1 p_r2_g61_h161_t67 - 1 p_r2_g101_h34_t67 - 1 p_r2_g112_h45_t67 - 1 p_r2_g118_h51_t67 - 1 p_r2_g119_h52_t67 - 1 p_r2_g141_h74_t67 - 1 p_r3_g17_h117_t67 - 1 p_r3_g24_h124_t67 - 1 p_r3_g25_h125_t67 - 1 p_r3_g51_h151_t67 - 1 p_r3_g53_h153_t67 - 1 p_r3_g66_h166_t67 - 1 p_r3_g89_h22_t67 - 1 p_r3_g90_h23_t67 - 1 p_r3_g118_h51_t67 - 1 p_r3_g154_h87_t67 - 1 p_r3_g156_h89_t67 = -69
 abs_pos_67: d_67 - u_67 <= 0
 abs_neg_67: - d_67 - u_67 <= 0
 max_def_67: u_67 - M <= 0
 cap_67: u_67 <= 0
 lin1_70_0_11: p_r0_g11_h108_t70 - x_r0_g11 <= 0
 lin2_70_0_11: p_r0_g11_h108_t70 - x_r0_g108 <= 0
 lin3_70_0_11: p_r0_g11_h108_t70 - x_r0_g11 - x_r0_g108 >= -1
 lin1_70_0_15: p_r0_g15_h112_t70 - x_r0_g15 <= 0
 lin2_70_0_15: p_r0_g15_h112_t70 - x_r0_g112 <= 0
 lin3_70_0_15: p_r0_g15_h112_t70 - x_r0_g15 - x_r0_g112 >= -1
 lin1_70_0_39: p_r0_g39_h136_t70 - x_r0_g39 <= 0
 lin2_70_0_39: p_r0_g39_h136_t70 - x_r0_g136 <= 0
 lin3_70_0_39: p_r0_g39_h136_t70 - x_r0_g39 - x_r0_g136 >= -1
 lin1_70_0_53: p_r0_g53_h150_t70 - x_r0_g53 <= 0
 lin2_70_0_53: p_r0_g53_h150_t70 - x_r0_g150 <= 0
 lin3_70_0_53: p_r0_g53_h150_t70 - x_r0_g53 - x_r0_g150 >= -1
 lin1_70_0_66: p_r0_g66_h163_t70 - x_r0_g66 <= 0
 lin2_70_0_66: p_r0_g66_h163_t70 - x_r0_g163 <= 0
 lin3_70_0_66: p_r0_g66_h163_t70 - x_r0_g66 - x_r0_g163 >= -1
 lin1_70_0_74: p_r0_g74_h4_t70 - x_r0_g74 <= 0
 lin2_70_0_74: p_r0_g74_h4_t70 - x_r0_g4 <= 0
 lin3_70_0_74: p_r0_g74_h4_t70 - x_r0_g74 - x_r0_g4 >= -1
 lin1_70_0_85: p_r0_g85_h15_t70 - x_r0_g85 <= 0
 lin2_70_0_85: p_r0_g85_h15_t70 - x_r0_g15 <= 0
 lin3_70_0_85: p_r0_g85_h15_t70 - x_r0_g85 - x_r0_g15 >= -1
 lin1_70_0_89: p_r0_g89_h19_t70 - x_r0_g89 <= 0
 lin2_70_0_89: p_r0_g89_h19_t70 - x_r0_g19 <= 0
 lin3_70_0_89: p_r0_g89_h19_t70 - x_r0_g89 - x_r0_g19 >= -1
 lin1_70_0_126: p_r0_g126_h56_t70 - x_r0_g126 <= 0
 lin2_70_0_126: p_r0_g126_h56_t70 - x_r0_g56 <= 0
 lin3_70_0_126: p_r0_g126_h56_t70 - x_r0_g126 - x_r0_g56 >= -1
 lin1_70_0_135: p_r0_g135_h65_t70 - x_r0_g135 <= 0
 lin2_70_0_135: p_r0_g135_h65_t70 - x_r0_g65 <= 0
 lin3_70_0_135: p_r0_g135_h65_t70 - x_r0_g135 - x_r0_g65 >= -1
 lin1_70_0_136: p_r0_g136_h66_t70 - x_r0_g136 <= 0
 lin2_70_0_136: p_r0_g136_h66_t70 - x_r0_g66 <= 0
 lin3_70_0_136: p_r0_g136_h66_t70 - x_r0_g136 - x_r0_g66 >= -1
 lin1_70_0_142: p_r0_g142_h72_t70 - x_r0_g142 <= 0
 lin2_70_0_142: p_r0_g142_h72_t70 - x_r0_g72 <= 0
 lin3_70_0_142: p_r0_g142_h72_t70 - x_r0_g142 - x_r0_g72 >= -1
 lin1_70_0_159: p_r0_g159_h89_t70 - x_r0_g159 <= 0
 lin2_70_0_159: p_r0_g159_h89_t70 - x_r0_g89 <= 0
 lin3_70_0_159: p_r0_g159_h89_t70 - x_r0_g159 - x_r0_g89 >= -1
 lin1_70_0_163: p_r0_g163_h93_t70 - x_r0_g163 <= 0
 lin2_70_0_163: p_r0_g163_h93_t70 - x_r0_g93 <= 0
 lin3_70_0_163: p_r0_g163_h93_t70 - x_r0_g163 - x_r0_g93 >= -1
 lin1_70_1_1: p_r1_g1_h98_t70 - x_r1_g1 <= 0
 lin2_70_1_1: p_r1_g1_h98_t70 - x_r1_g98 <= 0
 lin3_70_1_1: p_r1_g1_h98_t70 - x_r1_g1 - x_r1_g98 >= -1
 lin1_70_1_48: p_r1_g48_h145_t70 - x_r1_g48 <= 0
 lin2_70_1_48: p_r1_g48_h145_t70 - x_r1_g145 <= 0
 lin3_70_1_48: p_r1_g48_h145_t70 - x_r1_g48 - x_r1_g145 >= -1
 lin1_70_1_64: p_r1_g64_h161_t70 - x_r1_g64 <= 0
 lin2_70_1_64: p_r1_g64_h161_t70 - x_r1_g161 <= 0
 lin3_70_1_64: p_r1_g64_h161_t70 - x_r1_g64 - x_r1_g161 >= -1
 lin1_70_1_76: p_r1_g76_h6_t70 - x_r1_g76 <= 0
 lin2_70_1_76: p_r1_g76_h6_t70 - x_r1_g6 <= 0
 lin3_70_1_76: p_r1_g76_h6_t70 - x_r1_g76 - x_r1_g6 >= -1
 lin1_70_1_99: p_r1_g99_h29_t70 - x_r1_g99 <= 0
 lin2_70_1_99: p_r1_g99_h29_t70 - x_r1_g29 <= 0
 lin3_70_1_99: p_r1_g99_h29_t70 - x_r1_g99 - x_r1_g29 >= -1
 lin1_70_1_104: p_r1_g104_h34_t70 - x_r1_g104 <= 0
 lin2_70_1_104: p_r1_g104_h34_t70 - x_r1_g34 <= 0
 lin3_70_1_104: p_r1_g104_h34_t70 - x_r1_g104 - x_r1_g34 >= -1
 lin1_70_1_138: p_r1_g138_h68_t70 - x_r1_g138 <= 0
 lin2_70_1_138: p_r1_g138_h68_t70 - x_r1_g68 <= 0
 lin3_70_1_138: p_r1_g138_h68_t70 - x_r1_g138 - x_r1_g68 >= -1
 lin1_70_2_15: p_r2_g15_h112_t70 - x_r2_g15 <= 0
 lin2_70_2_15: p_r2_g15_h112_t70 - x_r2_g112 <= 0
 lin3_70_2_15: p_r2_g15_h112_t70 - x_r2_g15 - x_r2_g112 >= -1
 lin1_70_2_21: p_r2_g21_h118_t70 - x_r2_g21 <= 0
 lin2_70_2_21: p_r2_g21_h118_t70 - x_r2_g118 <= 0
 lin3_70_2_21: p_r2_g21_h118_t70 - x_r2_g21 - x_r2_g118 >= -1
 lin1_70_2_27: p_r2_g27_h124_t70 - x_r2_g27 <= 0
 lin2_70_2_27: p_r2_g27_h124_t70 - x_r2_g124 <= 0
 lin3_70_2_27: p_r2_g27_h124_t70 - x_r2_g27 - x_r2_g124 >= -1
 lin1_70_2_83: p_r2_g83_h13_t70 - x_r2_g83 <= 0
 lin2_70_2_83: p_r2_g83_h13_t70 - x_r2_g13 <= 0
 lin3_70_2_83: p_r2_g83_h13_t70 - x_r2_g83 - x_r2_g13 >= -1
 lin1_70_2_85: p_r2_g85_h15_t70 - x_r2_g85 <= 0
 lin2_70_2_85: p_r2_g85_h15_t70 - x_r2_g15 <= 0
 lin3_70_2_85: p_r2_g85_h15_t70 - x_r2_g85 - x_r2_g15 >= -1
 lin1_70_2_91: p_r2_g91_h21_t70 - x_r2_g91 <= 0
 lin2_70_2_91: p_r2_g91_h21_t70 - x_r2_g21 <= 0
 lin3_70_2_91: p_r2_g91_h21_t70 - x_r2_g91 - x_r2_g21 >= -1
 lin1_70_2_104: p_r2_g104_h34_t70 - x_r2_g104 <= 0
 lin2_70_2_104: p_r2_g104_h34_t70 - x_r2_g34 <= 0
 lin3_70_2_104: p_r2_g104_h34_t70 - x_r2_g104 - x_r2_g34 >= -1
 lin1_70_2_105: p_r2_g105_h35_t70 - x_r2_g105 <= 0
 lin2_70_2_105: p_r2_g105_h35_t70 - x_r2_g35 <= 0
 lin3_70_2_105: p_r2_g105_h35_t70 - x_r2_g105 - x_r2_g35 >= -1
 lin1_70_2_161: p_r2_g161_h91_t70 - x_r2_g161 <= 0
 lin2_70_2_161: p_r2_g161_h91_t70 - x_r2_g91 <= 0
 lin3_70_2_161: p_r2_g161_h91_t70 - x_r2_g161 - x_r2_g91 >= -1
 lin1_70_3_21: p_r3_g21_h118_t70 - x_r3_g21 <= 0
 lin2_70_3_21: p_r3_g21_h118_t70 - x_r3_g118 <= 0
 lin3_70_3_21: p_r3_g21_h118_t70 - x_r3_g21 - x_r3_g118 >= -1
 lin1_70_3_69: p_r3_g69_h166_t70 - x_r3_g69 <= 0
 lin2_70_3_69: p_r3_g69_h166_t70 - x_r3_g166 <= 0
 lin3_70_3_69: p_r3_g69_h166_t70 - x_r3_g69 - x_r3_g166 >= -1
 lin1_70_3_87: p_r3_g87_h17_t70 - x_r3_g87 <= 0
 lin2_70_3_87: p_r3_g87_h17_t70 - x_r3_g17 <= 0
 lin3_70_3_87: p_r3_g87_h17_t70 - x_r3_g87 - x_r3_g17 >= -1
 lin1_70_3_96: p_r3_g96_h26_t70 - x_r3_g96 <= 0
 lin2_70_3_96: p_r3_g96_h26_t70 - x_r3_g26 <= 0
 lin3_70_3_96: p_r3_g96_h26_t70 - x_r3_g96 - x_r3_g26 >= -1
 lin1_70_3_153: p_r3_g153_h83_t70 - x_r3_g153 <= 0
 lin2_70_3_153: p_r3_g153_h83_t70 - x_r3_g83 <= 0
 lin3_70_3_153: p_r3_g153_h83_t70 - x_r3_g153 - x_r3_g83 >= -1
 lin1_70_3_166: p_r3_g166_h96_t70 - x_r3_g166 <= 0
 lin2_70_3_166: p_r3_g166_h96_t70 - x_r3_g96 <= 0
 lin3_70_3_166: p_r3_g166_h96_t70 - x_r3_g166 - x_r3_g96 >= -1
 defect_70: 1 d_70 - 1 x_r0_g1 - 1 x_r0_g4 - 1 x_r0_g5 - 1 x_r0_g7 - 1 x_r0_g19 - 1 x_r0_g34 - 1 x_r0_g53 - 1 x_r0_g57 - 1 x_r0_g69 - 1 x_r0_g79 - 1 x_r0_g85 - 1 x_r0_g103 - 1 x_r0_g106 - 1 x_r0_g108 - 1 x_r0_g112 - 1 x_r0_g119 - 1 x_r0_g124 - 1 x_r0_g135 - 1 x_r0_g142 - 1 x_r0_g143 - 1 x_r0_g146 - 1 x_r0_g159 - 1 x_r1_g6 - 1 x_r1_g21 - 1 x_r1_g42 - 2 x_r1_g43 - 2 x_r1_g60 - 1 x_r1_g69 - 1 x_r1_g76 - 1 x_r1_g84 - 1 x_r1_g88 - 1 x_r1_g109 - 1 x_r1_g124 - 1 x_r1_g127 - 1 x_r1_g129 - 1 x_r1_g141 - 1 x_r1_g148 - 1 x_r1_g161 - 1 x_r1_g162 - 1 x_r1_g163 - 1 x_r2_g13 - 1 x_r2_g30 - 2 x_r2_g32 - 1 x_r2_g35 - 2 x_r2_g40 - 1 x_r2_g45 - 2 x_r2_g51 - 1 x_r2_g52 - 1 x_r2_g53 - 1 x_r2_g58 - 1 x_r2_g61 - 1 x_r2_g74 - 1 x_r2_g83 - 1 x_r2_g93 - 2 x_r2_g101 - 1 x_r2_g103 - 1 x_r2_g104 - 2 x_r2_g111 - 1 x_r2_g118 - 1 x_r2_g119 - 2 x_r2_g130 - 1 x_r2_g133 - 1 x_r2_g135 - 1 x_r2_g157 - 1 x_r2_g161 - 1 x_r2_g162 - 1 x_r3_g5 - 1 x_r3_g22 - 1 x_r3_g24 - 1 x_r3_g25 - 1 x_r3_g26 - 1 x_r3_g31 - 1 x_r3_g38 - 2 x_r3_g42 - 1 x_r3_g51 - 1 x_r3_g53 - 1 x_r3_g66 - 1 x_r3_g68 - 1 x_r3_g69 - 1 x_r3_g73 - 1 x_r3_g83 - 1 x_r3_g89 - 2 x_r3_g90 - 1 x_r3_g100 - 2 x_r3_g117 - 1 x_r3_g124 - 2 x_r3_g125 - 1 x_r3_g137 - 1 x_r3_g151 - 2 x_r3_g156 - 1 x_r3_g158 - 1 p_r0_g11_h108_t70 - 1 p_r0_g15_h112_t70 - 1 p_r0_g39_h136_t70 - 1 p_r0_g53_h150_t70 - 1 p_r0_g66_h163_t70 - 1 p_r0_g74_h4_t70 - 1 p_r0_g85_h15_t70 - 1 p_r0_g89_h19_t70 - 1 p_r0_g126_h56_t70 - 1 p_r0_g135_h65_t70 - 1 p_r0_g136_h66_t70 - 1 p_r0_g142_h72_t70 - 1 p_r0_g159_h89_t70 - 1 p_r0_g163_h93_t70 - 1 p_r1_g1_h98_t70 - 1 p_r1_g48_h145_t70 - 1 p_r1_g64_h161_t70 - 1 p_r1_g76_h6_t70 - 1 p_r1_g99_h29_t70 - 1 p_r1_g104_h34_t70 - 1 p_r1_g138_h68_t70 - 1 p_r2_g15_h112_t70 - 1 p_r2_g21_h118_t70 - 1 p_r2_g27_h124_t70 - 1 p_r2_g83_h13_t70 - 1 p_r2_g85_h15_t70 - 1 p_r2_g91_h21_t70 - 1 p_r2_g104_h34_t70 - 1 p_r2_g105_h35_t70 - 1 p_r2_g161_h91_t70 - 1 p_r3_g21_h118_t70 - 1 p_r3_g69_h166_t70 - 1 p_r3_g87_h17_t70 - 1 p_r3_g96_h26_t70 - 1 p_r3_g153_h83_t70 - 1 p_r3_g166_h96_t70 = -50
 abs_pos_70: d_70 - u_70 <= 0
 abs_neg_70: - d_70 - u_70 <= 0
 max_def_70: u_70 - M <= 0
 cap_70: u_70 <= 2
 lin1_71_0_7: p_r0_g7_h103_t71 - x_r0_g7 <= 0
 lin2_71_0_7: p_r0_g7_h103_t71 - x_r0_g103 <= 0
 lin3_71_0_7: p_r0_g7_h103_t71 - x_r0_g7 - x_r0_g103 >= -1
 lin1_71_0_12: p_r0_g12_h108_t71 - x_r0_g12 <= 0
 lin2_71_0_12: p_r0_g12_h108_t71 - x_r0_g108 <= 0
 lin3_71_0_12: p_r0_g12_h108_t71 - x_r0_g12 - x_r0_g108 >= -1
 lin1_71_0_39: p_r0_g39_h135_t71 - x_r0_g39 <= 0
 lin2_71_0_39: p_r0_g39_h135_t71 - x_r0_g135 <= 0
 lin3_71_0_39: p_r0_g39_h135_t71 - x_r0_g39 - x_r0_g135 >= -1
 lin1_71_0_47: p_r0_g47_h143_t71 - x_r0_g47 <= 0
 lin2_71_0_47: p_r0_g47_h143_t71 - x_r0_g143 <= 0
 lin3_71_0_47: p_r0_g47_h143_t71 - x_r0_g47 - x_r0_g143 >= -1
 lin1_71_0_72: p_r0_g72_h1_t71 - x_r0_g72 <= 0
 lin2_71_0_72: p_r0_g72_h1_t71 - x_r0_g1 <= 0
 lin3_71_0_72: p_r0_g72_h1_t71 - x_r0_g72 - x_r0_g1 >= -1
 lin1_71_0_124: p_r0_g124_h53_t71 - x_r0_g124 <= 0
 lin2_71_0_124: p_r0_g124_h53_t71 - x_r0_g53 <= 0
 lin3_71_0_124: p_r0_g124_h53_t71 - x_r0_g124 - x_r0_g53 >= -1
 lin1_71_0_136: p_r0_g136_h65_t71 - x_r0_g136 <= 0
 lin2_71_0_136: p_r0_g136_h65_t71 - x_r0_g65 <= 0
 lin3_71_0_136: p_r0_g136_h65_t71 - x_r0_g136 - x_r0_g65 >= -1
 lin1_71_0_143: p_r0_g143_h72_t71 - x_r0_g143 <= 0
 lin2_71_0_143: p_r0_g143_h72_t71 - x_r0_g72 <= 0
 lin3_71_0_143: p_r0_g143_h72_t71 - x_r0_g143 - x_r0_g72 >= -1
 lin1_71_0_150: p_r0_g150_h79_t71 - x_r0_g150 <= 0
 lin2_71_0_150: p_r0_g150_h79_t71 - x_r0_g79 <= 0
 lin3_71_0_150: p_r0_g150_h79_t71 - x_r0_g150 - x_r0_g79 >= -1
 lin1_71_1_42: p_r1_g42_h138_t71 - x_r1_g42 <= 0
 lin2_71_1_42: p_r1_g42_h138_t71 - x_r1_g138 <= 0
 lin3_71_1_42: p_r1_g42_h138_t71 - x_r1_g42 - x_r1_g138 >= -1
 lin1_71_1_76: p_r1_g76_h5_t71 - x_r1_g76 <= 0
 lin2_71_1_76: p_r1_g76_h5_t71 - x_r1_g5 <= 0
 lin3_71_1_76: p_r1_g76_h5_t71 - x_r1_g76 - x_r1_g5 >= -1
 lin1_71_1_77: p_r1_g77_h6_t71 - x_r1_g77 <= 0
 lin2_71_1_77: p_r1_g77_h6_t71 - x_r1_g6 <= 0
 lin3_71_1_77: p_r1_g77_h6_t71 - x_r1_g77 - x_r1_g6 >= -1
 lin1_71_1_127: p_r1_g127_h56_t71 - x_r1_g127 <= 0
 lin2_71_1_127: p_r1_g127_h56_t71 - x_r1_g56 <= 0
 lin3_71_1_127: p_r1_g127_h56_t71 - x_r1_g127 - x_r1_g56 >= -1
 lin1_71_1_145: p_r1_g145_h74_t71 - x_r1_g145 <= 0
 lin2_71_1_145: p_r1_g145_h74_t71 - x_r1_g74 <= 0
 lin3_71_1_145: p_r1_g145_h74_t71 - x_r1_g145 - x_r1_g74 >= -1
 lin1_71_1_148: p_r1_g148_h77_t71 - x_r1_g148 <= 0
 lin2_71_1_148: p_r1_g148_h77_t71 - x_r1_g77 <= 0
 lin3_71_1_148: p_r1_g148_h77_t71 - x_r1_g148 - x_r1_g77 >= -1
 lin1_71_1_155: p_r1_g155_h84_t71 - x_r1_g155 <= 0
 lin2_71_1_155: p_r1_g155_h84_t71 - x_r1_g84 <= 0
 lin3_71_1_155: p_r1_g155_h84_t71 - x_r1_g155 - x_r1_g84 >= -1
 lin1_71_2_15: p_r2_g15_h111_t71 - x_r2_g15 <= 0
 lin2_71_2_15: p_r2_g15_h111_t71 - x_r2_g111 <= 0
 lin3_71_2_15: p_r2_g15_h111_t71 - x_r2_g15 - x_r2_g111 >= -1
 lin1_71_2_34: p_r2_g34_h130_t71 - x_r2_g34 <= 0
 lin2_71_2_34: p_r2_g34_h130_t71 - x_r2_g130 <= 0
 lin3_71_2_34: p_r2_g34_h130_t71 - x_r2_g34 - x_r2_g130 >= -1
 lin1_71_2_45: p_r2_g45_h141_t71 - x_r2_g45 <= 0
 lin2_71_2_45: p_r2_g45_h141_t71 - x_r2_g141 <= 0
 lin3_71_2_45: p_r2_g45_h141_t71 - x_r2_g45 - x_r2_g141 >= -1
 lin1_71_2_51: p_r2_g51_h147_t71 - x_r2_g51 <= 0
 lin2_71_2_51: p_r2_g51_h147_t71 - x_r2_g147 <= 0
 lin3_71_2_51: p_r2_g51_h147_t71 - x_r2_g51 - x_r2_g147 >= -1
 lin1_71_2_61: p_r2_g61_h157_t71 - x_r2_g61 <= 0
 lin2_71_2_61: p_r2_g61_h157_t71 - x_r2_g157 <= 0
 lin3_71_2_61: p_r2_g61_h157_t71 - x_r2_g61 - x_r2_g157 >= -1
 lin1_71_2_101: p_r2_g101_h30_t71 - x_r2_g101 <= 0
 lin2_71_2_101: p_r2_g101_h30_t71 - x_r2_g30 <= 0
 lin3_71_2_101: p_r2_g101_h30_t71 - x_r2_g101 - x_r2_g30 >= -1
 lin1_71_2_103: p_r2_g103_h32_t71 - x_r2_g103 <= 0
 lin2_71_2_103: p_r2_g103_h32_t71 - x_r2_g32 <= 0
 lin3_71_2_103: p_r2_g103_h32_t71 - x_r2_g103 - x_r2_g32 >= -1
 lin1_71_2_105: p_r2_g105_h34_t71 - x_r2_g105 <= 0
 lin2_71_2_105: p_r2_g105_h34_t71 - x_r2_g34 <= 0
 lin3_71_2_105: p_r2_g105_h34_t71 - x_r2_g105 - x_r2_g34 >= -1
 lin1_71_2_106: p_r2_g106_h35_t71 - x_r2_g106 <= 0
 lin2_71_2_106: p_r2_g106_h35_t71 - x_r2_g35 <= 0
 lin3_71_2_106: p_r2_g106_h35_t71 - x_r2_g106 - x_r2_g35 >= -1
 lin1_71_2_111: p_r2_g111_h40_t71 - x_r2_g111 <= 0
 lin2_71_2_111: p_r2_g111_h40_t71 - x_r2_g40 <= 0
 lin3_71_2_111: p_r2_g111_h40_t71 - x_r2_g111 - x_r2_g40 >= -1
 lin1_71_2_124: p_r2_g124_h53_t71 - x_r2_g124 <= 0
 lin2_71_2_124: p_r2_g124_h53_t71 - x_r2_g53 <= 0
 lin3_71_2_124: p_r2_g124_h53_t71 - x_r2_g124 - x_r2_g53 >= -1
 lin1_71_2_162: p_r2_g162_h91_t71 - x_r2_g162 <= 0
 lin2_71_2_162: p_r2_g162_h91_t71 - x_r2_g91 <= 0
 lin3_71_2_162: p_r2_g162_h91_t71 - x_r2_g162 - x_r2_g91 >= -1
 lin1_71_3_21: p_r3_g21_h117_t71 - x_r3_g21 <= 0
 lin2_71_3_21: p_r3_g21_h117_t71 - x_r3_g117 <= 0
 lin3_71_3_21: p_r3_g21_h117_t71 - x_r3_g21 - x_r3_g117 >= -1
 lin1_71_3_22: p_r3_g22_h118_t71 - x_r3_g22 <= 0
 lin2_71_3_22: p_r3_g22_h118_t71 - x_r3_g118 <= 0
 lin3_71_3_22: p_r3_g22_h118_t71 - x_r3_g22 - x_r3_g118 >= -1
 lin1_71_3_53: p_r3_g53_h149_t71 - x_r3_g53 <= 0
 lin2_71_3_53: p_r3_g53_h149_t71 - x_r3_g149 <= 0
 lin3_71_3_53: p_r3_g53_h149_t71 - x_r3_g53 - x_r3_g149 >= -1
 lin1_71_3_60: p_r3_g60_h156_t71 - x_r3_g60 <= 0
 lin2_71_3_60: p_r3_g60_h156_t71 - x_r3_g156 <= 0
 lin3_71_3_60: p_r3_g60_h156_t71 - x_r3_g60 - x_r3_g156 >= -1
 lin1_71_3_62: p_r3_g62_h158_t71 - x_r3_g62 <= 0
 lin2_71_3_62: p_r3_g62_h158_t71 - x_r3_g158 <= 0
 lin3_71_3_62: p_r3_g62_h158_t71 - x_r3_g62 - x_r3_g158 >= -1
 lin1_71_3_96: p_r3_g96_h25_t71 - x_r3_g96 <= 0
 lin2_71_3_96: p_r3_g96_h25_t71 - x_r3_g25 <= 0
 lin3_71_3_96: p_r3_g96_h25_t71 - x_r3_g96 - x_r3_g25 >= -1
 lin1_71_3_124: p_r3_g124_h53_t71 - x_r3_g124 <= 0
 lin2_71_3_124: p_r3_g124_h53_t71 - x_r3_g53 <= 0
 lin3_71_3_124: p_r3_g124_h53_t71 - x_r3_g124 - x_r3_g53 >= -1
 lin1_71_3_137: p_r3_g137_h66_t71 - x_r3_g137 <= 0
 lin2_71_3_137: p_r3_g137_h66_t71 - x_r3_g66 <= 0
 lin3_71_3_137: p_r3_g137_h66_t71 - x_r3_g137 - x_r3_g66 >= -1
 lin1_71_3_154: p_r3_g154_h83_t71 - x_r3_g154 <= 0
 lin2_71_3_154: p_r3_g154_h83_t71 - x_r3_g83 <= 0
 lin3_71_3_154: p_r3_g154_h83_t71 - x_r3_g154 - x_r3_g83 >= -1
 lin1_71_3_158: p_r3_g158_h87_t71 - x_r3_g158 <= 0
 lin2_71_3_158: p_r3_g158_h87_t71 - x_r3_g87 <= 0
 lin3_71_3_158: p_r3_g158_h87_t71 - x_r3_g158 - x_r3_g87 >= -1
 lin1_71_3_161: p_r3_g161_h90_t71 - x_r3_g161 <= 0
 lin2_71_3_161: p_r3_g161_h90_t71 - x_r3_g90 <= 0
 lin3_71_3_161: p_r3_g161_h90_t71 - x_r3_g161 - x_r3_g90 >= -1
 defect_71: 1 d_71 - 1 x_r0_g4 - 1 x_r0_g5 - 1 x_r0_g15 - 1 x_r0_g19 - 1 x_r0_g24 - 1 x_r0_g47 - 1 x_r0_g53 - 2 x_r0_g56 - 1 x_r0_g66 - 1 x_r0_g69 - 1 x_r0_g74 - 1 x_r0_g85 - 1 x_r0_g89 - 1 x_r0_g91 - 1 x_r0_g108 - 1 x_r0_g119 - 2 x_r0_g126 - 1 x_r0_g136 - 1 x_r0_g142 - 1 x_r0_g150 - 2 x_r0_g159 - 1 x_r0_g163 - 1 x_r1_g23 - 1 x_r1_g29 - 1 x_r1_g34 - 2 x_r1_g36 - 1 x_r1_g42 - 1 x_r1_g43 - 1 x_r1_g48 - 1 x_r1_g50 - 1 x_r1_g60 - 2 x_r1_g61 - 1 x_r1_g64 - 1 x_r1_g68 - 1 x_r1_g69 - 1 x_r1_g74 - 1 x_r1_g82 - 1 x_r1_g88 - 1 x_r1_g98 - 1 x_r1_g99 - 1 x_r1_g109 - 1 x_r1_g124 - 1 x_r1_g127 - 1 x_r1_g141 - 1 x_r1_g145 - 2 x_r1_g161 - 2 x_r1_g162 - 1 x_r2_g15 - 1 x_r2_g27 - 1 x_r2_g30 - 1 x_r2_g32 - 1 x_r2_g40 - 1 x_r2_g45 - 1 x_r2_g51 - 1 x_r2_g52 - 1 x_r2_g58 - 1 x_r2_g61 - 1 x_r2_g85 - 1 x_r2_g91 - 1 x_r2_g103 - 1 x_r2_g104 - 1 x_r2_g112 - 1 x_r2_g119 - 1 x_r2_g124 - 2 x_r2_g135 - 2 x_r2_g139 - 1 x_r2_g157 - 2 x_r2_g161 - 1 x_r3_g5 - 2 x_r3_g23 - 1 x_r3_g26 - 1 x_r3_g31 - 1 x_r3_g38 - 1 x_r3_g39 - 1 x_r3_g42 - 1 x_r3_g51 - 1 x_r3_g66 - 1 x_r3_g68 - 1 x_r3_g69 - 2 x_r3_g73 - 1 x_r3_g83 - 2 x_r3_g89 - 1 x_r3_g90 - 1 x_r3_g100 - 1 x_r3_g117 - 1 x_r3_g118 - 1 x_r3_g124 - 1 x_r3_g137 - 1 x_r3_g149 - 2 x_r3_g151 - 1 x_r3_g161 - 1 p_r0_g7_h103_t71 - 1 p_r0_g12_h108_t71 - 1 p_r0_g39_h135_t71 - 1 p_r0_g47_h143_t71 - 1 p_r0_g72_h1_t71 - 1 p_r0_g124_h53_t71 - 1 p_r0_g136_h65_t71 - 1 p_r0_g143_h72_t71 - 1 p_r0_g150_h79_t71 - 1 p_r1_g42_h138_t71 - 1 p_r1_g76_h5_t71 - 1 p_r1_g77_h6_t71 - 1 p_r1_g127_h56_t71 - 1 p_r1_g145_h74_t71 - 1 p_r1_g148_h77_t71 - 1 p_r1_g155_h84_t71 - 1 p_r2_g15_h111_t71 - 1 p_r2_g34_h130_t71 - 1 p_r2_g45_h141_t71 - 1 p_r2_g51_h147_t71 - 1 p_r2_g61_h157_t71 - 1 p_r2_g101_h30_t71 - 1 p_r2_g103_h32_t71 - 1 p_r2_g105_h34_t71 - 1 p_r2_g106_h35_t71 - 1 p_r2_g111_h40_t71 - 1 p_r2_g124_h53_t71 - 1 p_r2_g162_h91_t71 - 1 p_r3_g21_h117_t71 - 1 p_r3_g22_h118_t71 - 1 p_r3_g53_h149_t71 - 1 p_r3_g60_h156_t71 - 1 p_r3_g62_h158_t71 - 1 p_r3_g96_h25_t71 - 1 p_r3_g124_h53_t71 - 1 p_r3_g137_h66_t71 - 1 p_r3_g154_h83_t71 - 1 p_r3_g158_h87_t71 - 1 p_r3_g161_h90_t71 = -73
 abs_pos_71: d_71 - u_71 <= 0
 abs_neg_71: - d_71 - u_71 <= 0
 max_def_71: u_71 - M <= 0
 cap_71: u_71 <= 2
 lin1_75_0_1: p_r0_g1_h93_t75 - x_r0_g1 <= 0
 lin2_75_0_1: p_r0_g1_h93_t75 - x_r0_g93 <= 0
 lin3_75_0_1: p_r0_g1_h93_t75 - x_r0_g1 - x_r0_g93 >= -1
 lin1_75_0_11: p_r0_g11_h103_t75 - x_r0_g11 <= 0
 lin2_75_0_11: p_r0_g11_h103_t75 - x_r0_g103 <= 0
 lin3_75_0_11: p_r0_g11_h103_t75 - x_r0_g11 - x_r0_g103 >= -1
 lin1_75_0_34: p_r0_g34_h126_t75 - x_r0_g34 <= 0
 lin2_75_0_34: p_r0_g34_h126_t75 - x_r0_g126 <= 0
 lin3_75_0_34: p_r0_g34_h126_t75 - x_r0_g34 - x_r0_g126 >= -1
 lin1_75_0_79: p_r0_g79_h4_t75 - x_r0_g79 <= 0
 lin2_75_0_79: p_r0_g79_h4_t75 - x_r0_g4 <= 0
 lin3_75_0_79: p_r0_g79_h4_t75 - x_r0_g79 - x_r0_g4 >= -1
 lin1_75_1_6: p_r1_g6_h98_t75 - x_r1_g6 <= 0
 lin2_75_1_6: p_r1_g6_h98_t75 - x_r1_g98 <= 0
 lin3_75_1_6: p_r1_g6_h98_t75 - x_r1_g6 - x_r1_g98 >= -1
 lin1_75_1_56: p_r1_g56_h148_t75 - x_r1_g56 <= 0
 lin2_75_1_56: p_r1_g56_h148_t75 - x_r1_g148 <= 0
 lin3_75_1_56: p_r1_g56_h148_t75 - x_r1_g56 - x_r1_g148 >= -1
 lin1_75_1_69: p_r1_g69_h161_t75 - x_r1_g69 <= 0
 lin2_75_1_69: p_r1_g69_h161_t75 - x_r1_g161 <= 0
 lin3_75_1_69: p_r1_g69_h161_t75 - x_r1_g69 - x_r1_g161 >= -1
 lin1_75_1_76: p_r1_g76_h1_t75 - x_r1_g76 <= 0
 lin2_75_1_76: p_r1_g76_h1_t75 - x_r1_g1 <= 0
 lin3_75_1_76: p_r1_g76_h1_t75 - x_r1_g76 - x_r1_g1 >= -1
 lin1_75_1_98: p_r1_g98_h23_t75 - x_r1_g98 <= 0
 lin2_75_1_98: p_r1_g98_h23_t75 - x_r1_g23 <= 0
 lin3_75_1_98: p_r1_g98_h23_t75 - x_r1_g98 - x_r1_g23 >= -1
 lin1_75_1_104: p_r1_g104_h29_t75 - x_r1_g104 <= 0
 lin2_75_1_104: p_r1_g104_h29_t75 - x_r1_g29 <= 0
 lin3_75_1_104: p_r1_g104_h29_t75 - x_r1_g104 - x_r1_g29 >= -1
 lin1_75_1_109: p_r1_g109_h34_t75 - x_r1_g109 <= 0
 lin2_75_1_109: p_r1_g109_h34_t75 - x_r1_g34 <= 0
 lin3_75_1_109: p_r1_g109_h34_t75 - x_r1_g109 - x_r1_g34 >= -1
 lin1_75_1_163: p_r1_g163_h88_t75 - x_r1_g163 <= 0
 lin2_75_1_163: p_r1_g163_h88_t75 - x_r1_g88 <= 0
 lin3_75_1_163: p_r1_g163_h88_t75 - x_r1_g163 - x_r1_g88 >= -1
 lin1_75_2_13: p_r2_g13_h105_t75 - x_r2_g13 <= 0
 lin2_75_2_13: p_r2_g13_h105_t75 - x_r2_g105 <= 0
 lin3_75_2_13: p_r2_g13_h105_t75 - x_r2_g13 - x_r2_g105 >= -1
 lin1_75_2_27: p_r2_g27_h119_t75 - x_r2_g27 <= 0
 lin2_75_2_27: p_r2_g27_h119_t75 - x_r2_g119 <= 0
 lin3_75_2_27: p_r2_g27_h119_t75 - x_r2_g27 - x_r2_g119 >= -1
 lin1_75_2_32: p_r2_g32_h124_t75 - x_r2_g32 <= 0
 lin2_75_2_32: p_r2_g32_h124_t75 - x_r2_g124 <= 0
 lin3_75_2_32: p_r2_g32_h124_t75 - x_r2_g32 - x_r2_g124 >= -1
 lin1_75_2_105: p_r2_g105_h30_t75 - x_r2_g105 <= 0
 lin2_75_2_105: p_r2_g105_h30_t75 - x_r2_g30 <= 0
 lin3_75_2_105: p_r2_g105_h30_t75 - x_r2_g105 - x_r2_g30 >= -1
 lin1_75_2_133: p_r2_g133_h58_t75 - x_r2_g133 <= 0
 lin2_75_2_133: p_r2_g133_h58_t75 - x_r2_g58 <= 0
 lin3_75_2_133: p_r2_g133_h58_t75 - x_r2_g133 - x_r2_g58 >= -1
 lin1_75_3_25: p_r3_g25_h117_t75 - x_r3_g25 <= 0
 lin2_75_3_25: p_r3_g25_h117_t75 - x_r3_g117 <= 0
 lin3_75_3_25: p_r3_g25_h117_t75 - x_r3_g25 - x_r3_g117 >= -1
 lin1_75_3_26: p_r3_g26_h118_t75 - x_r3_g26 <= 0
 lin2_75_3_26: p_r3_g26_h118_t75 - x_r3_g118 <= 0
 lin3_75_3_26: p_r3_g26_h118_t75 - x_r3_g26 - x_r3_g118 >= -1
 lin1_75_3_62: p_r3_g62_h154_t75 - x_r3_g62 <= 0
 lin2_75_3_62: p_r3_g62_h154_t75 - x_r3_g154 <= 0
 lin3_75_3_62: p_r3_g62_h154_t75 - x_r3_g62 - x_r3_g154 >= -1
 lin1_75_3_66: p_r3_g66_h158_t75 - x_r3_g66 <= 0
 lin2_75_3_66: p_r3_g66_h158_t75 - x_r3_g158 <= 0
 lin3_75_3_66: p_r3_g66_h158_t75 - x_r3_g66 - x_r3_g158 >= -1
 lin1_75_3_69: p_r3_g69_h161_t75 - x_r3_g69 <= 0
 lin2_75_3_69: p_r3_g69_h161_t75 - x_r3_g161 <= 0
 lin3_75_3_69: p_r3_g69_h161_t75 - x_r3_g69 - x_r3_g161 >= -1
 lin1_75_3_96: p_r3_g96_h21_t75 - x_r3_g96 <= 0
 lin2_75_3_96: p_r3_g96_h21_t75 - x_r3_g21 <= 0
 lin3_75_3_96: p_r3_g96_h21_t75 - x_r3_g96 - x_r3_g21 >= -1
 lin1_75_3_100: p_r3_g100_h25_t75 - x_r3_g100 <= 0
 lin2_75_3_100: p_r3_g100_h25_t75 - x_r3_g25 <= 0
 lin3_75_3_100: p_r3_g100_h25_t75 - x_r3_g100 - x_r3_g25 >= -1
 lin1_75_3_117: p_r3_g117_h42_t75 - x_r3_g117 <= 0
 lin2_75_3_117: p_r3_g117_h42_t75 - x_r3_g42 <= 0
 lin3_75_3_117: p_r3_g117_h42_t75 - x_r3_g117 - x_r3_g42 >= -1
 lin1_75_3_137: p_r3_g137_h62_t75 - x_r3_g137 <= 0
 lin2_75_3_137: p_r3_g137_h62_t75 - x_r3_g62 <= 0
 lin3_75_3_137: p_r3_g137_h62_t75 - x_r3_g137 - x_r3_g62 >= -1
 lin1_75_3_158: p_r3_g158_h83_t75 - x_r3_g158 <= 0
 lin2_75_3_158: p_r3_g158_h83_t75 - x_r3_g83 <= 0
 lin3_75_3_158: p_r3_g158_h83_t75 - x_r3_g158 - x_r3_g83 >= -1
 defect_75: 1 d_75 - 1 x_r0_g15 - 1 x_r0_g19 - 1 x_r0_g24 - 1 x_r0_g39 - 2 x_r0_g47 - 1 x_r0_g56 - 2 x_r0_g57 - 1 x_r0_g65 - 1 x_r0_g66 - 1 x_r0_g74 - 1 x_r0_g85 - 1 x_r0_g89 - 1 x_r0_g106 - 2 x_r0_g112 - 1 x_r0_g124 - 1 x_r0_g126 - 1 x_r0_g135 - 1 x_r0_g142 - 2 x_r0_g143 - 1 x_r0_g146 - 1 x_r0_g150 - 1 x_r0_g159 - 1 x_r0_g163 - 1 x_r1_g5 - 1 x_r1_g6 - 2 x_r1_g21 - 1 x_r1_g23 - 1 x_r1_g36 - 2 x_r1_g40 - 2 x_r1_g48 - 1 x_r1_g64 - 1 x_r1_g68 - 1 x_r1_g74 - 1 x_r1_g82 - 1 x_r1_g84 - 2 x_r1_g124 - 1 x_r1_g129 - 1 x_r1_g138 - 2 x_r1_g141 - 2 x_r1_g145 - 1 x_r1_g155 - 2 x_r1_g162 - 1 x_r2_g15 - 1 x_r2_g21 - 1 x_r2_g27 - 1 x_r2_g30 - 1 x_r2_g34 - 2 x_r2_g35 - 2 x_r2_g40 - 2 x_r2_g45 - 1 x_r2_g51 - 1 x_r2_g52 - 1 x_r2_g53 - 1 x_r2_g58 - 2 x_r2_g61 - 2 x_r2_g73 - 1 x_r2_g83 - 1 x_r2_g85 - 2 x_r2_g93 - 1 x_r2_g101 - 1 x_r2_g103 - 2 x_r2_g106 - 1 x_r2_g112 - 2 x_r2_g118 - 1 x_r2_g124 - 1 x_r2_g133 - 2 x_r2_g135 - 1 x_r2_g139 - 1 x_r2_g141 - 2 x_r2_g157 - 1 x_r2_g161 - 1 x_r3_g5 - 1 x_r3_g23 - 1 x_r3_g24 - 2 x_r3_g31 - 1 x_r3_g42 - 1 x_r3_g51 - 2 x_r3_g53 - 2 x_r3_g68 - 1 x_r3_g69 - 1 x_r3_g73 - 1 x_r3_g83 - 2 x_r3_g87 - 1 x_r3_g96 - 1 x_r3_g100 - 1 x_r3_g118 - 2 x_r3_g124 - 1 x_r3_g137 - 1 x_r3_g149 - 2 x_r3_g151 - 2 x_r3_g153 - 1 x_r3_g156 - 1 x_r3_g161 - 1 x_r3_g166 - 1 p_r0_g1_h93_t75 - 1 p_r0_g11_h103_t75 - 1 p_r0_g34_h126_t75 - 1 p_r0_g79_h4_t75 - 1 p_r1_g6_h98_t75 - 1 p_r1_g56_h148_t75 - 1 p_r1_g69_h161_t75 - 1 p_r1_g76_h1_t75 - 1 p_r1_g98_h23_t75 - 1 p_r1_g104_h29_t75 - 1 p_r1_g109_h34_t75 - 1 p_r1_g163_h88_t75 - 1 p_r2_g13_h105_t75 - 1 p_r2_g27_h119_t75 - 1 p_r2_g32_h124_t75 - 1 p_r2_g105_h30_t75 - 1 p_r2_g133_h58_t75 - 1 p_r3_g25_h117_t75 - 1 p_r3_g26_h118_t75 - 1 p_r3_g62_h154_t75 - 1 p_r3_g66_h158_t75 - 1 p_r3_g69_h161_t75 - 1 p_r3_g96_h21_t75 - 1 p_r3_g100_h25_t75 - 1 p_r3_g117_h42_t75 - 1 p_r3_g137_h62_t75 - 1 p_r3_g158_h83_t75 = -67
 abs_pos_75: d_75 - u_75 <= 0
 abs_neg_75: - d_75 - u_75 <= 0
 max_def_75: u_75 - M <= 0
 cap_75: u_75 <= 0
 lin1_80_0_4: p_r0_g4_h91_t80 - x_r0_g4 <= 0
 lin2_80_0_4: p_r0_g4_h91_t80 - x_r0_g91 <= 0
 lin3_80_0_4: p_r0_g4_h91_t80 - x_r0_g4 - x_r0_g91 >= -1
 lin1_80_0_19: p_r0_g19_h106_t80 - x_r0_g19 <= 0
 lin2_80_0_19: p_r0_g19_h106_t80 - x_r0_g106 <= 0
 lin3_80_0_19: p_r0_g19_h106_t80 - x_r0_g19 - x_r0_g106 >= -1
 lin1_80_0_39: p_r0_g39_h126_t80 - x_r0_g39 <= 0
 lin2_80_0_39: p_r0_g39_h126_t80 - x_r0_g126 <= 0
 lin3_80_0_39: p_r0_g39_h126_t80 - x_r0_g39 - x_r0_g126 >= -1
 lin1_80_0_56: p_r0_g56_h143_t80 - x_r0_g56 <= 0
 lin2_80_0_56: p_r0_g56_h143_t80 - x_r0_g143 <= 0
 lin3_80_0_56: p_r0_g56_h143_t80 - x_r0_g56 - x_r0_g143 >= -1
 lin1_80_0_72: p_r0_g72_h159_t80 - x_r0_g72 <= 0
 lin2_80_0_72: p_r0_g72_h159_t80 - x_r0_g159 <= 0
 lin3_80_0_72: p_r0_g72_h159_t80 - x_r0_g72 - x_r0_g159 >= -1
 lin1_80_0_85: p_r0_g85_h5_t80 - x_r0_g85 <= 0
 lin2_80_0_85: p_r0_g85_h5_t80 - x_r0_g5 <= 0
 lin3_80_0_85: p_r0_g85_h5_t80 - x_r0_g85 - x_r0_g5 >= -1
 lin1_80_0_91: p_r0_g91_h11_t80 - x_r0_g91 <= 0
 lin2_80_0_91: p_r0_g91_h11_t80 - x_r0_g11 <= 0
 lin3_80_0_91: p_r0_g91_h11_t80 - x_r0_g91 - x_r0_g11 >= -1
 lin1_80_0_119: p_r0_g119_h39_t80 - x_r0_g119 <= 0
 lin2_80_0_119: p_r0_g119_h39_t80 - x_r0_g39 <= 0
 lin3_80_0_119: p_r0_g119_h39_t80 - x_r0_g119 - x_r0_g39 >= -1
 lin1_80_0_136: p_r0_g136_h56_t80 - x_r0_g136 <= 0
 lin2_80_0_136: p_r0_g136_h56_t80 - x_r0_g56 <= 0
 lin3_80_0_136: p_r0_g136_h56_t80 - x_r0_g136 - x_r0_g56 >= -1
 lin1_80_0_146: p_r0_g146_h66_t80 - x_r0_g146 <= 0
 lin2_80_0_146: p_r0_g146_h66_t80 - x_r0_g66 <= 0
 lin3_80_0_146: p_r0_g146_h66_t80 - x_r0_g146 - x_r0_g66 >= -1
 lin1_80_0_159: p_r0_g159_h79_t80 - x_r0_g159 <= 0
 lin2_80_0_159: p_r0_g159_h79_t80 - x_r0_g79 <= 0
 lin3_80_0_159: p_r0_g159_h79_t80 - x_r0_g159 - x_r0_g79 >= -1
 lin1_80_1_1: p_r1_g1_h88_t80 - x_r1_g1 <= 0
 lin2_80_1_1: p_r1_g1_h88_t80 - x_r1_g88 <= 0
 lin3_80_1_1: p_r1_g1_h88_t80 - x_r1_g1 - x_r1_g88 >= -1
 lin1_80_1_40: p_r1_g40_h127_t80 - x_r1_g40 <= 0
 lin2_80_1_40: p_r1_g40_h127_t80 - x_r1_g127 <= 0
 lin3_80_1_40: p_r1_g40_h127_t80 - x_r1_g40 - x_r1_g127 >= -1
 lin1_80_1_42: p_r1_g42_h129_t80 - x_r1_g42 <= 0
 lin2_80_1_42: p_r1_g42_h129_t80 - x_r1_g129 <= 0
 lin3_80_1_42: p_r1_g42_h129_t80 - x_r1_g42 - x_r1_g129 >= -1
 lin1_80_1_61: p_r1_g61_h148_t80 - x_r1_g61 <= 0
 lin2_80_1_61: p_r1_g61_h148_t80 - x_r1_g148 <= 0
 lin3_80_1_61: p_r1_g61_h148_t80 - x_r1_g61 - x_r1_g148 >= -1
 lin1_80_1_68: p_r1_g68_h155_t80 - x_r1_g68 <= 0
 lin2_80_1_68: p_r1_g68_h155_t80 - x_r1_g155 <= 0
 lin3_80_1_68: p_r1_g68_h155_t80 - x_r1_g68 - x_r1_g155 >= -1
 lin1_80_1_74: p_r1_g74_h161_t80 - x_r1_g74 <= 0
 lin2_80_1_74: p_r1_g74_h161_t80 - x_r1_g161 <= 0
 lin3_80_1_74: p_r1_g74_h161_t80 - x_r1_g74 - x_r1_g161 >= -1
 lin1_80_1_76: p_r1_g76_h163_t80 - x_r1_g76 <= 0
 lin2_80_1_76: p_r1_g76_h163_t80 - x_r1_g163 <= 0
 lin3_80_1_76: p_r1_g76_h163_t80 - x_r1_g76 - x_r1_g163 >= -1
 lin1_80_1_109: p_r1_g109_h29_t80 - x_r1_g109 <= 0
 lin2_80_1_109: p_r1_g109_h29_t80 - x_r1_g29 <= 0
 lin3_80_1_109: p_r1_g109_h29_t80 - x_r1_g109 - x_r1_g29 >= -1
 lin1_80_1_141: p_r1_g141_h61_t80 - x_r1_g141 <= 0
 lin2_80_1_141: p_r1_g141_h61_t80 - x_r1_g61 <= 0
 lin3_80_1_141: p_r1_g141_h61_t80 - x_r1_g141 - x_r1_g61 >= -1
 lin1_80_1_148: p_r1_g148_h68_t80 - x_r1_g148 <= 0
 lin2_80_1_148: p_r1_g148_h68_t80 - x_r1_g68 <= 0
 lin3_80_1_148: p_r1_g148_h68_t80 - x_r1_g148 - x_r1_g68 >= -1
 lin1_80_1_162: p_r1_g162_h82_t80 - x_r1_g162 <= 0
 lin2_80_1_162: p_r1_g162_h82_t80 - x_r1_g82 <= 0
 lin3_80_1_162: p_r1_g162_h82_t80 - x_r1_g162 - x_r1_g82 >= -1
 lin1_80_2_32: p_r2_g32_h119_t80 - x_r2_g32 <= 0
 lin2_80_2_32: p_r2_g32_h119_t80 - x_r2_g119 <= 0
 lin3_80_2_32: p_r2_g32_h119_t80 - x_r2_g32 - x_r2_g119 >= -1
 lin1_80_2_52: p_r2_g52_h139_t80 - x_r2_g52 <= 0
 lin2_80_2_52: p_r2_g52_h139_t80 - x_r2_g139 <= 0
 lin3_80_2_52: p_r2_g52_h139_t80 - x_r2_g52 - x_r2_g139 >= -1
 lin1_80_2_74: p_r2_g74_h161_t80 - x_r2_g74 <= 0
 lin2_80_2_74: p_r2_g74_h161_t80 - x_r2_g161 <= 0
 lin3_80_2_74: p_r2_g74_h161_t80 - x_r2_g74 - x_r2_g161 >= -1
 lin1_80_2_93: p_r2_g93_h13_t80 - x_r2_g93 <= 0
 lin2_80_2_93: p_r2_g93_h13_t80 - x_r2_g13 <= 0
 lin3_80_2_93: p_r2_g93_h13_t80 - x_r2_g93 - x_r2_g13 >= -1
 lin1_80_2_101: p_r2_g101_h21_t80 - x_r2_g101 <= 0
 lin2_80_2_101: p_r2_g101_h21_t80 - x_r2_g21 <= 0
 lin3_80_2_101: p_r2_g101_h21_t80 - x_r2_g101 - x_r2_g21 >= -1
 lin1_80_2_112: p_r2_g112_h32_t80 - x_r2_g112 <= 0
 lin2_80_2_112: p_r2_g112_h32_t80 - x_r2_g32 <= 0
 lin3_80_2_112: p_r2_g112_h32_t80 - x_r2_g112 - x_r2_g32 >= -1
 lin1_80_2_133: p_r2_g133_h53_t80 - x_r2_g133 <= 0
 lin2_80_2_133: p_r2_g133_h53_t80 - x_r2_g53 <= 0
 lin3_80_2_133: p_r2_g133_h53_t80 - x_r2_g133 - x_r2_g53 >= -1
 lin1_80_2_141: p_r2_g141_h61_t80 - x_r2_g141 <= 0
 lin2_80_2_141: p_r2_g141_h61_t80 - x_r2_g61 <= 0
 lin3_80_2_141: p_r2_g141_h61_t80 - x_r2_g141 - x_r2_g61 >= -1
 lin1_80_3_31: p_r3_g31_h118_t80 - x_r3_g31 <= 0
 lin2_80_3_31: p_r3_g31_h118_t80 - x_r3_g118 <= 0
 lin3_80_3_31: p_r3_g31_h118_t80 - x_r3_g31 - x_r3_g118 >= -1
 lin1_80_3_38: p_r3_g38_h125_t80 - x_r3_g38 <= 0
 lin2_80_3_38: p_r3_g38_h125_t80 - x_r3_g125 <= 0
 lin3_80_3_38: p_r3_g38_h125_t80 - x_r3_g38 - x_r3_g125 >= -1
 lin1_80_3_62: p_r3_g62_h149_t80 - x_r3_g62 <= 0
 lin2_80_3_62: p_r3_g62_h149_t80 - x_r3_g149 <= 0
 lin3_80_3_62: p_r3_g62_h149_t80 - x_r3_g62 - x_r3_g149 >= -1
 lin1_80_3_66: p_r3_g66_h153_t80 - x_r3_g66 <= 0
 lin2_80_3_66: p_r3_g66_h153_t80 - x_r3_g153 <= 0
 lin3_80_3_66: p_r3_g66_h153_t80 - x_r3_g66 - x_r3_g153 >= -1
 lin1_80_3_69: p_r3_g69_h156_t80 - x_r3_g69 <= 0
 lin2_80_3_69: p_r3_g69_h156_t80 - x_r3_g156 <= 0
 lin3_80_3_69: p_r3_g69_h156_t80 - x_r3_g69 - x_r3_g156 >= -1
 lin1_80_3_118: p_r3_g118_h38_t80 - x_r3_g118 <= 0
 lin2_80_3_118: p_r3_g118_h38_t80 - x_r3_g38 <= 0
 lin3_80_3_118: p_r3_g118_h38_t80 - x_r3_g118 - x_r3_g38 >= -1
 lin1_80_3_149: p_r3_g149_h69_t80 - x_r3_g149 <= 0
 lin2_80_3_149: p_r3_g149_h69_t80 - x_r3_g69 <= 0
 lin3_80_3_149: p_r3_g149_h69_t80 - x_r3_g149 - x_r3_g69 >= -1
 lin1_80_3_153: p_r3_g153_h73_t80 - x_r3_g153 <= 0
 lin2_80_3_153: p_r3_g153_h73_t80 - x_r3_g73 <= 0
 lin3_80_3_153: p_r3_g153_h73_t80 - x_r3_g153 - x_r3_g73 >= -1
 defect_80: 1 d_80 - 1 x_r0_g1 - 1 x_r0_g11 - 1 x_r0_g15 - 1 x_r0_g24 - 1 x_r0_g47 - 1 x_r0_g57 - 1 x_r0_g65 - 1 x_r0_g69 - 1 x_r0_g72 - 1 x_r0_g85 - 2 x_r0_g93 - 1 x_r0_g112 - 1 x_r0_g124 - 1 x_r0_g126 - 2 x_r0_g135 - 1 x_r0_g136 - 2 x_r0_g142 - 1 x_r0_g143 - 1 x_r0_g146 - 2 x_r0_g150 - 1 x_r1_g1 - 1 x_r1_g21 - 1 x_r1_g23 - 1 x_r1_g34 - 1 x_r1_g36 - 2 x_r1_g43 - 1 x_r1_g48 - 1 x_r1_g50 - 1 x_r1_g60 - 1 x_r1_g69 - 1 x_r1_g74 - 1 x_r1_g76 - 2 x_r1_g77 - 1 x_r1_g84 - 2 x_r1_g98 - 2 x_r1_g124 - 1 x_r1_g129 - 1 x_r1_g145 - 1 x_r1_g161 - 1 x_r2_g15 - 1 x_r2_g27 - 1 x_r2_g30 - 2 x_r2_g34 - 2 x_r2_g35 - 2 x_r2_g40 - 1 x_r2_g45 - 1 x_r2_g52 - 1 x_r2_g53 - 1 x_r2_g61 - 2 x_r2_g73 - 1 x_r2_g83 - 1 x_r2_g85 - 1 x_r2_g91 - 1 x_r2_g101 - 2 x_r2_g105 - 1 x_r2_g106 - 1 x_r2_g111 - 1 x_r2_g112 - 1 x_r2_g118 - 1 x_r2_g119 - 1 x_r2_g130 - 1 x_r2_g133 - 1 x_r2_g135 - 1 x_r2_g147 - 2 x_r2_g162 - 1 x_r3_g21 - 1 x_r3_g23 - 1 x_r3_g24 - 1 x_r3_g25 - 1 x_r3_g26 - 1 x_r3_g31 - 1 x_r3_g39 - 2 x_r3_g42 - 1 x_r3_g51 - 1 x_r3_g53 - 1 x_r3_g60 - 1 x_r3_g62 - 1 x_r3_g66 - 1 x_r3_g68 - 1 x_r3_g73 - 1 x_r3_g83 - 2 x_r3_g89 - 1 x_r3_g96 - 2 x_r3_g100 - 2 x_r3_g117 - 1 x_r3_g124 - 1 x_r3_g125 - 1 x_r3_g154 - 1 x_r3_g156 - 1 x_r3_g158 - 2 x_r3_g161 - 1 x_r3_g166 - 1 p_r0_g4_h91_t80 - 1 p_r0_g19_h106_t80 - 1 p_r0_g39_h126_t80 - 1 p_r0_g56_h143_t80 - 1 p_r0_g72_h159_t80 - 1 p_r0_g85_h5_t80 - 1 p_r0_g91_h11_t80 - 1 p_r0_g119_h39_t80 - 1 p_r0_g136_h56_t80 - 1 p_r0_g146_h66_t80 - 1 p_r0_g159_h79_t80 - 1 p_r1_g1_h88_t80 - 1 p_r1_g40_h127_t80 - 1 p_r1_g42_h129_t80 - 1 p_r1_g61_h148_t80 - 1 p_r1_g68_h155_t80 - 1 p_r1_g74_h161_t80 - 1 p_r1_g76_h163_t80 - 1 p_r1_g109_h29_t80 - 1 p_r1_g141_h61_t80 - 1 p_r1_g148_h68_t80 - 1 p_r1_g162_h82_t80 - 1 p_r2_g32_h119_t80 - 1 p_r2_g52_h139_t80 - 1 p_r2_g74_h161_t80 - 1 p_r2_g93_h13_t80 - 1 p_r2_g101_h21_t80 - 1 p_r2_g112_h32_t80 - 1 p_r2_g133_h53_t80 - 1 p_r2_g141_h61_t80 - 1 p_r3_g31_h118_t80 - 1 p_r3_g38_h125_t80 - 1 p_r3_g62_h149_t80 - 1 p_r3_g66_h153_t80 - 1 p_r3_g69_h156_t80 - 1 p_r3_g118_h38_t80 - 1 p_r3_g149_h69_t80 - 1 p_r3_g153_h73_t80 = -56
 abs_pos_80: d_80 - u_80 <= 0
 abs_neg_80: - d_80 - u_80 <= 0
 max_def_80: u_80 - M <= 0
 cap_80: u_80 <= 1
 tier_M_cap: M <= 3
 weighted_cap: 1 u_3 + 10 u_5 + 1 u_8 + 1 u_9 + 1 u_12 + 1 u_21 + 10 u_27 + 1 u_29 + 1 u_34 + 1 u_36 + 1 u_39 + 1 u_40 + 1 u_42 + 1 u_44 + 1 u_47 + 1 u_50 + 1 u_56 + 1 u_64 + 1 u_67 + 1 u_70 + 1 u_71 + 1 u_75 + 1 u_80 <= 65
 flip_def: 1 F - 1 x_r0_g1 - 1 x_r0_g4 - 1 x_r0_g24 - 1 x_r0_g39 - 1 x_r0_g53 - 1 x_r0_g56 - 1 x_r0_g57 - 1 x_r0_g66 - 1 x_r0_g69 - 1 x_r0_g72 - 1 x_r0_g79 - 1 x_r0_g85 - 1 x_r0_g89 - 1 x_r0_g93 - 1 x_r0_g106 - 1 x_r0_g108 - 1 x_r0_g112 - 1 x_r0_g124 - 1 x_r0_g135 - 1 x_r0_g150 - 1 x_r1_g5 - 1 x_r1_g6 - 1 x_r1_g21 - 1 x_r1_g23 - 1 x_r1_g34 - 1 x_r1_g43 - 1 x_r1_g48 - 1 x_r1_g50 - 1 x_r1_g60 - 1 x_r1_g61 - 1 x_r1_g74 - 1 x_r1_g76 - 1 x_r1_g77 - 1 x_r1_g99 - 1 x_r1_g104 - 1 x_r1_g129 - 1 x_r1_g145 - 1 x_r1_g148 - 1 x_r1_g161 - 1 x_r1_g162 - 1 x_r2_g13 - 1 x_r2_g15 - 1 x_r2_g32 - 1 x_r2_g35 - 1 x_r2_g40 - 1 x_r2_g51 - 1 x_r2_g52 - 1 x_r2_g53 - 1 x_r2_g73 - 1 x_r2_g91 - 1 x_r2_g93 - 1 x_r2_g103 - 1 x_r2_g106 - 1 x_r2_g111 - 1 x_r2_g118 - 1 x_r2_g124 - 1 x_r2_g133 - 1 x_r2_g135 - 1 x_r2_g147 - 1 x_r2_g162 - 1 x_r3_g21 - 1 x_r3_g24 - 1 x_r3_g25 - 1 x_r3_g31 - 1 x_r3_g34 - 1 x_r3_g42 - 1 x_r3_g51 - 1 x_r3_g60 - 1 x_r3_g69 - 1 x_r3_g73 - 1 x_r3_g87 - 1 x_r3_g90 - 1 x_r3_g96 - 1 x_r3_g100 - 1 x_r3_g117 - 1 x_r3_g125 - 1 x_r3_g153 - 1 x_r3_g156 - 1 x_r3_g158 - 1 x_r3_g161 + 1 x_r0_g5 + 1 x_r0_g7 + 1 x_r0_g11 + 1 x_r0_g12 + 1 x_r0_g15 + 1 x_r0_g19 + 1 x_r0_g34 + 1 x_r0_g47 + 1 x_r0_g65 + 1 x_r0_g74 + 1 x_r0_g91 + 1 x_r0_g103 + 1 x_r0_g119 + 1 x_r0_g126 + 1 x_r0_g136 + 1 x_r0_g142 + 1 x_r0_g143 + 1 x_r0_g146 + 1 x_r0_g159 + 1 x_r0_g163 + 1 x_r1_g1 + 1 x_r1_g29 + 1 x_r1_g36 + 1 x_r1_g40 + 1 x_r1_g42 + 1 x_r1_g56 + 1 x_r1_g64 + 1 x_r1_g68 + 1 x_r1_g69 + 1 x_r1_g82 + 1 x_r1_g84 + 1 x_r1_g88 + 1 x_r1_g98 + 1 x_r1_g109 + 1 x_r1_g124 + 1 x_r1_g127 + 1 x_r1_g138 + 1 x_r1_g141 + 1 x_r1_g155 + 1 x_r1_g163 + 1 x_r2_g21 + 1 x_r2_g27 + 1 x_r2_g30 + 1 x_r2_g34 + 1 x_r2_g45 + 1 x_r2_g58 + 1 x_r2_g61 + 1 x_r2_g74 + 1 x_r2_g83 + 1 x_r2_g85 + 1 x_r2_g101 + 1 x_r2_g104 + 1 x_r2_g105 + 1 x_r2_g112 + 1 x_r2_g119 + 1 x_r2_g130 + 1 x_r2_g139 + 1 x_r2_g141 + 1 x_r2_g157 + 1 x_r2_g161 + 1 x_r3_g5 + 1 x_r3_g17 + 1 x_r3_g22 + 1 x_r3_g23 + 1 x_r3_g26 + 1 x_r3_g38 + 1 x_r3_g39 + 1 x_r3_g53 + 1 x_r3_g62 + 1 x_r3_g66 + 1 x_r3_g68 + 1 x_r3_g83 + 1 x_r3_g89 + 1 x_r3_g118 + 1 x_r3_g124 + 1 x_r3_g137 + 1 x_r3_g149 + 1 x_r3_g151 + 1 x_r3_g154 + 1 x_r3_g166 = 80
 flip_cap: F <= 6
Bounds
 d_3 free
 0 <= u_3
 d_5 free
 0 <= u_5
 d_8 free
 0 <= u_8
 d_9 free
 0 <= u_9
 d_12 free
 0 <= u_12
 d_21 free
 0 <= u_21
 d_27 free
 0 <= u_27
 d_29 free
 0 <= u_29
 d_34 free
 0 <= u_34
 d_36 free
 0 <= u_36
 d_39 free
 0 <= u_39
 d_40 free
 0 <= u_40
 d_42 free
 0 <= u_42
 d_44 free
 0 <= u_44
 d_47 free
 0 <= u_47
 d_50 free
 0 <= u_50
 d_56 free
 0 <= u_56
 d_64 free
 0 <= u_64
 d_67 free
 0 <= u_67
 d_70 free
 0 <= u_70
 d_71 free
 0 <= u_71
 d_75 free
 0 <= u_75
 d_80 free
 0 <= u_80
 0 <= M
 0 <= F
Binaries
 x_r0_g1
 x_r0_g4
 x_r0_g5
 x_r0_g7
 x_r0_g11
 x_r0_g12
 x_r0_g15
 x_r0_g19
 x_r0_g24
 x_r0_g34
 x_r0_g39
 x_r0_g47
 x_r0_g53
 x_r0_g56
 x_r0_g57
 x_r0_g65
 x_r0_g66
 x_r0_g69
 x_r0_g72
 x_r0_g74
 x_r0_g79
 x_r0_g85
 x_r0_g89
 x_r0_g91
 x_r0_g93
 x_r0_g103
 x_r0_g106
 x_r0_g108
 x_r0_g112
 x_r0_g119
 x_r0_g124
 x_r0_g126
 x_r0_g135
 x_r0_g136
 x_r0_g142
 x_r0_g143
 x_r0_g146
 x_r0_g150
 x_r0_g159
 x_r0_g163
 x_r1_g1
 x_r1_g5
 x_r1_g6
 x_r1_g21
 x_r1_g23
 x_r1_g29
 x_r1_g34
 x_r1_g36
 x_r1_g40
 x_r1_g42
 x_r1_g43
 x_r1_g48
 x_r1_g50
 x_r1_g56
 x_r1_g60
 x_r1_g61
 x_r1_g64
 x_r1_g68
 x_r1_g69
 x_r1_g74
 x_r1_g76
 x_r1_g77
 x_r1_g82
 x_r1_g84
 x_r1_g88
 x_r1_g98
 x_r1_g99
 x_r1_g104
 x_r1_g109
 x_r1_g124
 x_r1_g127
 x_r1_g129
 x_r1_g138
 x_r1_g141
 x_r1_g145
 x_r1_g148
 x_r1_g155
 x_r1_g161
 x_r1_g162
 x_r1_g163
 x_r2_g13
 x_r2_g15
 x_r2_g21
 x_r2_g27
 x_r2_g30
 x_r2_g32
 x_r2_g34
 x_r2_g35
 x_r2_g40
 x_r2_g45
 x_r2_g51
 x_r2_g52
 x_r2_g53
 x_r2_g58
 x_r2_g61
 x_r2_g73
 x_r2_g74
 x_r2_g83
 x_r2_g85
 x_r2_g91
 x_r2_g93
 x_r2_g101
 x_r2_g103
 x_r2_g104
 x_r2_g105
 x_r2_g106
 x_r2_g111
 x_r2_g112
 x_r2_g118
 x_r2_g119
 x_r2_g124
 x_r2_g130
 x_r2_g133
 x_r2_g135
 x_r2_g139
 x_r2_g141
 x_r2_g147
 x_r2_g157
 x_r2_g161
 x_r2_g162
 x_r3_g5
 x_r3_g17
 x_r3_g21
 x_r3_g22
 x_r3_g23
 x_r3_g24
 x_r3_g25
 x_r3_g26
 x_r3_g31
 x_r3_g34
 x_r3_g38
 x_r3_g39
 x_r3_g42
 x_r3_g51
 x_r3_g53
 x_r3_g60
 x_r3_g62
 x_r3_g66
 x_r3_g68
 x_r3_g69
 x_r3_g73
 x_r3_g83
 x_r3_g87
 x_r3_g89
 x_r3_g90
 x_r3_g96
 x_r3_g100
 x_r3_g117
 x_r3_g118
 x_r3_g124
 x_r3_g125
 x_r3_g137
 x_r3_g149
 x_r3_g151
 x_r3_g153
 x_r3_g154
 x_r3_g156
 x_r3_g158
 x_r3_g161
 x_r3_g166
 p_r0_g4_h1_t3
 p_r0_g7_h4_t3
 p_r0_g15_h12_t3
 p_r0_g56_h53_t3
 p_r0_g69_h66_t3
 p_r0_g72_h69_t3
 p_r0_g106_h103_t3
 p_r0_g146_h143_t3
 p_r1_g43_h40_t3
 p_r1_g64_h61_t3
 p_r1_g77_h74_t3
 p_r1_g127_h124_t3
 p_r1_g141_h138_t3
 p_r1_g148_h145_t3
 p_r2_g30_h27_t3
 p_r2_g35_h32_t3
 p_r2_g61_h58_t3
 p_r2_g104_h101_t3
 p_r2_g106_h103_t3
 p_r2_g133_h130_t3
 p_r3_g24_h21_t3
 p_r3_g25_h22_t3
 p_r3_g26_h23_t3
 p_r3_g34_h31_t3
 p_r3_g42_h39_t3
 p_r3_g69_h66_t3
 p_r3_g90_h87_t3
 p_r3_g154_h151_t3
 p_r3_g156_h153_t3
 p_r3_g161_h158_t3
 p_r0_g1_h163_t5
 p_r0_g12_h7_t5
 p_r0_g24_h19_t5
 p_r0_g39_h34_t5
 p_r0_g74_h69_t5
 p_r0_g79_h74_t5
 p_r0_g108_h103_t5
 p_r0_g124_h119_t5
 p_r1_g1_h163_t5
 p_r1_g6_h1_t5
 p_r1_g34_h29_t5
 p_r1_g48_h43_t5
 p_r1_g61_h56_t5
 p_r1_g69_h64_t5
 p_r1_g74_h69_t5
 p_r1_g82_h77_t5
 p_r1_g104_h99_t5
 p_r1_g109_h104_t5
 p_r1_g129_h124_t5
 p_r2_g32_h27_t5
 p_r2_g35_h30_t5
 p_r2_g40_h35_t5
 p_r2_g45_h40_t5
 p_r2_g58_h53_t5
 p_r2_g106_h101_t5
 p_r2_g111_h106_t5
 p_r2_g124_h119_t5
 p_r2_g135_h130_t5
 p_r2_g162_h157_t5
 p_r3_g22_h17_t5
 p_r3_g26_h21_t5
 p_r3_g31_h26_t5
 p_r3_g39_h34_t5
 p_r3_g73_h68_t5
 p_r3_g154_h149_t5
 p_r3_g156_h151_t5
 p_r3_g158_h153_t5
 p_r3_g161_h156_t5
 p_r3_g166_h161_t5
 p_r0_g4_h163_t8
 p_r0_g12_h4_t8
 p_r0_g15_h7_t8
 p_r0_g19_h11_t8
 p_r0_g47_h39_t8
 p_r0_g65_h57_t8
 p_r0_g74_h66_t8
 p_r0_g93_h85_t8
 p_r0_g143_h135_t8
 p_r0_g150_h142_t8
 p_r1_g29_h21_t8
 p_r1_g42_h34_t8
 p_r1_g48_h40_t8
 p_r1_g50_h42_t8
 p_r1_g56_h48_t8
 p_r1_g64_h56_t8
 p_r1_g68_h60_t8
 p_r1_g69_h61_t8
 p_r1_g76_h68_t8
 p_r1_g77_h69_t8
 p_r1_g82_h74_t8
 p_r1_g84_h76_t8
 p_r1_g163_h155_t8
 p_r2_g21_h13_t8
 p_r2_g35_h27_t8
 p_r2_g40_h32_t8
 p_r2_g53_h45_t8
 p_r2_g61_h53_t8
 p_r2_g91_h83_t8
 p_r2_g93_h85_t8
 p_r2_g101_h93_t8
 p_r2_g111_h103_t8
 p_r2_g112_h104_t8
 p_r2_g119_h111_t8
 p_r2_g141_h133_t8
 p_r2_g147_h139_t8
 p_r3_g25_h17_t8
 p_r3_g31_h23_t8
 p_r3_g34_h26_t8
 p_r3_g39_h31_t8
 p_r3_g42_h34_t8
 p_r3_g68_h60_t8
 p_r3_g125_h117_t8
 p_r3_g161_h153_t8
 p_r3_g166_h158_t8
 p_r0_g1_h159_t9
 p_r0_g5_h163_t9
 p_r0_g24_h15_t9
 p_r0_g56_h47_t9
 p_r0_g65_h56_t9
 p_r0_g66_h57_t9
 p_r0_g74_h65_t9
 p_r0_g112_h103_t9
 p_r0_g135_h126_t9
 p_r0_g159_h150_t9
 p_r1_g5_h163_t9
 p_r1_g43_h34_t9
 p_r1_g69_h60_t9
 p_r1_g77_h68_t9
 p_r1_g138_h129_t9
 p_r2_g30_h21_t9
 p_r2_g61_h52_t9
 p_r2_g83_h74_t9
 p_r2_g112_h103_t9
 p_r2_g133_h124_t9
 p_r2_g139_h130_t9
 p_r3_g26_h17_t9
 p_r3_g31_h22_t9
 p_r3_g34_h25_t9
 p_r3_g51_h42_t9
 p_r3_g60_h51_t9
 p_r3_g62_h53_t9
 p_r3_g69_h60_t9
 p_r3_g96_h87_t9
 p_r3_g158_h149_t9
 p_r0_g4_h159_t12
 p_r0_g19_h7_t12
 p_r0_g24_h12_t12
 p_r0_g65_h53_t12
 p_r0_g69_h57_t12
 p_r0_g91_h79_t12
 p_r0_g103_h91_t12
 p_r0_g124_h112_t12
 p_r0_g136_h124_t12
 p_r1_g6_h161_t12
 p_r1_g48_h36_t12
 p_r1_g60_h48_t12
 p_r1_g68_h56_t12
 p_r1_g76_h64_t12
 p_r1_g88_h76_t12
 p_r1_g141_h129_t12
 p_r2_g27_h15_t12
 p_r2_g52_h40_t12
 p_r2_g73_h61_t12
 p_r2_g85_h73_t12
 p_r2_g103_h91_t12
 p_r2_g105_h93_t12
 p_r2_g118_h106_t12
 p_r2_g124_h112_t12
 p_r2_g130_h118_t12
 p_r2_g147_h135_t12
 p_r3_g17_h5_t12
 p_r3_g34_h22_t12
 p_r3_g38_h26_t12
 p_r3_g51_h39_t12
 p_r3_g137_h125_t12
 p_r3_g149_h137_t12
 p_r3_g161_h149_t12
 p_r3_g166_h154_t12
 p_r0_g4_h150_t21
 p_r0_g74_h53_t21
 p_r0_g93_h72_t21
 p_r0_g106_h85_t21
 p_r0_g112_h91_t21
 p_r0_g124_h103_t21
 p_r0_g163_h142_t21
 p_r1_g42_h21_t21
 p_r1_g50_h29_t21
 p_r1_g61_h40_t21
 p_r1_g64_h43_t21
 p_r1_g69_h48_t21
 p_r1_g77_h56_t21
 p_r1_g82_h61_t21
 p_r1_g98_h77_t21
 p_r1_g109_h88_t21
 p_r1_g145_h124_t21
 p_r1_g148_h127_t21
 p_r1_g162_h141_t21
 p_r2_g15_h161_t21
 p_r2_g34_h13_t21
 p_r2_g51_h30_t21
 p_r2_g53_h32_t21
 p_r2_g61_h40_t21
 p_r2_g73_h52_t21
 p_r2_g74_h53_t21
 p_r2_g104_h83_t21
 p_r2_g106_h85_t21
 p_r2_g112_h91_t21
 p_r2_g124_h103_t21
 p_r2_g133_h112_t21
 p_r2_g139_h118_t21
 p_r2_g162_h141_t21
 p_r3_g5_h151_t21
 p_r3_g26_h5_t21
 p_r3_g38_h17_t21
 p_r3_g42_h21_t21
 p_r3_g60_h39_t21
 p_r3_g83_h62_t21
 p_r3_g87_h66_t21
 p_r3_g89_h68_t21
 p_r3_g90_h69_t21
 p_r3_g117_h96_t21
 p_r3_g158_h137_t21
 p_r0_g19_h159_t27
 p_r0_g34_h7_t27
 p_r0_g39_h12_t27
 p_r0_g66_h39_t27
 p_r0_g74_h47_t27
 p_r0_g93_h66_t27
 p_r0_g106_h79_t27
 p_r0_g112_h85_t27
 p_r0_g135_h108_t27
 p_r0_g146_h119_t27
 p_r0_g163_h136_t27
 p_r1_g1_h141_t27
 p_r1_g5_h145_t27
 p_r1_g21_h161_t27
 p_r1_g23_h163_t27
 p_r1_g48_h21_t27
 p_r1_g50_h23_t27
 p_r1_g56_h29_t27
 p_r1_g61_h34_t27
 p_r1_g69_h42_t27
 p_r1_g77_h50_t27
 p_r1_g88_h61_t27
 p_r1_g104_h77_t27
 p_r1_g109_h82_t27
 p_r2_g21_h161_t27
 p_r2_g40_h13_t27
 p_r2_g61_h34_t27
 p_r2_g85_h58_t27
 p_r2_g101_h74_t27
 p_r2_g112_h85_t27
 p_r2_g118_h91_t27
 p_r2_g130_h103_t27
 p_r2_g133_h106_t27
 p_r2_g139_h112_t27
 p_r2_g157_h130_t27
 p_r2_g162_h135_t27
 p_r3_g21_h161_t27
 p_r3_g26_h166_t27
 p_r3_g51_h24_t27
 p_r3_g53_h26_t27
 p_r3_g66_h39_t27
 p_r3_g69_h42_t27
 p_r3_g87_h60_t27
 p_r3_g89_h62_t27
 p_r3_g96_h69_t27
 p_r3_g100_h73_t27
 p_r3_g117_h90_t27
 p_r3_g151_h124_t27
 p_r0_g4_h142_t29
 p_r0_g5_h143_t29
 p_r0_g12_h150_t29
 p_r0_g34_h5_t29
 p_r0_g53_h24_t29
 p_r0_g85_h56_t29
 p_r0_g103_h74_t29
 p_r0_g108_h79_t29
 p_r0_g135_h106_t29
 p_r1_g23_h161_t29
 p_r1_g34_h5_t29
 p_r1_g50_h21_t29
 p_r1_g69_h40_t29
 p_r1_g77_h48_t29
 p_r1_g98_h69_t29
 p_r1_g127_h98_t29
 p_r1_g138_h109_t29
 p_r2_g61_h32_t29
 p_r2_g74_h45_t29
 p_r2_g103_h74_t29
 p_r2_g112_h83_t29
 p_r2_g130_h101_t29
 p_r2_g133_h104_t29
 p_r2_g135_h106_t29
 p_r2_g141_h112_t29
 p_r2_g147_h118_t29
 p_r2_g162_h133_t29
 p_r3_g23_h161_t29
 p_r3_g34_h5_t29
 p_r3_g51_h22_t29
 p_r3_g53_h24_t29
 p_r3_g60_h31_t29
 p_r3_g68_h39_t29
 p_r3_g89_h60_t29
 p_r3_g118_h89_t29
 p_r3_g125_h96_t29
 p_r3_g153_h124_t29
 p_r3_g154_h125_t29
 p_r3_g166_h137_t29
 p_r0_g39_h5_t34
 p_r0_g53_h19_t34
 p_r0_g91_h57_t34
 p_r0_g103_h69_t34
 p_r0_g106_h72_t34
 p_r0_g108_h74_t34
 p_r0_g119_h85_t34
 p_r0_g142_h108_t34
 p_r0_g146_h112_t34
 p_r1_g5_h138_t34
 p_r1_g29_h162_t34
 p_r1_g40_h6_t34
 p_r1_g68_h34_t34
 p_r1_g74_h40_t34
 p_r1_g76_h42_t34
 p_r1_g77_h43_t34
 p_r1_g82_h48_t34
 p_r1_g84_h50_t34
 p_r1_g98_h64_t34
 p_r1_g138_h104_t34
 p_r1_g161_h127_t34
 p_r1_g163_h129_t34
 p_r2_g61_h27_t34
 p_r2_g74_h40_t34
 p_r2_g85_h51_t34
 p_r2_g119_h85_t34
 p_r2_g135_h101_t34
 p_r2_g139_h105_t34
 p_r3_g21_h154_t34
 p_r3_g23_h156_t34
 p_r3_g25_h158_t34
 p_r3_g39_h5_t34
 p_r3_g51_h17_t34
 p_r3_g60_h26_t34
 p_r3_g68_h34_t34
 p_r3_g73_h39_t34
 p_r3_g87_h53_t34
 p_r3_g96_h62_t34
 p_r3_g100_h66_t34
 p_r3_g117_h83_t34
 p_r3_g124_h90_t34
 p_r3_g151_h117_t34
 p_r3_g158_h124_t34
 p_r0_g4_h135_t36
 p_r0_g5_h136_t36
 p_r0_g11_h142_t36
 p_r0_g12_h143_t36
 p_r0_g15_h146_t36
 p_r0_g19_h150_t36
 p_r0_g47_h11_t36
 p_r0_g89_h53_t36
 p_r0_g93_h57_t36
 p_r0_g108_h72_t36
 p_r0_g142_h106_t36
 p_r1_g42_h6_t36
 p_r1_g76_h40_t36
 p_r1_g84_h48_t36
 p_r1_g104_h68_t36
 p_r1_g124_h88_t36
 p_r1_g145_h109_t36
 p_r1_g163_h127_t36
 p_r2_g30_h161_t36
 p_r2_g51_h15_t36
 p_r2_g119_h83_t36
 p_r2_g139_h103_t36
 p_r2_g141_h105_t36
 p_r2_g147_h111_t36
 p_r3_g22_h153_t36
 p_r3_g23_h154_t36
 p_r3_g25_h156_t36
 p_r3_g53_h17_t36
 p_r3_g60_h24_t36
 p_r3_g62_h26_t36
 p_r3_g87_h51_t36
 p_r3_g89_h53_t36
 p_r3_g96_h60_t36
 p_r3_g125_h89_t36
 p_r3_g153_h117_t36
 p_r3_g154_h118_t36
 p_r3_g161_h125_t36
 p_r0_g7_h135_t39
 p_r0_g15_h143_t39
 p_r0_g108_h69_t39
 p_r0_g124_h85_t39
 p_r0_g142_h103_t39
 p_r0_g163_h124_t39
 p_r1_g1_h129_t39
 p_r1_g34_h162_t39
 p_r1_g40_h1_t39
 p_r1_g60_h21_t39
 p_r1_g68_h29_t39
 p_r1_g82_h43_t39
 p_r1_g99_h60_t39
 p_r1_g127_h88_t39
 p_r1_g138_h99_t39
 p_r1_g148_h109_t39
 p_r1_g163_h124_t39
 p_r2_g13_h141_t39
 p_r2_g34_h162_t39
 p_r2_g52_h13_t39
 p_r2_g73_h34_t39
 p_r2_g74_h35_t39
 p_r2_g91_h52_t39
 p_r2_g112_h73_t39
 p_r2_g124_h85_t39
 p_r2_g130_h91_t39
 p_r2_g157_h118_t39
 p_r3_g21_h149_t39
 p_r3_g23_h151_t39
 p_r3_g25_h153_t39
 p_r3_g26_h154_t39
 p_r3_g38_h166_t39
 p_r3_g60_h21_t39
 p_r3_g62_h23_t39
 p_r3_g73_h34_t39
 p_r3_g90_h51_t39
 p_r3_g156_h117_t39
 p_r0_g15_h142_t40
 p_r0_g19_h146_t40
 p_r0_g47_h7_t40
 p_r0_g74_h34_t40
 p_r0_g79_h39_t40
 p_r0_g93_h53_t40
 p_r0_g106_h66_t40
 p_r0_g112_h72_t40
 p_r0_g119_h79_t40
 p_r0_g143_h103_t40
 p_r0_g146_h106_t40
 p_r0_g159_h119_t40
 p_r1_g21_h148_t40
 p_r1_g34_h161_t40
 p_r1_g36_h163_t40
 p_r1_g61_h21_t40
 p_r1_g69_h29_t40
 p_r1_g74_h34_t40
 p_r1_g76_h36_t40
 p_r1_g82_h42_t40
 p_r1_g88_h48_t40
 p_r1_g104_h64_t40
 p_r1_g109_h69_t40
 p_r1_g124_h84_t40
 p_r1_g138_h98_t40
 p_r2_g30_h157_t40
 p_r2_g34_h161_t40
 p_r2_g35_h162_t40
 p_r2_g53_h13_t40
 p_r2_g61_h21_t40
 p_r2_g74_h34_t40
 p_r2_g85_h45_t40
 p_r2_g91_h51_t40
 p_r2_g93_h53_t40
 p_r2_g101_h61_t40
 p_r2_g133_h93_t40
 p_r2_g141_h101_t40
 p_r3_g22_h149_t40
 p_r3_g24_h151_t40
 p_r3_g26_h153_t40
 p_r3_g31_h158_t40
 p_r3_g34_h161_t40
 p_r3_g39_h166_t40
 p_r3_g62_h22_t40
 p_r3_g66_h26_t40
 p_r3_g100_h60_t40
 p_r3_g158_h118_t40
 p_r0_g1_h126_t42
 p_r0_g11_h136_t42
 p_r0_g34_h159_t42
 p_r0_g47_h5_t42
 p_r0_g53_h11_t42
 p_r0_g57_h15_t42
 p_r0_g66_h24_t42
 p_r0_g89_h47_t42
 p_r0_g108_h66_t42
 p_r0_g135_h93_t42
 p_r0_g150_h108_t42
 p_r1_g23_h148_t42
 p_r1_g36_h161_t42
 p_r1_g43_h1_t42
 p_r1_g48_h6_t42
 p_r1_g76_h34_t42
 p_r1_g82_h40_t42
 p_r1_g84_h42_t42
 p_r1_g98_h56_t42
 p_r1_g124_h82_t42
 p_r1_g141_h99_t42
 p_r2_g32_h157_t42
 p_r2_g74_h32_t42
 p_r2_g93_h51_t42
 p_r2_g103_h61_t42
 p_r2_g133_h91_t42
 p_r2_g135_h93_t42
 p_r2_g147_h105_t42
 p_r2_g161_h119_t42
 p_r3_g24_h149_t42
 p_r3_g26_h151_t42
 p_r3_g31_h156_t42
 p_r3_g66_h24_t42
 p_r3_g68_h26_t42
 p_r3_g73_h31_t42
 p_r3_g125_h83_t42
 p_r3_g166_h124_t42
 p_r0_g1_h124_t44
 p_r0_g12_h135_t44
 p_r0_g19_h142_t44
 p_r0_g56_h12_t44
 p_r0_g91_h47_t44
 p_r0_g135_h91_t44
 p_r0_g150_h106_t44
 p_r0_g163_h119_t44
 p_r1_g1_h124_t44
 p_r1_g6_h129_t44
 p_r1_g40_h163_t44
 p_r1_g50_h6_t44
 p_r1_g84_h40_t44
 p_r1_g104_h60_t44
 p_r1_g148_h104_t44
 p_r2_g34_h157_t44
 p_r2_g74_h30_t44
 p_r2_g105_h61_t44
 p_r2_g118_h74_t44
 p_r2_g135_h91_t44
 p_r2_g147_h103_t44
 p_r2_g162_h118_t44
 p_r3_g26_h149_t44
 p_r3_g31_h154_t44
 p_r3_g38_h161_t44
 p_r3_g66_h22_t44
 p_r3_g68_h24_t44
 p_r3_g69_h25_t44
 p_r3_g83_h39_t44
 p_r3_g117_h73_t44
 p_r3_g161_h117_t44
 p_r0_g4_h124_t47
 p_r0_g15_h135_t47
 p_r0_g39_h159_t47
 p_r0_g66_h19_t47
 p_r0_g103_h56_t47
 p_r0_g112_h65_t47
 p_r0_g119_h72_t47
 p_r0_g126_h79_t47
 p_r0_g136_h89_t47
 p_r0_g150_h103_t47
 p_r0_g159_h112_t47
 p_r1_g21_h141_t47
 p_r1_g42_h162_t47
 p_r1_g43_h163_t47
 p_r1_g48_h1_t47
 p_r1_g68_h21_t47
 p_r1_g76_h29_t47
 p_r1_g124_h77_t47
 p_r1_g129_h82_t47
 p_r1_g145_h98_t47
 p_r2_g13_h133_t47
 p_r2_g15_h135_t47
 p_r2_g21_h141_t47
 p_r2_g27_h147_t47
 p_r2_g74_h27_t47
 p_r2_g105_h58_t47
 p_r2_g130_h83_t47
 p_r3_g5_h125_t47
 p_r3_g17_h137_t47
 p_r3_g31_h151_t47
 p_r3_g34_h154_t47
 p_r3_g38_h158_t47
 p_r3_g68_h21_t47
 p_r3_g69_h22_t47
 p_r3_g73_h26_t47
 p_r3_g89_h42_t47
 p_r3_g100_h53_t47
 p_r3_g137_h90_t47
 p_r0_g7_h124_t50
 p_r0_g19_h136_t50
 p_r0_g57_h7_t50
 p_r0_g65_h15_t50
 p_r0_g69_h19_t50
 p_r0_g74_h24_t50
 p_r0_g89_h39_t50
 p_r0_g103_h53_t50
 p_r0_g106_h56_t50
 p_r0_g119_h69_t50
 p_r0_g124_h74_t50
 p_r0_g135_h85_t50
 p_r0_g143_h93_t50
 p_r1_g21_h138_t50
 p_r1_g56_h6_t50
 p_r1_g84_h34_t50
 p_r1_g98_h48_t50
 p_r1_g124_h74_t50
 p_r1_g127_h77_t50
 p_r1_g138_h88_t50
 p_r1_g148_h98_t50
 p_r2_g13_h130_t50
 p_r2_g30_h147_t50
 p_r2_g40_h157_t50
 p_r2_g45_h162_t50
 p_r2_g85_h35_t50
 p_r2_g101_h51_t50
 p_r2_g103_h53_t50
 p_r2_g111_h61_t50
 p_r2_g124_h74_t50
 p_r2_g133_h83_t50
 p_r2_g135_h85_t50
 p_r2_g141_h91_t50
 p_r2_g161_h111_t50
 p_r2_g162_h112_t50
 p_r3_g34_h151_t50
 p_r3_g39_h156_t50
 p_r3_g73_h23_t50
 p_r3_g89_h39_t50
 p_r3_g118_h68_t50
 p_r3_g137_h87_t50
 p_r0_g1_h112_t56
 p_r0_g15_h126_t56
 p_r0_g24_h135_t56
 p_r0_g39_h150_t56
 p_r0_g57_h1_t56
 p_r0_g103_h47_t56
 p_r0_g112_h56_t56
 p_r0_g135_h79_t56
 p_r0_g159_h103_t56
 p_r1_g34_h145_t56
 p_r1_g50_h161_t56
 p_r1_g61_h5_t56
 p_r1_g77_h21_t56
 p_r1_g98_h42_t56
 p_r1_g99_h43_t56
 p_r1_g104_h48_t56
 p_r1_g124_h68_t56
 p_r1_g138_h82_t56
 p_r1_g155_h99_t56
 p_r2_g13_h124_t56
 p_r2_g30_h141_t56
 p_r2_g51_h162_t56
 p_r2_g83_h27_t56
 p_r2_g91_h35_t56
 p_r2_g101_h45_t56
 p_r2_g130_h74_t56
 p_r2_g139_h83_t56
 p_r2_g141_h85_t56
 p_r2_g147_h91_t56
 p_r2_g157_h101_t56
 p_r2_g161_h105_t56
 p_r2_g162_h106_t56
 p_r3_g26_h137_t56
 p_r3_g38_h149_t56
 p_r3_g42_h153_t56
 p_r3_g73_h17_t56
 p_r3_g87_h31_t56
 p_r3_g90_h34_t56
 p_r3_g118_h62_t56
 p_r3_g124_h68_t56
 p_r3_g125_h69_t56
 p_r3_g156_h100_t56
 p_r0_g5_h108_t64
 p_r0_g39_h142_t64
 p_r0_g47_h150_t64
 p_r0_g56_h159_t64
 p_r0_g65_h1_t64
 p_r0_g69_h5_t64
 p_r0_g79_h15_t64
 p_r0_g103_h39_t64
 p_r0_g136_h72_t64
 p_r0_g143_h79_t64
 p_r1_g1_h104_t64
 p_r1_g6_h109_t64
 p_r1_g21_h124_t64
 p_r1_g42_h145_t64
 p_r1_g60_h163_t64
 p_r1_g69_h5_t64
 p_r1_g98_h34_t64
 p_r1_g104_h40_t64
 p_r1_g124_h60_t64
 p_r1_g138_h74_t64
 p_r1_g141_h77_t64
 p_r1_g148_h84_t64
 p_r1_g162_h98_t64
 p_r1_g163_h99_t64
 p_r2_g15_h118_t64
 p_r2_g21_h124_t64
 p_r2_g27_h130_t64
 p_r2_g30_h133_t64
 p_r2_g32_h135_t64
 p_r2_g58_h161_t64
 p_r2_g85_h21_t64
 p_r2_g91_h27_t64
 p_r2_g104_h40_t64
 p_r2_g147_h83_t64
 p_r2_g157_h93_t64
 p_r3_g21_h124_t64
 p_r3_g22_h125_t64
 p_r3_g34_h137_t64
 p_r3_g51_h154_t64
 p_r3_g53_h156_t64
 p_r3_g69_h5_t64
 p_r3_g87_h23_t64
 p_r3_g89_h25_t64
 p_r3_g90_h26_t64
 p_r3_g117_h53_t64
 p_r3_g124_h60_t64
 p_r3_g137_h73_t64
 p_r3_g151_h87_t64
 p_r3_g153_h89_t64
 p_r3_g154_h90_t64
 p_r0_g12_h112_t67
 p_r0_g19_h119_t67
 p_r0_g24_h124_t67
 p_r0_g72_h5_t67
 p_r0_g74_h7_t67
 p_r0_g79_h12_t67
 p_r0_g91_h24_t67
 p_r0_g106_h39_t67
 p_r0_g124_h57_t67
 p_r0_g136_h69_t67
 p_r0_g146_h79_t67
 p_r1_g29_h129_t67
 p_r1_g48_h148_t67
 p_r1_g61_h161_t67
 p_r1_g68_h1_t67
 p_r1_g88_h21_t67
 p_r1_g109_h42_t67
 p_r1_g127_h60_t67
 p_r1_g141_h74_t67
 p_r1_g155_h88_t67
 p_r2_g30_h130_t67
 p_r2_g35_h135_t67
 p_r2_g61_h161_t67
 p_r2_g101_h34_t67
 p_r2_g112_h45_t67
 p_r2_g118_h51_t67
 p_r2_g119_h52_t67
 p_r2_g141_h74_t67
 p_r3_g17_h117_t67
 p_r3_g24_h124_t67
 p_r3_g25_h125_t67
 p_r3_g51_h151_t67
 p_r3_g53_h153_t67
 p_r3_g66_h166_t67
 p_r3_g89_h22_t67
 p_r3_g90_h23_t67
 p_r3_g118_h51_t67
 p_r3_g154_h87_t67
 p_r3_g156_h89_t67
 p_r0_g11_h108_t70
 p_r0_g15_h112_t70
 p_r0_g39_h136_t70
 p_r0_g53_h150_t70
 p_r0_g66_h163_t70
 p_r0_g74_h4_t70
 p_r0_g85_h15_t70
 p_r0_g89_h19_t70
 p_r0_g126_h56_t70
 p_r0_g135_h65_t70
 p_r0_g136_h66_t70
 p_r0_g142_h72_t70
 p_r0_g159_h89_t70
 p_r0_g163_h93_t70
 p_r1_g1_h98_t70
 p_r1_g48_h145_t70
 p_r1_g64_h161_t70
 p_r1_g76_h6_t70
 p_r1_g99_h29_t70
 p_r1_g104_h34_t70
 p_r1_g138_h68_t70
 p_r2_g15_h112_t70
 p_r2_g21_h118_t70
 p_r2_g27_h124_t70
 p_r2_g83_h13_t70
 p_r2_g85_h15_t70
 p_r2_g91_h21_t70
 p_r2_g104_h34_t70
 p_r2_g105_h35_t70
 p_r2_g161_h91_t70
 p_r3_g21_h118_t70
 p_r3_g69_h166_t70
 p_r3_g87_h17_t70
 p_r3_g96_h26_t70
 p_r3_g153_h83_t70
 p_r3_g166_h96_t70
 p_r0_g7_h103_t71
 p_r0_g12_h108_t71
 p_r0_g39_h135_t71
 p_r0_g47_h143_t71
 p_r0_g72_h1_t71
 p_r0_g124_h53_t71
 p_r0_g136_h65_t71
 p_r0_g143_h72_t71
 p_r0_g150_h79_t71
 p_r1_g42_h138_t71
 p_r1_g76_h5_t71
 p_r1_g77_h6_t71
 p_r1_g127_h56_t71
 p_r1_g145_h74_t71
 p_r1_g148_h77_t71
 p_r1_g155_h84_t71
 p_r2_g15_h111_t71
 p_r2_g34_h130_t71
 p_r2_g45_h141_t71
 p_r2_g51_h147_t71
 p_r2_g61_h157_t71
 p_r2_g101_h30_t71
 p_r2_g103_h32_t71
 p_r2_g105_h34_t71
 p_r2_g106_h35_t71
 p_r2_g111_h40_t71
 p_r2_g124_h53_t71
 p_r2_g162_h91_t71
 p_r3_g21_h117_t71
 p_r3_g22_h118_t71
 p_r3_g53_h149_t71
 p_r3_g60_h156_t71
 p_r3_g62_h158_t71
 p_r3_g96_h25_t71
 p_r3_g124_h53_t71
 p_r3_g137_h66_t71
 p_r3_g154_h83_t71
 p_r3_g158_h87_t71
 p_r3_g161_h90_t71
 p_r0_g1_h93_t75
 p_r0_g11_h103_t75
 p_r0_g34_h126_t75
 p_r0_g79_h4_t75
 p_r1_g6_h98_t75
 p_r1_g56_h148_t75
 p_r1_g69_h161_t75
 p_r1_g76_h1_t75
 p_r1_g98_h23_t75
 p_r1_g104_h29_t75
 p_r1_g109_h34_t75
 p_r1_g163_h88_t75
 p_r2_g13_h105_t75
 p_r2_g27_h119_t75
 p_r2_g32_h124_t75
 p_r2_g105_h30_t75
 p_r2_g133_h58_t75
 p_r3_g25_h117_t75
 p_r3_g26_h118_t75
 p_r3_g62_h154_t75
 p_r3_g66_h158_t75
 p_r3_g69_h161_t75
 p_r3_g96_h21_t75
 p_r3_g100_h25_t75
 p_r3_g117_h42_t75
 p_r3_g137_h62_t75
 p_r3_g158_h83_t75
 p_r0_g4_h91_t80
 p_r0_g19_h106_t80
 p_r0_g39_h126_t80
 p_r0_g56_h143_t80
 p_r0_g72_h159_t80
 p_r0_g85_h5_t80
 p_r0_g91_h11_t80
 p_r0_g119_h39_t80
 p_r0_g136_h56_t80
 p_r0_g146_h66_t80
 p_r0_g159_h79_t80
 p_r1_g1_h88_t80
 p_r1_g40_h127_t80
 p_r1_g42_h129_t80
 p_r1_g61_h148_t80
 p_r1_g68_h155_t80
 p_r1_g74_h161_t80
 p_r1_g76_h163_t80
 p_r1_g109_h29_t80
 p_r1_g141_h61_t80
 p_r1_g148_h68_t80
 p_r1_g162_h82_t80
 p_r2_g32_h119_t80
 p_r2_g52_h139_t80
 p_r2_g74_h161_t80
 p_r2_g93_h13_t80
 p_r2_g101_h21_t80
 p_r2_g112_h32_t80
 p_r2_g133_h53_t80
 p_r2_g141_h61_t80
 p_r3_g31_h118_t80
 p_r3_g38_h125_t80
 p_r3_g62_h149_t80
 p_r3_g66_h153_t80
 p_r3_g69_h156_t80
 p_r3_g118_h38_t80
 p_r3_g149_h69_t80
 p_r3_g153_h73_t80
Generals
 d_3
 d_5
 d_8
 d_9
 d_12
 d_21
 d_27
 d_29
 d_34
 d_36
 d_39
 d_40
 d_42
 d_44
 d_47
 d_50
 d_56
 d_64
 d_67
 d_70
 d_71
 d_75
 d_80
 u_3
 u_5
 u_8
 u_9
 u_12
 u_21
 u_27
 u_29
 u_34
 u_36
 u_39
 u_40
 u_42
 u_44
 u_47
 u_50
 u_56
 u_64
 u_67
 u_70
 u_71
 u_75
 u_80
 M
 F
End
