* #variable= 677 #constraint= 1541
* int d_1 d_22 d_42 d_43 d_46 d_47 d_64 d_66 d_67 d_68 d_73 d_80 u_1 u_22 u_42 u_43 u_46 u_47 u_64 u_66 u_67 u_68 u_73 u_80 M F ;
min: 1 M ;
1 x_r0_g2 1 x_r0_g8 1 x_r0_g16 1 x_r0_g18 1 x_r0_g25 1 x_r0_g30 1 x_r0_g31 1 x_r0_g34 1 x_r0_g35 1 x_r0_g38 1 x_r0_g39 1 x_r0_g40 1 x_r0_g41 1 x_r0_g44 1 x_r0_g45 1 x_r0_g46 1 x_r0_g49 1 x_r0_g54 1 x_r0_g58 1 x_r0_g65 1 x_r0_g89 1 x_r0_g99 1 x_r0_g105 1 x_r0_g106 1 x_r0_g111 1 x_r0_g112 1 x_r0_g113 1 x_r0_g116 1 x_r0_g117 1 x_r0_g118 1 x_r0_g131 1 x_r0_g132 1 x_r0_g133 1 x_r0_g135 1 x_r0_g138 1 x_r0_g143 1 x_r0_g146 1 x_r0_g150 1 x_r0_g154 1 x_r0_g155 = 20 ;
1 x_r1_g0 1 x_r1_g15 1 x_r1_g17 1 x_r1_g18 1 x_r1_g19 1 x_r1_g20 1 x_r1_g28 1 x_r1_g29 1 x_r1_g33 1 x_r1_g35 1 x_r1_g41 1 x_r1_g43 1 x_r1_g46 1 x_r1_g48 1 x_r1_g49 1 x_r1_g58 1 x_r1_g62 1 x_r1_g67 1 x_r1_g82 1 x_r1_g83 1 x_r1_g84 1 x_r1_g85 1 x_r1_g91 1 x_r1_g92 1 x_r1_g95 1 x_r1_g97 1 x_r1_g98 1 x_r1_g100 1 x_r1_g115 1 x_r1_g116 1 x_r1_g118 1 x_r1_g119 1 x_r1_g125 1 x_r1_g130 1 x_r1_g131 1 x_r1_g132 1 x_r1_g138 1 x_r1_g154 1 x_r1_g158 1 x_r1_g164 = 20 ;
1 x_r2_g1 1 x_r2_g3 1 x_r2_g4 1 x_r2_g5 1 x_r2_g6 1 x_r2_g7 1 x_r2_g8 1 x_r2_g14 1 x_r2_g15 1 x_r2_g18 1 x_r2_g21 1 x_r2_g25 1 x_r2_g28 1 x_r2_g42 1 x_r2_g46 1 x_r2_g47 1 x_r2_g48 1 x_r2_g49 1 x_r2_g56 1 x_r2_g58 1 x_r2_g76 1 x_r2_g79 1 x_r2_g81 1 x_r2_g94 1 x_r2_g98 1 x_r2_g111 1 x_r2_g117 1 x_r2_g118 1 x_r2_g119 1 x_r2_g122 1 x_r2_g132 1 x_r2_g134 1 x_r2_g135 1 x_r2_g138 1 x_r2_g141 1 x_r2_g145 1 x_r2_g146 1 x_r2_g149 1 x_r2_g162 1 x_r2_g166 = 20 ;
1 x_r3_g0 1 x_r3_g1 1 x_r3_g3 1 x_r3_g5 1 x_r3_g13 1 x_r3_g17 1 x_r3_g21 1 x_r3_g23 1 x_r3_g26 1 x_r3_g31 1 x_r3_g42 1 x_r3_g45 1 x_r3_g46 1 x_r3_g52 1 x_r3_g55 1 x_r3_g56 1 x_r3_g58 1 x_r3_g59 1 x_r3_g63 1 x_r3_g66 1 x_r3_g67 1 x_r3_g68 1 x_r3_g74 1 x_r3_g78 1 x_r3_g81 1 x_r3_g84 1 x_r3_g88 1 x_r3_g94 1 x_r3_g97 1 x_r3_g110 1 x_r3_g112 1 x_r3_g117 1 x_r3_g122 1 x_r3_g133 1 x_r3_g134 1 x_r3_g136 1 x_r3_g139 1 x_r3_g146 1 x_r3_g161 1 x_r3_g165 = 20 ;
1 p_r0_g31_h30_t1 -1 x_r0_g31 <= 0 ;
1 p_r0_g31_h30_t1 -1 x_r0_g30 <= 0 ;
1 p_r0_g31_h30_t1 -1 x_r0_g31 -1 x_r0_g30 >= -1 ;
1 p_r0_g35_h34_t1 -1 x_r0_g35 <= 0 ;
1 p_r0_g35_h34_t1 -1 x_r0_g34 <= 0 ;
1 p_r0_g35_h34_t1 -1 x_r0_g35 -1 x_r0_g34 >= -1 ;
1 p_r0_g39_h38_t1 -1 x_r0_g39 <= 0 ;
1 p_r0_g39_h38_t1 -1 x_r0_g38 <= 0 ;
1 p_r0_g39_h38_t1 -1 x_r0_g39 -1 x_r0_g38 >= -1 ;
1 p_r0_g40_h39_t1 -1 x_r0_g40 <= 0 ;
1 p_r0_g40_h39_t1 -1 x_r0_g39 <= 0 ;
1 p_r0_g40_h39_t1 -1 x_r0_g40 -1 x_r0_g39 >= -1 ;
1 p_r0_g41_h40_t1 -1 x_r0_g41 <= 0 ;
1 p_r0_g41_h40_t1 -1 x_r0_g40 <= 0 ;
1 p_r0_g41_h40_t1 -1 x_r0_g41 -1 x_r0_g40 >= -1 ;
1 p_r0_g45_h44_t1 -1 x_r0_g45 <= 0 ;
1 p_r0_g45_h44_t1 -1 x_r0_g44 <= 0 ;
1 p_r0_g45_h44_t1 -1 x_r0_g45 -1 x_r0_g44 >= -1 ;
1 p_r0_g46_h45_t1 -1 x_r0_g46 <= 0 ;
1 p_r0_g46_h45_t1 -1 x_r0_g45 <= 0 ;
1 p_r0_g46_h45_t1 -1 x_r0_g46 -1 x_r0_g45 >= -1 ;
1 p_r0_g106_h105_t1 -1 x_r0_g106 <= 0 ;
1 p_r0_g106_h105_t1 -1 x_r0_g105 <= 0 ;
1 p_r0_g106_h105_t1 -1 x_r0_g106 -1 x_r0_g105 >= -1 ;
1 p_r0_g112_h111_t1 -1 x_r0_g112 <= 0 ;
1 p_r0_g112_h111_t1 -1 x_r0_g111 <= 0 ;
1 p_r0_g112_h111_t1 -1 x_r0_g112 -1 x_r0_g111 >= -1 ;
1 p_r0_g113_h112_t1 -1 x_r0_g113 <= 0 ;
1 p_r0_g113_h112_t1 -1 x_r0_g112 <= 0 ;
1 p_r0_g113_h112_t1 -1 x_r0_g113 -1 x_r0_g112 >= -1 ;
1 p_r0_g117_h116_t1 -1 x_r0_g117 <= 0 ;
1 p_r0_g117_h116_t1 -1 x_r0_g116 <= 0 ;
1 p_r0_g117_h116_t1 -1 x_r0_g117 -1 x_r0_g116 >= -1 ;
1 p_r0_g118_h117_t1 -1 x_r0_g118 <= 0 ;
1 p_r0_g118_h117_t1 -1 x_r0_g117 <= 0 ;
1 p_r0_g118_h117_t1 -1 x_r0_g118 -1 x_r0_g117 >= -1 ;
1 p_r0_g132_h131_t1 -1 x_r0_g132 <= 0 ;
1 p_r0_g132_h131_t1 -1 x_r0_g131 <= 0 ;
1 p_r0_g132_h131_t1 -1 x_r0_g132 -1 x_r0_g131 >= -1 ;
1 p_r0_g133_h132_t1 -1 x_r0_g133 <= 0 ;
1 p_r0_g133_h132_t1 -1 x_r0_g132 <= 0 ;
1 p_r0_g133_h132_t1 -1 x_r0_g133 -1 x_r0_g132 >= -1 ;
1 p_r0_g155_h154_t1 -1 x_r0_g155 <= 0 ;
1 p_r0_g155_h154_t1 -1 x_r0_g154 <= 0 ;
1 p_r0_g155_h154_t1 -1 x_r0_g155 -1 x_r0_g154 >= -1 ;
1 p_r1_g18_h17_t1 -1 x_r1_g18 <= 0 ;
1 p_r1_g18_h17_t1 -1 x_r1_g17 <= 0 ;
1 p_r1_g18_h17_t1 -1 x_r1_g18 -1 x_r1_g17 >= -1 ;
1 p_r1_g19_h18_t1 -1 x_r1_g19 <= 0 ;
1 p_r1_g19_h18_t1 -1 x_r1_g18 <= 0 ;
1 p_r1_g19_h18_t1 -1 x_r1_g19 -1 x_r1_g18 >= -1 ;
1 p_r1_g20_h19_t1 -1 x_r1_g20 <= 0 ;
1 p_r1_g20_h19_t1 -1 x_r1_g19 <= 0 ;
1 p_r1_g20_h19_t1 -1 x_r1_g20 -1 x_r1_g19 >= -1 ;
1 p_r1_g29_h28_t1 -1 x_r1_g29 <= 0 ;
1 p_r1_g29_h28_t1 -1 x_r1_g28 <= 0 ;
1 p_r1_g29_h28_t1 -1 x_r1_g29 -1 x_r1_g28 >= -1 ;
1 p_r1_g49_h48_t1 -1 x_r1_g49 <= 0 ;
1 p_r1_g49_h48_t1 -1 x_r1_g48 <= 0 ;
1 p_r1_g49_h48_t1 -1 x_r1_g49 -1 x_r1_g48 >= -1 ;
1 p_r1_g83_h82_t1 -1 x_r1_g83 <= 0 ;
1 p_r1_g83_h82_t1 -1 x_r1_g82 <= 0 ;
1 p_r1_g83_h82_t1 -1 x_r1_g83 -1 x_r1_g82 >= -1 ;
1 p_r1_g84_h83_t1 -1 x_r1_g84 <= 0 ;
1 p_r1_g84_h83_t1 -1 x_r1_g83 <= 0 ;
1 p_r1_g84_h83_t1 -1 x_r1_g84 -1 x_r1_g83 >= -1 ;
1 p_r1_g85_h84_t1 -1 x_r1_g85 <= 0 ;
1 p_r1_g85_h84_t1 -1 x_r1_g84 <= 0 ;
1 p_r1_g85_h84_t1 -1 x_r1_g85 -1 x_r1_g84 >= -1 ;
1 p_r1_g92_h91_t1 -1 x_r1_g92 <= 0 ;
1 p_r1_g92_h91_t1 -1 x_r1_g91 <= 0 ;
1 p_r1_g92_h91_t1 -1 x_r1_g92 -1 x_r1_g91 >= -1 ;
1 p_r1_g98_h97_t1 -1 x_r1_g98 <= 0 ;
1 p_r1_g98_h97_t1 -1 x_r1_g97 <= 0 ;
1 p_r1_g98_h97_t1 -1 x_r1_g98 -1 x_r1_g97 >= -1 ;
1 p_r1_g116_h115_t1 -1 x_r1_g116 <= 0 ;
1 p_r1_g116_h115_t1 -1 x_r1_g115 <= 0 ;
1 p_r1_g116_h115_t1 -1 x_r1_g116 -1 x_r1_g115 >= -1 ;
1 p_r1_g119_h118_t1 -1 x_r1_g119 <= 0 ;
1 p_r1_g119_h118_t1 -1 x_r1_g118 <= 0 ;
1 p_r1_g119_h118_t1 -1 x_r1_g119 -1 x_r1_g118 >= -1 ;
1 p_r1_g131_h130_t1 -1 x_r1_g131 <= 0 ;
1 p_r1_g131_h130_t1 -1 x_r1_g130 <= 0 ;
1 p_r1_g131_h130_t1 -1 x_r1_g131 -1 x_r1_g130 >= -1 ;
1 p_r1_g132_h131_t1 -1 x_r1_g132 <= 0 ;
1 p_r1_g132_h131_t1 -1 x_r1_g131 <= 0 ;
1 p_r1_g132_h131_t1 -1 x_r1_g132 -1 x_r1_g131 >= -1 ;
1 p_r2_g4_h3_t1 -1 x_r2_g4 <= 0 ;
1 p_r2_g4_h3_t1 -1 x_r2_g3 <= 0 ;
1 p_r2_g4_h3_t1 -1 x_r2_g4 -1 x_r2_g3 >= -1 ;
1 p_r2_g5_h4_t1 -1 x_r2_g5 <= 0 ;
1 p_r2_g5_h4_t1 -1 x_r2_g4 <= 0 ;
1 p_r2_g5_h4_t1 -1 x_r2_g5 -1 x_r2_g4 >= -1 ;
1 p_r2_g6_h5_t1 -1 x_r2_g6 <= 0 ;
1 p_r2_g6_h5_t1 -1 x_r2_g5 <= 0 ;
1 p_r2_g6_h5_t1 -1 x_r2_g6 -1 x_r2_g5 >= -1 ;
1 p_r2_g7_h6_t1 -1 x_r2_g7 <= 0 ;
1 p_r2_g7_h6_t1 -1 x_r2_g6 <= 0 ;
1 p_r2_g7_h6_t1 -1 x_r2_g7 -1 x_r2_g6 >= -1 ;
1 p_r2_g8_h7_t1 -1 x_r2_g8 <= 0 ;
1 p_r2_g8_h7_t1 -1 x_r2_g7 <= 0 ;
1 p_r2_g8_h7_t1 -1 x_r2_g8 -1 x_r2_g7 >= -1 ;
1 p_r2_g15_h14_t1 -1 x_r2_g15 <= 0 ;
1 p_r2_g15_h14_t1 -1 x_r2_g14 <= 0 ;
1 p_r2_g15_h14_t1 -1 x_r2_g15 -1 x_r2_g14 >= -1 ;
1 p_r2_g47_h46_t1 -1 x_r2_g47 <= 0 ;
1 p_r2_g47_h46_t1 -1 x_r2_g46 <= 0 ;
1 p_r2_g47_h46_t1 -1 x_r2_g47 -1 x_r2_g46 >= -1 ;
1 p_r2_g48_h47_t1 -1 x_r2_g48 <= 0 ;
1 p_r2_g48_h47_t1 -1 x_r2_g47 <= 0 ;
1 p_r2_g48_h47_t1 -1 x_r2_g48 -1 x_r2_g47 >= -1 ;
1 p_r2_g49_h48_t1 -1 x_r2_g49 <= 0 ;
1 p_r2_g49_h48_t1 -1 x_r2_g48 <= 0 ;
1 p_r2_g49_h48_t1 -1 x_r2_g49 -1 x_r2_g48 >= -1 ;
1 p_r2_g118_h117_t1 -1 x_r2_g118 <= 0 ;
1 p_r2_g118_h117_t1 -1 x_r2_g117 <= 0 ;
1 p_r2_g118_h117_t1 -1 x_r2_g118 -1 x_r2_g117 >= -1 ;
1 p_r2_g119_h118_t1 -1 x_r2_g119 <= 0 ;
1 p_r2_g119_h118_t1 -1 x_r2_g118 <= 0 ;
1 p_r2_g119_h118_t1 -1 x_r2_g119 -1 x_r2_g118 >= -1 ;
1 p_r2_g135_h134_t1 -1 x_r2_g135 <= 0 ;
1 p_r2_g135_h134_t1 -1 x_r2_g134 <= 0 ;
1 p_r2_g135_h134_t1 -1 x_r2_g135 -1 x_r2_g134 >= -1 ;
1 p_r2_g146_h145_t1 -1 x_r2_g146 <= 0 ;
1 p_r2_g146_h145_t1 -1 x_r2_g145 <= 0 ;
1 p_r2_g146_h145_t1 -1 x_r2_g146 -1 x_r2_g145 >= -1 ;
1 p_r3_g1_h0_t1 -1 x_r3_g1 <= 0 ;
1 p_r3_g1_h0_t1 -1 x_r3_g0 <= 0 ;
1 p_r3_g1_h0_t1 -1 x_r3_g1 -1 x_r3_g0 >= -1 ;
1 p_r3_g46_h45_t1 -1 x_r3_g46 <= 0 ;
1 p_r3_g46_h45_t1 -1 x_r3_g45 <= 0 ;
1 p_r3_g46_h45_t1 -1 x_r3_g46 -1 x_r3_g45 >= -1 ;
1 p_r3_g56_h55_t1 -1 x_r3_g56 <= 0 ;
1 p_r3_g56_h55_t1 -1 x_r3_g55 <= 0 ;
1 p_r3_g56_h55_t1 -1 x_r3_g56 -1 x_r3_g55 >= -1 ;
1 p_r3_g59_h58_t1 -1 x_r3_g59 <= 0 ;
1 p_r3_g59_h58_t1 -1 x_r3_g58 <= 0 ;
1 p_r3_g59_h58_t1 -1 x_r3_g59 -1 x_r3_g58 >= -1 ;
1 p_r3_g67_h66_t1 -1 x_r3_g67 <= 0 ;
1 p_r3_g67_h66_t1 -1 x_r3_g66 <= 0 ;
1 p_r3_g67_h66_t1 -1 x_r3_g67 -1 x_r3_g66 >= -1 ;
1 p_r3_g68_h67_t1 -1 x_r3_g68 <= 0 ;
1 p_r3_g68_h67_t1 -1 x_r3_g67 <= 0 ;
1 p_r3_g68_h67_t1 -1 x_r3_g68 -1 x_r3_g67 >= -1 ;
1 p_r3_g134_h133_t1 -1 x_r3_g134 <= 0 ;
1 p_r3_g134_h133_t1 -1 x_r3_g133 <= 0 ;
1 p_r3_g134_h133_t1 -1 x_r3_g134 -1 x_r3_g133 >= -1 ;
1 d_1 -1 x_r0_g2 -1 x_r0_g8 -1 x_r0_g16 -1 x_r0_g18 -1 x_r0_g35 -1 x_r0_g38 -1 x_r0_g41 -1 x_r0_g44 -1 x_r0_g46 -1 x_r0_g49 -1 x_r0_g54 -1 x_r0_g58 -2 x_r0_g89 -2 x_r0_g99 -1 x_r0_g118 -1 x_r0_g135 -2 x_r0_g138 -1 x_r0_g143 -2 x_r0_g150 -2 x_r1_g0 -1 x_r1_g15 -1 x_r1_g17 -1 x_r1_g28 -1 x_r1_g33 -1 x_r1_g35 -2 x_r1_g41 -2 x_r1_g43 -1 x_r1_g58 -2 x_r1_g67 -1 x_r1_g82 -1 x_r1_g91 -1 x_r1_g95 -1 x_r1_g97 -1 x_r1_g115 -1 x_r1_g125 -1 x_r1_g154 -2 x_r1_g158 -1 x_r1_g164 -1 x_r2_g1 -1 x_r2_g21 -1 x_r2_g25 -1 x_r2_g28 -2 x_r2_g42 -1 x_r2_g76 -2 x_r2_g79 -2 x_r2_g81 -2 x_r2_g111 -1 x_r2_g117 -1 x_r2_g119 -1 x_r2_g122 -1 x_r2_g135 -2 x_r2_g138 -1 x_r2_g141 -2 x_r2_g149 -2 x_r2_g162 -2 x_r2_g166 -1 x_r3_g0 -1 x_r3_g1 -2 x_r3_g3 -2 x_r3_g5 -1 x_r3_g13 -1 x_r3_g17 -2 x_r3_g21 -1 x_r3_g23 -1 x_r3_g26 -2 x_r3_g31 -2 x_r3_g42 -1 x_r3_g46 -1 x_r3_g52 -1 x_r3_g63 -1 x_r3_g66 -1 x_r3_g74 -1 x_r3_g78 -1 x_r3_g81 -1 x_r3_g84 -1 x_r3_g88 -1 x_r3_g97 -1 x_r3_g110 -1 x_r3_g112 -1 x_r3_g117 -1 x_r3_g122 -1 x_r3_g133 -1 x_r3_g136 -2 x_r3_g139 -1 x_r3_g146 -2 x_r3_g161 -1 x_r3_g165 -1 p_r0_g31_h30_t1 -1 p_r0_g35_h34_t1 -1 p_r0_g39_h38_t1 -1 p_r0_g40_h39_t1 -1 p_r0_g41_h40_t1 -1 p_r0_g45_h44_t1 -1 p_r0_g46_h45_t1 -1 p_r0_g106_h105_t1 -1 p_r0_g112_h111_t1 -1 p_r0_g113_h112_t1 -1 p_r0_g117_h116_t1 -1 p_r0_g118_h117_t1 -1 p_r0_g132_h131_t1 -1 p_r0_g133_h132_t1 -1 p_r0_g155_h154_t1 -1 p_r1_g18_h17_t1 -1 p_r1_g19_h18_t1 -1 p_r1_g20_h19_t1 -1 p_r1_g29_h28_t1 -1 p_r1_g49_h48_t1 -1 p_r1_g83_h82_t1 -1 p_r1_g84_h83_t1 -1 p_r1_g85_h84_t1 -1 p_r1_g92_h91_t1 -1 p_r1_g98_h97_t1 -1 p_r1_g116_h115_t1 -1 p_r1_g119_h118_t1 -1 p_r1_g131_h130_t1 -1 p_r1_g132_h131_t1 -1 p_r2_g4_h3_t1 -1 p_r2_g5_h4_t1 -1 p_r2_g6_h5_t1 -1 p_r2_g7_h6_t1 -1 p_r2_g8_h7_t1 -1 p_r2_g15_h14_t1 -1 p_r2_g47_h46_t1 -1 p_r2_g48_h47_t1 -1 p_r2_g49_h48_t1 -1 p_r2_g118_h117_t1 -1 p_r2_g119_h118_t1 -1 p_r2_g135_h134_t1 -1 p_r2_g146_h145_t1 -1 p_r3_g1_h0_t1 -1 p_r3_g46_h45_t1 -1 p_r3_g56_h55_t1 -1 p_r3_g59_h58_t1 -1 p_r3_g67_h66_t1 -1 p_r3_g68_h67_t1 -1 p_r3_g134_h133_t1 = -40 ;
1 d_1 -1 u_1 <= 0 ;
-1 d_1 -1 u_1 <= 0 ;
1 u_1 -1 M <= 0 ;
1 u_1 <= 2 ;
1 p_r0_g30_h8_t22 -1 x_r0_g30 <= 0 ;
1 p_r0_g30_h8_t22 -1 x_r0_g8 <= 0 ;
1 p_r0_g30_h8_t22 -1 x_r0_g30 -1 x_r0_g8 >= -1 ;
1 p_r0_g38_h16_t22 -1 x_r0_g38 <= 0 ;
1 p_r0_g38_h16_t22 -1 x_r0_g16 <= 0 ;
1 p_r0_g38_h16_t22 -1 x_r0_g38 -1 x_r0_g16 >= -1 ;
1 p_r0_g40_h18_t22 -1 x_r0_g40 <= 0 ;
1 p_r0_g40_h18_t22 -1 x_r0_g18 <= 0 ;
1 p_r0_g40_h18_t22 -1 x_r0_g40 -1 x_r0_g18 >= -1 ;
1 p_r0_g111_h89_t22 -1 x_r0_g111 <= 0 ;
1 p_r0_g111_h89_t22 -1 x_r0_g89 <= 0 ;
1 p_r0_g111_h89_t22 -1 x_r0_g111 -1 x_r0_g89 >= -1 ;
1 p_r0_g133_h111_t22 -1 x_r0_g133 <= 0 ;
1 p_r0_g133_h111_t22 -1 x_r0_g111 <= 0 ;
1 p_r0_g133_h111_t22 -1 x_r0_g133 -1 x_r0_g111 >= -1 ;
1 p_r0_g135_h113_t22 -1 x_r0_g135 <= 0 ;
1 p_r0_g135_h113_t22 -1 x_r0_g113 <= 0 ;
1 p_r0_g135_h113_t22 -1 x_r0_g135 -1 x_r0_g113 >= -1 ;
1 p_r0_g138_h116_t22 -1 x_r0_g138 <= 0 ;
1 p_r0_g138_h116_t22 -1 x_r0_g116 <= 0 ;
1 p_r0_g138_h116_t22 -1 x_r0_g138 -1 x_r0_g116 >= -1 ;
1 p_r0_g154_h132_t22 -1 x_r0_g154 <= 0 ;
1 p_r0_g154_h132_t22 -1 x_r0_g132 <= 0 ;
1 p_r0_g154_h132_t22 -1 x_r0_g154 -1 x_r0_g132 >= -1 ;
1 p_r0_g155_h133_t22 -1 x_r0_g155 <= 0 ;
1 p_r0_g155_h133_t22 -1 x_r0_g133 <= 0 ;
1 p_r0_g155_h133_t22 -1 x_r0_g155 -1 x_r0_g133 >= -1 ;
1 p_r1_g19_h164_t22 -1 x_r1_g19 <= 0 ;
1 p_r1_g19_h164_t22 -1 x_r1_g164 <= 0 ;
1 p_r1_g19_h164_t22 -1 x_r1_g19 -1 x_r1_g164 >= -1 ;
1 p_r1_g41_h19_t22 -1 x_r1_g41 <= 0 ;
1 p_r1_g41_h19_t22 -1 x_r1_g19 <= 0 ;
1 p_r1_g41_h19_t22 -1 x_r1_g41 -1 x_r1_g19 >= -1 ;
1 p_r1_g84_h62_t22 -1 x_r1_g84 <= 0 ;
1 p_r1_g84_h62_t22 -1 x_r1_g62 <= 0 ;
1 p_r1_g84_h62_t22 -1 x_r1_g84 -1 x_r1_g62 >= -1 ;
1 p_r1_g119_h97_t22 -1 x_r1_g119 <= 0 ;
1 p_r1_g119_h97_t22 -1 x_r1_g97 <= 0 ;
1 p_r1_g119_h97_t22 -1 x_r1_g119 -1 x_r1_g97 >= -1 ;
1 p_r1_g138_h116_t22 -1 x_r1_g138 <= 0 ;
1 p_r1_g138_h116_t22 -1 x_r1_g116 <= 0 ;
1 p_r1_g138_h116_t22 -1 x_r1_g138 -1 x_r1_g116 >= -1 ;
1 p_r1_g154_h132_t22 -1 x_r1_g154 <= 0 ;
1 p_r1_g154_h132_t22 -1 x_r1_g132 <= 0 ;
1 p_r1_g154_h132_t22 -1 x_r1_g154 -1 x_r1_g132 >= -1 ;
1 p_r2_g1_h146_t22 -1 x_r2_g1 <= 0 ;
1 p_r2_g1_h146_t22 -1 x_r2_g146 <= 0 ;
1 p_r2_g1_h146_t22 -1 x_r2_g1 -1 x_r2_g146 >= -1 ;
1 p_r2_g4_h149_t22 -1 x_r2_g4 <= 0 ;
1 p_r2_g4_h149_t22 -1 x_r2_g149 <= 0 ;
1 p_r2_g4_h149_t22 -1 x_r2_g4 -1 x_r2_g149 >= -1 ;
1 p_r2_g21_h166_t22 -1 x_r2_g21 <= 0 ;
1 p_r2_g21_h166_t22 -1 x_r2_g166 <= 0 ;
1 p_r2_g21_h166_t22 -1 x_r2_g21 -1 x_r2_g166 >= -1 ;
1 p_r2_g25_h3_t22 -1 x_r2_g25 <= 0 ;
1 p_r2_g25_h3_t22 -1 x_r2_g3 <= 0 ;
1 p_r2_g25_h3_t22 -1 x_r2_g25 -1 x_r2_g3 >= -1 ;
1 p_r2_g28_h6_t22 -1 x_r2_g28 <= 0 ;
1 p_r2_g28_h6_t22 -1 x_r2_g6 <= 0 ;
1 p_r2_g28_h6_t22 -1 x_r2_g28 -1 x_r2_g6 >= -1 ;
1 p_r2_g47_h25_t22 -1 x_r2_g47 <= 0 ;
1 p_r2_g47_h25_t22 -1 x_r2_g25 <= 0 ;
1 p_r2_g47_h25_t22 -1 x_r2_g47 -1 x_r2_g25 >= -1 ;
1 p_r2_g98_h76_t22 -1 x_r2_g98 <= 0 ;
1 p_r2_g98_h76_t22 -1 x_r2_g76 <= 0 ;
1 p_r2_g98_h76_t22 -1 x_r2_g98 -1 x_r2_g76 >= -1 ;
1 p_r2_g141_h119_t22 -1 x_r2_g141 <= 0 ;
1 p_r2_g141_h119_t22 -1 x_r2_g119 <= 0 ;
1 p_r2_g141_h119_t22 -1 x_r2_g141 -1 x_r2_g119 >= -1 ;
1 p_r3_g1_h146_t22 -1 x_r3_g1 <= 0 ;
1 p_r3_g1_h146_t22 -1 x_r3_g146 <= 0 ;
1 p_r3_g1_h146_t22 -1 x_r3_g1 -1 x_r3_g146 >= -1 ;
1 p_r3_g23_h1_t22 -1 x_r3_g23 <= 0 ;
1 p_r3_g23_h1_t22 -1 x_r3_g1 <= 0 ;
1 p_r3_g23_h1_t22 -1 x_r3_g23 -1 x_r3_g1 >= -1 ;
1 p_r3_g45_h23_t22 -1 x_r3_g45 <= 0 ;
1 p_r3_g45_h23_t22 -1 x_r3_g23 <= 0 ;
1 p_r3_g45_h23_t22 -1 x_r3_g45 -1 x_r3_g23 >= -1 ;
1 p_r3_g67_h45_t22 -1 x_r3_g67 <= 0 ;
1 p_r3_g67_h45_t22 -1 x_r3_g45 <= 0 ;
1 p_r3_g67_h45_t22 -1 x_r3_g67 -1 x_r3_g45 >= -1 ;
1 p_r3_g68_h46_t22 -1 x_r3_g68 <= 0 ;
1 p_r3_g68_h46_t22 -1 x_r3_g46 <= 0 ;
1 p_r3_g68_h46_t22 -1 x_r3_g68 -1 x_r3_g46 >= -1 ;
1 p_r3_g74_h52_t22 -1 x_r3_g74 <= 0 ;
1 p_r3_g74_h52_t22 -1 x_r3_g52 <= 0 ;
1 p_r3_g74_h52_t22 -1 x_r3_g74 -1 x_r3_g52 >= -1 ;
1 p_r3_g78_h56_t22 -1 x_r3_g78 <= 0 ;
1 p_r3_g78_h56_t22 -1 x_r3_g56 <= 0 ;
1 p_r3_g78_h56_t22 -1 x_r3_g78 -1 x_r3_g56 >= -1 ;
1 p_r3_g81_h59_t22 -1 x_r3_g81 <= 0 ;
1 p_r3_g81_h59_t22 -1 x_r3_g59 <= 0 ;
1 p_r3_g81_h59_t22 -1 x_r3_g81 -1 x_r3_g59 >= -1 ;
1 p_r3_g88_h66_t22 -1 x_r3_g88 <= 0 ;
1 p_r3_g88_h66_t22 -1 x_r3_g66 <= 0 ;
1 p_r3_g88_h66_t22 -1 x_r3_g88 -1 x_r3_g66 >= -1 ;
1 p_r3_g110_h88_t22 -1 x_r3_g110 <= 0 ;
1 p_r3_g110_h88_t22 -1 x_r3_g88 <= 0 ;
1 p_r3_g110_h88_t22 -1 x_r3_g110 -1 x_r3_g88 >= -1 ;
1 p_r3_g134_h112_t22 -1 x_r3_g134 <= 0 ;
1 p_r3_g134_h112_t22 -1 x_r3_g112 <= 0 ;
1 p_r3_g134_h112_t22 -1 x_r3_g134 -1 x_r3_g112 >= -1 ;
1 p_r3_g139_h117_t22 -1 x_r3_g139 <= 0 ;
1 p_r3_g139_h117_t22 -1 x_r3_g117 <= 0 ;
1 p_r3_g139_h117_t22 -1 x_r3_g139 -1 x_r3_g117 >= -1 ;
1 p_r3_g161_h139_t22 -1 x_r3_g161 <= 0 ;
1 p_r3_g161_h139_t22 -1 x_r3_g139 <= 0 ;
1 p_r3_g161_h139_t22 -1 x_r3_g161 -1 x_r3_g139 >= -1 ;
1 d_22 -1 x_r0_g18 -2 x_r0_g25 -1 x_r0_g30 -1 x_r0_g34 -1 x_r0_g35 -1 x_r0_g40 -2 x_r0_g41 -1 x_r0_g45 -1 x_r0_g46 -1 x_r0_g58 -1 x_r0_g65 -1 x_r0_g89 -1 x_r0_g99 -1 x_r0_g105 -1 x_r0_g112 -1 x_r0_g117 -1 x_r0_g135 -1 x_r0_g138 -1 x_r0_g143 -1 x_r0_g150 -2 x_r1_g15 -1 x_r1_g17 -2 x_r1_g18 -1 x_r1_g20 -1 x_r1_g33 -1 x_r1_g35 -1 x_r1_g43 -1 x_r1_g46 -2 x_r1_g48 -1 x_r1_g49 -2 x_r1_g58 -1 x_r1_g62 -1 x_r1_g67 -1 x_r1_g85 -2 x_r1_g91 -2 x_r1_g92 -1 x_r1_g100 -2 x_r1_g118 -1 x_r1_g119 -1 x_r1_g125 -1 x_r1_g130 -1 x_r1_g131 -1 x_r1_g138 -1 x_r2_g3 -1 x_r2_g4 -2 x_r2_g5 -1 x_r2_g6 -1 x_r2_g7 -2 x_r2_g8 -1 x_r2_g15 -1 x_r2_g18 -1 x_r2_g21 -2 x_r2_g42 -1 x_r2_g46 -1 x_r2_g48 -1 x_r2_g49 -2 x_r2_g56 -1 x_r2_g58 -1 x_r2_g79 -1 x_r2_g94 -1 x_r2_g98 -1 x_r2_g117 -1 x_r2_g118 -1 x_r2_g132 -1 x_r2_g134 -2 x_r2_g135 -2 x_r2_g138 -1 x_r2_g141 -1 x_r2_g145 -1 x_r2_g149 -1 x_r2_g162 -2 x_r3_g0 -1 x_r3_g3 -1 x_r3_g5 -2 x_r3_g17 -2 x_r3_g21 -1 x_r3_g26 -2 x_r3_g31 -1 x_r3_g42 -1 x_r3_g52 -1 x_r3_g55 -2 x_r3_g58 -1 x_r3_g59 -1 x_r3_g63 -1 x_r3_g67 -2 x_r3_g84 -2 x_r3_g97 -1 x_r3_g110 -1 x_r3_g122 -1 x_r3_g133 -1 x_r3_g146 -2 x_r3_g165 -1 p_r0_g30_h8_t22 -1 p_r0_g38_h16_t22 -1 p_r0_g40_h18_t22 -1 p_r0_g111_h89_t22 -1 p_r0_g133_h111_t22 -1 p_r0_g135_h113_t22 -1 p_r0_g138_h116_t22 -1 p_r0_g154_h132_t22 -1 p_r0_g155_h133_t22 -1 p_r1_g19_h164_t22 -1 p_r1_g41_h19_t22 -1 p_r1_g84_h62_t22 -1 p_r1_g119_h97_t22 -1 p_r1_g138_h116_t22 -1 p_r1_g154_h132_t22 -1 p_r2_g1_h146_t22 -1 p_r2_g4_h149_t22 -1 p_r2_g21_h166_t22 -1 p_r2_g25_h3_t22 -1 p_r2_g28_h6_t22 -1 p_r2_g47_h25_t22 -1 p_r2_g98_h76_t22 -1 p_r2_g141_h119_t22 -1 p_r3_g1_h146_t22 -1 p_r3_g23_h1_t22 -1 p_r3_g45_h23_t22 -1 p_r3_g67_h45_t22 -1 p_r3_g68_h46_t22 -1 p_r3_g74_h52_t22 -1 p_r3_g78_h56_t22 -1 p_r3_g81_h59_t22 -1 p_r3_g88_h66_t22 -1 p_r3_g110_h88_t22 -1 p_r3_g134_h112_t22 -1 p_r3_g139_h117_t22 -1 p_r3_g161_h139_t22 = -52 ;
1 d_22 -1 u_22 <= 0 ;
-1 d_22 -1 u_22 <= 0 ;
1 u_22 -1 M <= 0 ;
1 u_22 <= 1 ;
1 p_r0_g8_h133_t42 -1 x_r0_g8 <= 0 ;
1 p_r0_g8_h133_t42 -1 x_r0_g133 <= 0 ;
1 p_r0_g8_h133_t42 -1 x_r0_g8 -1 x_r0_g133 >= -1 ;
1 p_r0_g18_h143_t42 -1 x_r0_g18 <= 0 ;
1 p_r0_g18_h143_t42 -1 x_r0_g143 <= 0 ;
1 p_r0_g18_h143_t42 -1 x_r0_g18 -1 x_r0_g143 >= -1 ;
1 p_r0_g25_h150_t42 -1 x_r0_g25 <= 0 ;
1 p_r0_g25_h150_t42 -1 x_r0_g150 <= 0 ;
1 p_r0_g25_h150_t42 -1 x_r0_g25 -1 x_r0_g150 >= -1 ;
1 p_r0_g30_h155_t42 -1 x_r0_g30 <= 0 ;
1 p_r0_g30_h155_t42 -1 x_r0_g155 <= 0 ;
1 p_r0_g30_h155_t42 -1 x_r0_g30 -1 x_r0_g155 >= -1 ;
1 p_r0_g44_h2_t42 -1 x_r0_g44 <= 0 ;
1 p_r0_g44_h2_t42 -1 x_r0_g2 <= 0 ;
1 p_r0_g44_h2_t42 -1 x_r0_g44 -1 x_r0_g2 >= -1 ;
1 p_r0_g58_h16_t42 -1 x_r0_g58 <= 0 ;
1 p_r0_g58_h16_t42 -1 x_r0_g16 <= 0 ;
1 p_r0_g58_h16_t42 -1 x_r0_g58 -1 x_r0_g16 >= -1 ;
1 p_r0_g131_h89_t42 -1 x_r0_g131 <= 0 ;
1 p_r0_g131_h89_t42 -1 x_r0_g89 <= 0 ;
1 p_r0_g131_h89_t42 -1 x_r0_g131 -1 x_r0_g89 >= -1 ;
1 p_r0_g154_h112_t42 -1 x_r0_g154 <= 0 ;
1 p_r0_g154_h112_t42 -1 x_r0_g112 <= 0 ;
1 p_r0_g154_h112_t42 -1 x_r0_g154 -1 x_r0_g112 >= -1 ;
1 p_r0_g155_h113_t42 -1 x_r0_g155 <= 0 ;
1 p_r0_g155_h113_t42 -1 x_r0_g113 <= 0 ;
1 p_r0_g155_h113_t42 -1 x_r0_g155 -1 x_r0_g113 >= -1 ;
1 p_r1_g0_h125_t42 -1 x_r1_g0 <= 0 ;
1 p_r1_g0_h125_t42 -1 x_r1_g125 <= 0 ;
1 p_r1_g0_h125_t42 -1 x_r1_g0 -1 x_r1_g125 >= -1 ;
1 p_r1_g29_h154_t42 -1 x_r1_g29 <= 0 ;
1 p_r1_g29_h154_t42 -1 x_r1_g154 <= 0 ;
1 p_r1_g29_h154_t42 -1 x_r1_g29 -1 x_r1_g154 >= -1 ;
1 p_r1_g33_h158_t42 -1 x_r1_g33 <= 0 ;
1 p_r1_g33_h158_t42 -1 x_r1_g158 <= 0 ;
1 p_r1_g33_h158_t42 -1 x_r1_g33 -1 x_r1_g158 >= -1 ;
1 p_r1_g62_h20_t42 -1 x_r1_g62 <= 0 ;
1 p_r1_g62_h20_t42 -1 x_r1_g20 <= 0 ;
1 p_r1_g62_h20_t42 -1 x_r1_g62 -1 x_r1_g20 >= -1 ;
1 p_r1_g83_h41_t42 -1 x_r1_g83 <= 0 ;
1 p_r1_g83_h41_t42 -1 x_r1_g41 <= 0 ;
1 p_r1_g83_h41_t42 -1 x_r1_g83 -1 x_r1_g41 >= -1 ;
1 p_r1_g85_h43_t42 -1 x_r1_g85 <= 0 ;
1 p_r1_g85_h43_t42 -1 x_r1_g43 <= 0 ;
1 p_r1_g85_h43_t42 -1 x_r1_g85 -1 x_r1_g43 >= -1 ;
1 p_r1_g91_h49_t42 -1 x_r1_g91 <= 0 ;
1 p_r1_g91_h49_t42 -1 x_r1_g49 <= 0 ;
1 p_r1_g91_h49_t42 -1 x_r1_g91 -1 x_r1_g49 >= -1 ;
1 p_r1_g100_h58_t42 -1 x_r1_g100 <= 0 ;
1 p_r1_g100_h58_t42 -1 x_r1_g58 <= 0 ;
1 p_r1_g100_h58_t42 -1 x_r1_g100 -1 x_r1_g58 >= -1 ;
1 p_r1_g125_h83_t42 -1 x_r1_g125 <= 0 ;
1 p_r1_g125_h83_t42 -1 x_r1_g83 <= 0 ;
1 p_r1_g125_h83_t42 -1 x_r1_g125 -1 x_r1_g83 >= -1 ;
1 p_r1_g158_h116_t42 -1 x_r1_g158 <= 0 ;
1 p_r1_g158_h116_t42 -1 x_r1_g116 <= 0 ;
1 p_r1_g158_h116_t42 -1 x_r1_g158 -1 x_r1_g116 >= -1 ;
1 p_r2_g7_h132_t42 -1 x_r2_g7 <= 0 ;
1 p_r2_g7_h132_t42 -1 x_r2_g132 <= 0 ;
1 p_r2_g7_h132_t42 -1 x_r2_g7 -1 x_r2_g132 >= -1 ;
1 p_r2_g21_h146_t42 -1 x_r2_g21 <= 0 ;
1 p_r2_g21_h146_t42 -1 x_r2_g146 <= 0 ;
1 p_r2_g21_h146_t42 -1 x_r2_g21 -1 x_r2_g146 >= -1 ;
1 p_r2_g46_h4_t42 -1 x_r2_g46 <= 0 ;
1 p_r2_g46_h4_t42 -1 x_r2_g4 <= 0 ;
1 p_r2_g46_h4_t42 -1 x_r2_g46 -1 x_r2_g4 >= -1 ;
1 p_r2_g47_h5_t42 -1 x_r2_g47 <= 0 ;
1 p_r2_g47_h5_t42 -1 x_r2_g5 <= 0 ;
1 p_r2_g47_h5_t42 -1 x_r2_g47 -1 x_r2_g5 >= -1 ;
1 p_r2_g48_h6_t42 -1 x_r2_g48 <= 0 ;
1 p_r2_g48_h6_t42 -1 x_r2_g6 <= 0 ;
1 p_r2_g48_h6_t42 -1 x_r2_g48 -1 x_r2_g6 >= -1 ;
1 p_r2_g49_h7_t42 -1 x_r2_g49 <= 0 ;
1 p_r2_g49_h7_t42 -1 x_r2_g7 <= 0 ;
1 p_r2_g49_h7_t42 -1 x_r2_g49 -1 x_r2_g7 >= -1 ;
1 p_r2_g56_h14_t42 -1 x_r2_g56 <= 0 ;
1 p_r2_g56_h14_t42 -1 x_r2_g14 <= 0 ;
1 p_r2_g56_h14_t42 -1 x_r2_g56 -1 x_r2_g14 >= -1 ;
1 p_r2_g98_h56_t42 -1 x_r2_g98 <= 0 ;
1 p_r2_g98_h56_t42 -1 x_r2_g56 <= 0 ;
1 p_r2_g98_h56_t42 -1 x_r2_g98 -1 x_r2_g56 >= -1 ;
1 p_r2_g118_h76_t42 -1 x_r2_g118 <= 0 ;
1 p_r2_g118_h76_t42 -1 x_r2_g76 <= 0 ;
1 p_r2_g118_h76_t42 -1 x_r2_g118 -1 x_r2_g76 >= -1 ;
1 p_r3_g21_h146_t42 -1 x_r3_g21 <= 0 ;
1 p_r3_g21_h146_t42 -1 x_r3_g146 <= 0 ;
1 p_r3_g21_h146_t42 -1 x_r3_g21 -1 x_r3_g146 >= -1 ;
1 p_r3_g42_h0_t42 -1 x_r3_g42 <= 0 ;
1 p_r3_g42_h0_t42 -1 x_r3_g0 <= 0 ;
1 p_r3_g42_h0_t42 -1 x_r3_g42 -1 x_r3_g0 >= -1 ;
1 p_r3_g45_h3_t42 -1 x_r3_g45 <= 0 ;
1 p_r3_g45_h3_t42 -1 x_r3_g3 <= 0 ;
1 p_r3_g45_h3_t42 -1 x_r3_g45 -1 x_r3_g3 >= -1 ;
1 p_r3_g55_h13_t42 -1 x_r3_g55 <= 0 ;
1 p_r3_g55_h13_t42 -1 x_r3_g13 <= 0 ;
1 p_r3_g55_h13_t42 -1 x_r3_g55 -1 x_r3_g13 >= -1 ;
1 p_r3_g59_h17_t42 -1 x_r3_g59 <= 0 ;
1 p_r3_g59_h17_t42 -1 x_r3_g17 <= 0 ;
1 p_r3_g59_h17_t42 -1 x_r3_g59 -1 x_r3_g17 >= -1 ;
1 p_r3_g63_h21_t42 -1 x_r3_g63 <= 0 ;
1 p_r3_g63_h21_t42 -1 x_r3_g21 <= 0 ;
1 p_r3_g63_h21_t42 -1 x_r3_g63 -1 x_r3_g21 >= -1 ;
1 p_r3_g68_h26_t42 -1 x_r3_g68 <= 0 ;
1 p_r3_g68_h26_t42 -1 x_r3_g26 <= 0 ;
1 p_r3_g68_h26_t42 -1 x_r3_g68 -1 x_r3_g26 >= -1 ;
1 p_r3_g84_h42_t42 -1 x_r3_g84 <= 0 ;
1 p_r3_g84_h42_t42 -1 x_r3_g42 <= 0 ;
1 p_r3_g84_h42_t42 -1 x_r3_g84 -1 x_r3_g42 >= -1 ;
1 p_r3_g88_h46_t42 -1 x_r3_g88 <= 0 ;
1 p_r3_g88_h46_t42 -1 x_r3_g46 <= 0 ;
1 p_r3_g88_h46_t42 -1 x_r3_g88 -1 x_r3_g46 >= -1 ;
1 p_r3_g94_h52_t42 -1 x_r3_g94 <= 0 ;
1 p_r3_g94_h52_t42 -1 x_r3_g52 <= 0 ;
1 p_r3_g94_h52_t42 -1 x_r3_g94 -1 x_r3_g52 >= -1 ;
1 p_r3_g97_h55_t42 -1 x_r3_g97 <= 0 ;
1 p_r3_g97_h55_t42 -1 x_r3_g55 <= 0 ;
1 p_r3_g97_h55_t42 -1 x_r3_g97 -1 x_r3_g55 >= -1 ;
1 p_r3_g110_h68_t42 -1 x_r3_g110 <= 0 ;
1 p_r3_g110_h68_t42 -1 x_r3_g68 <= 0 ;
1 p_r3_g110_h68_t42 -1 x_r3_g110 -1 x_r3_g68 >= -1 ;
1 p_r3_g136_h94_t42 -1 x_r3_g136 <= 0 ;
1 p_r3_g136_h94_t42 -1 x_r3_g94 <= 0 ;
1 p_r3_g136_h94_t42 -1 x_r3_g136 -1 x_r3_g94 >= -1 ;
1 p_r3_g139_h97_t42 -1 x_r3_g139 <= 0 ;
1 p_r3_g139_h97_t42 -1 x_r3_g97 <= 0 ;
1 p_r3_g139_h97_t42 -1 x_r3_g139 -1 x_r3_g97 >= -1 ;
1 d_42 -1 x_r0_g2 -1 x_r0_g25 -1 x_r0_g34 -2 x_r0_g35 -1 x_r0_g38 -1 x_r0_g40 -1 x_r0_g45 -1 x_r0_g46 -1 x_r0_g49 -1 x_r0_g54 -1 x_r0_g58 -1 x_r0_g89 -1 x_r0_g105 -1 x_r0_g112 -2 x_r0_g116 -1 x_r0_g117 -1 x_r0_g118 -1 x_r0_g131 -2 x_r0_g132 -1 x_r0_g138 -1 x_r0_g143 -1 x_r1_g0 -2 x_r1_g15 -1 x_r1_g28 -1 x_r1_g35 -1 x_r1_g41 -1 x_r1_g43 -1 x_r1_g46 -1 x_r1_g48 -1 x_r1_g58 -1 x_r1_g67 -2 x_r1_g82 -1 x_r1_g84 -1 x_r1_g85 -1 x_r1_g95 -2 x_r1_g98 -1 x_r1_g115 -1 x_r1_g118 -1 x_r1_g130 -1 x_r1_g131 -1 x_r1_g132 -1 x_r1_g138 -1 x_r1_g154 -1 x_r1_g164 -2 x_r2_g1 -1 x_r2_g3 -1 x_r2_g4 -1 x_r2_g5 -1 x_r2_g14 -1 x_r2_g15 -1 x_r2_g18 -1 x_r2_g21 -1 x_r2_g25 -1 x_r2_g28 -1 x_r2_g42 -1 x_r2_g48 -1 x_r2_g76 -1 x_r2_g79 -1 x_r2_g81 -1 x_r2_g94 -1 x_r2_g98 -1 x_r2_g111 -1 x_r2_g117 -1 x_r2_g118 -1 x_r2_g119 -1 x_r2_g122 -1 x_r2_g132 -1 x_r2_g145 -1 x_r2_g146 -1 x_r2_g162 -1 x_r2_g166 -1 x_r3_g1 -1 x_r3_g3 -1 x_r3_g5 -1 x_r3_g13 -1 x_r3_g17 -2 x_r3_g23 -1 x_r3_g26 -1 x_r3_g46 -1 x_r3_g56 -1 x_r3_g66 -1 x_r3_g74 -1 x_r3_g78 -2 x_r3_g81 -1 x_r3_g112 -1 x_r3_g117 -1 x_r3_g122 -1 x_r3_g133 -1 x_r3_g134 -2 x_r3_g161 -2 x_r3_g165 -1 p_r0_g8_h133_t42 -1 p_r0_g18_h143_t42 -1 p_r0_g25_h150_t42 -1 p_r0_g30_h155_t42 -1 p_r0_g44_h2_t42 -1 p_r0_g58_h16_t42 -1 p_r0_g131_h89_t42 -1 p_r0_g154_h112_t42 -1 p_r0_g155_h113_t42 -1 p_r1_g0_h125_t42 -1 p_r1_g29_h154_t42 -1 p_r1_g33_h158_t42 -1 p_r1_g62_h20_t42 -1 p_r1_g83_h41_t42 -1 p_r1_g85_h43_t42 -1 p_r1_g91_h49_t42 -1 p_r1_g100_h58_t42 -1 p_r1_g125_h83_t42 -1 p_r1_g158_h116_t42 -1 p_r2_g7_h132_t42 -1 p_r2_g21_h146_t42 -1 p_r2_g46_h4_t42 -1 p_r2_g47_h5_t42 -1 p_r2_g48_h6_t42 -1 p_r2_g49_h7_t42 -1 p_r2_g56_h14_t42 -1 p_r2_g98_h56_t42 -1 p_r2_g118_h76_t42 -1 p_r3_g21_h146_t42 -1 p_r3_g42_h0_t42 -1 p_r3_g45_h3_t42 -1 p_r3_g55_h13_t42 -1 p_r3_g59_h17_t42 -1 p_r3_g63_h21_t42 -1 p_r3_g68_h26_t42 -1 p_r3_g84_h42_t42 -1 p_r3_g88_h46_t42 -1 p_r3_g94_h52_t42 -1 p_r3_g97_h55_t42 -1 p_r3_g110_h68_t42 -1 p_r3_g136_h94_t42 -1 p_r3_g139_h97_t42 = -73 ;
1 d_42 -1 u_42 <= 0 ;
-1 d_42 -1 u_42 <= 0 ;
1 u_42 -1 M <= 0 ;
1 u_42 <= 1 ;
1 p_r0_g8_h132_t43 -1 x_r0_g8 <= 0 ;
1 p_r0_g8_h132_t43 -1 x_r0_g132 <= 0 ;
1 p_r0_g8_h132_t43 -1 x_r0_g8 -1 x_r0_g132 >= -1 ;
1 p_r0_g30_h154_t43 -1 x_r0_g30 <= 0 ;
1 p_r0_g30_h154_t43 -1 x_r0_g154 <= 0 ;
1 p_r0_g30_h154_t43 -1 x_r0_g30 -1 x_r0_g154 >= -1 ;
1 p_r0_g31_h155_t43 -1 x_r0_g31 <= 0 ;
1 p_r0_g31_h155_t43 -1 x_r0_g155 <= 0 ;
1 p_r0_g31_h155_t43 -1 x_r0_g31 -1 x_r0_g155 >= -1 ;
1 p_r0_g45_h2_t43 -1 x_r0_g45 <= 0 ;
1 p_r0_g45_h2_t43 -1 x_r0_g2 <= 0 ;
1 p_r0_g45_h2_t43 -1 x_r0_g45 -1 x_r0_g2 >= -1 ;
1 p_r0_g89_h46_t43 -1 x_r0_g89 <= 0 ;
1 p_r0_g89_h46_t43 -1 x_r0_g46 <= 0 ;
1 p_r0_g89_h46_t43 -1 x_r0_g89 -1 x_r0_g46 >= -1 ;
1 p_r0_g132_h89_t43 -1 x_r0_g132 <= 0 ;
1 p_r0_g132_h89_t43 -1 x_r0_g89 <= 0 ;
1 p_r0_g132_h89_t43 -1 x_r0_g132 -1 x_r0_g89 >= -1 ;
1 p_r0_g154_h111_t43 -1 x_r0_g154 <= 0 ;
1 p_r0_g154_h111_t43 -1 x_r0_g111 <= 0 ;
1 p_r0_g154_h111_t43 -1 x_r0_g154 -1 x_r0_g111 >= -1 ;
1 p_r0_g155_h112_t43 -1 x_r0_g155 <= 0 ;
1 p_r0_g155_h112_t43 -1 x_r0_g112 <= 0 ;
1 p_r0_g155_h112_t43 -1 x_r0_g155 -1 x_r0_g112 >= -1 ;
1 p_r1_g43_h0_t43 -1 x_r1_g43 <= 0 ;
1 p_r1_g43_h0_t43 -1 x_r1_g0 <= 0 ;
1 p_r1_g43_h0_t43 -1 x_r1_g43 -1 x_r1_g0 >= -1 ;
1 p_r1_g58_h15_t43 -1 x_r1_g58 <= 0 ;
1 p_r1_g58_h15_t43 -1 x_r1_g15 <= 0 ;
1 p_r1_g58_h15_t43 -1 x_r1_g58 -1 x_r1_g15 >= -1 ;
1 p_r1_g62_h19_t43 -1 x_r1_g62 <= 0 ;
1 p_r1_g62_h19_t43 -1 x_r1_g19 <= 0 ;
1 p_r1_g62_h19_t43 -1 x_r1_g62 -1 x_r1_g19 >= -1 ;
1 p_r1_g84_h41_t43 -1 x_r1_g84 <= 0 ;
1 p_r1_g84_h41_t43 -1 x_r1_g41 <= 0 ;
1 p_r1_g84_h41_t43 -1 x_r1_g84 -1 x_r1_g41 >= -1 ;
1 p_r1_g91_h48_t43 -1 x_r1_g91 <= 0 ;
1 p_r1_g91_h48_t43 -1 x_r1_g48 <= 0 ;
1 p_r1_g91_h48_t43 -1 x_r1_g91 -1 x_r1_g48 >= -1 ;
1 p_r1_g92_h49_t43 -1 x_r1_g92 <= 0 ;
1 p_r1_g92_h49_t43 -1 x_r1_g49 <= 0 ;
1 p_r1_g92_h49_t43 -1 x_r1_g92 -1 x_r1_g49 >= -1 ;
1 p_r1_g125_h82_t43 -1 x_r1_g125 <= 0 ;
1 p_r1_g125_h82_t43 -1 x_r1_g82 <= 0 ;
1 p_r1_g125_h82_t43 -1 x_r1_g125 -1 x_r1_g82 >= -1 ;
1 p_r1_g138_h95_t43 -1 x_r1_g138 <= 0 ;
1 p_r1_g138_h95_t43 -1 x_r1_g95 <= 0 ;
1 p_r1_g138_h95_t43 -1 x_r1_g138 -1 x_r1_g95 >= -1 ;
1 p_r1_g158_h115_t43 -1 x_r1_g158 <= 0 ;
1 p_r1_g158_h115_t43 -1 x_r1_g115 <= 0 ;
1 p_r1_g158_h115_t43 -1 x_r1_g158 -1 x_r1_g115 >= -1 ;
1 p_r2_g8_h132_t43 -1 x_r2_g8 <= 0 ;
1 p_r2_g8_h132_t43 -1 x_r2_g132 <= 0 ;
1 p_r2_g8_h132_t43 -1 x_r2_g8 -1 x_r2_g132 >= -1 ;
1 p_r2_g14_h138_t43 -1 x_r2_g14 <= 0 ;
1 p_r2_g14_h138_t43 -1 x_r2_g138 <= 0 ;
1 p_r2_g14_h138_t43 -1 x_r2_g14 -1 x_r2_g138 >= -1 ;
1 p_r2_g21_h145_t43 -1 x_r2_g21 <= 0 ;
1 p_r2_g21_h145_t43 -1 x_r2_g145 <= 0 ;
1 p_r2_g21_h145_t43 -1 x_r2_g21 -1 x_r2_g145 >= -1 ;
1 p_r2_g25_h149_t43 -1 x_r2_g25 <= 0 ;
1 p_r2_g25_h149_t43 -1 x_r2_g149 <= 0 ;
1 p_r2_g25_h149_t43 -1 x_r2_g25 -1 x_r2_g149 >= -1 ;
1 p_r2_g42_h166_t43 -1 x_r2_g42 <= 0 ;
1 p_r2_g42_h166_t43 -1 x_r2_g166 <= 0 ;
1 p_r2_g42_h166_t43 -1 x_r2_g42 -1 x_r2_g166 >= -1 ;
1 p_r2_g46_h3_t43 -1 x_r2_g46 <= 0 ;
1 p_r2_g46_h3_t43 -1 x_r2_g3 <= 0 ;
1 p_r2_g46_h3_t43 -1 x_r2_g46 -1 x_r2_g3 >= -1 ;
1 p_r2_g47_h4_t43 -1 x_r2_g47 <= 0 ;
1 p_r2_g47_h4_t43 -1 x_r2_g4 <= 0 ;
1 p_r2_g47_h4_t43 -1 x_r2_g47 -1 x_r2_g4 >= -1 ;
1 p_r2_g48_h5_t43 -1 x_r2_g48 <= 0 ;
1 p_r2_g48_h5_t43 -1 x_r2_g5 <= 0 ;
1 p_r2_g48_h5_t43 -1 x_r2_g48 -1 x_r2_g5 >= -1 ;
1 p_r2_g49_h6_t43 -1 x_r2_g49 <= 0 ;
1 p_r2_g49_h6_t43 -1 x_r2_g6 <= 0 ;
1 p_r2_g49_h6_t43 -1 x_r2_g49 -1 x_r2_g6 >= -1 ;
1 p_r2_g58_h15_t43 -1 x_r2_g58 <= 0 ;
1 p_r2_g58_h15_t43 -1 x_r2_g15 <= 0 ;
1 p_r2_g58_h15_t43 -1 x_r2_g58 -1 x_r2_g15 >= -1 ;
1 p_r2_g119_h76_t43 -1 x_r2_g119 <= 0 ;
1 p_r2_g119_h76_t43 -1 x_r2_g76 <= 0 ;
1 p_r2_g119_h76_t43 -1 x_r2_g119 -1 x_r2_g76 >= -1 ;
1 p_r2_g122_h79_t43 -1 x_r2_g122 <= 0 ;
1 p_r2_g122_h79_t43 -1 x_r2_g79 <= 0 ;
1 p_r2_g122_h79_t43 -1 x_r2_g122 -1 x_r2_g79 >= -1 ;
1 p_r2_g141_h98_t43 -1 x_r2_g141 <= 0 ;
1 p_r2_g141_h98_t43 -1 x_r2_g98 <= 0 ;
1 p_r2_g141_h98_t43 -1 x_r2_g141 -1 x_r2_g98 >= -1 ;
1 p_r2_g162_h119_t43 -1 x_r2_g162 <= 0 ;
1 p_r2_g162_h119_t43 -1 x_r2_g119 <= 0 ;
1 p_r2_g162_h119_t43 -1 x_r2_g162 -1 x_r2_g119 >= -1 ;
1 p_r3_g46_h3_t43 -1 x_r3_g46 <= 0 ;
1 p_r3_g46_h3_t43 -1 x_r3_g3 <= 0 ;
1 p_r3_g46_h3_t43 -1 x_r3_g46 -1 x_r3_g3 >= -1 ;
1 p_r3_g56_h13_t43 -1 x_r3_g56 <= 0 ;
1 p_r3_g56_h13_t43 -1 x_r3_g13 <= 0 ;
1 p_r3_g56_h13_t43 -1 x_r3_g56 -1 x_r3_g13 >= -1 ;
1 p_r3_g66_h23_t43 -1 x_r3_g66 <= 0 ;
1 p_r3_g66_h23_t43 -1 x_r3_g23 <= 0 ;
1 p_r3_g66_h23_t43 -1 x_r3_g66 -1 x_r3_g23 >= -1 ;
1 p_r3_g74_h31_t43 -1 x_r3_g74 <= 0 ;
1 p_r3_g74_h31_t43 -1 x_r3_g31 <= 0 ;
1 p_r3_g74_h31_t43 -1 x_r3_g74 -1 x_r3_g31 >= -1 ;
1 p_r3_g88_h45_t43 -1 x_r3_g88 <= 0 ;
1 p_r3_g88_h45_t43 -1 x_r3_g45 <= 0 ;
1 p_r3_g88_h45_t43 -1 x_r3_g88 -1 x_r3_g45 >= -1 ;
1 p_r3_g110_h67_t43 -1 x_r3_g110 <= 0 ;
1 p_r3_g110_h67_t43 -1 x_r3_g67 <= 0 ;
1 p_r3_g110_h67_t43 -1 x_r3_g110 -1 x_r3_g67 >= -1 ;
1 p_r3_g117_h74_t43 -1 x_r3_g117 <= 0 ;
1 p_r3_g117_h74_t43 -1 x_r3_g74 <= 0 ;
1 p_r3_g117_h74_t43 -1 x_r3_g117 -1 x_r3_g74 >= -1 ;
1 p_r3_g165_h122_t43 -1 x_r3_g165 <= 0 ;
1 p_r3_g165_h122_t43 -1 x_r3_g122 <= 0 ;
1 p_r3_g165_h122_t43 -1 x_r3_g165 -1 x_r3_g122 >= -1 ;
1 d_43 -1 x_r0_g2 -1 x_r0_g8 -1 x_r0_g16 -1 x_r0_g18 -2 x_r0_g25 -1 x_r0_g31 -2 x_r0_g34 -1 x_r0_g35 -1 x_r0_g39 -1 x_r0_g41 -1 x_r0_g45 -1 x_r0_g46 -1 x_r0_g49 -1 x_r0_g54 -2 x_r0_g58 -1 x_r0_g99 -1 x_r0_g105 -2 x_r0_g106 -1 x_r0_g111 -1 x_r0_g113 -1 x_r0_g116 -2 x_r0_g117 -2 x_r0_g131 -1 x_r0_g133 -1 x_r0_g135 -1 x_r0_g138 -2 x_r0_g143 -1 x_r0_g146 -1 x_r1_g0 -1 x_r1_g17 -1 x_r1_g33 -2 x_r1_g35 -2 x_r1_g46 -1 x_r1_g82 -1 x_r1_g83 -1 x_r1_g84 -2 x_r1_g85 -1 x_r1_g97 -1 x_r1_g98 -1 x_r1_g100 -1 x_r1_g116 -1 x_r1_g125 -1 x_r1_g130 -1 x_r1_g131 -1 x_r1_g132 -1 x_r1_g164 -1 x_r2_g3 -1 x_r2_g4 -1 x_r2_g5 -1 x_r2_g6 -1 x_r2_g15 -1 x_r2_g18 -1 x_r2_g21 -1 x_r2_g25 -1 x_r2_g28 -1 x_r2_g42 -1 x_r2_g47 -1 x_r2_g58 -1 x_r2_g76 -1 x_r2_g94 -1 x_r2_g111 -2 x_r2_g117 -2 x_r2_g118 -1 x_r2_g122 -1 x_r2_g145 -2 x_r3_g0 -1 x_r3_g3 -1 x_r3_g5 -1 x_r3_g13 -1 x_r3_g21 -1 x_r3_g42 -1 x_r3_g45 -1 x_r3_g46 -1 x_r3_g52 -2 x_r3_g55 -1 x_r3_g56 -2 x_r3_g63 -1 x_r3_g68 -2 x_r3_g81 -2 x_r3_g84 -1 x_r3_g94 -1 x_r3_g97 -1 x_r3_g117 -1 x_r3_g133 -1 x_r3_g136 -1 x_r3_g146 -2 x_r3_g161 -1 x_r3_g165 -1 p_r0_g8_h132_t43 -1 p_r0_g30_h154_t43 -1 p_r0_g31_h155_t43 -1 p_r0_g45_h2_t43 -1 p_r0_g89_h46_t43 -1 p_r0_g132_h89_t43 -1 p_r0_g154_h111_t43 -1 p_r0_g155_h112_t43 -1 p_r1_g43_h0_t43 -1 p_r1_g58_h15_t43 -1 p_r1_g62_h19_t43 -1 p_r1_g84_h41_t43 -1 p_r1_g91_h48_t43 -1 p_r1_g92_h49_t43 -1 p_r1_g125_h82_t43 -1 p_r1_g138_h95_t43 -1 p_r1_g158_h115_t43 -1 p_r2_g8_h132_t43 -1 p_r2_g14_h138_t43 -1 p_r2_g21_h145_t43 -1 p_r2_g25_h149_t43 -1 p_r2_g42_h166_t43 -1 p_r2_g46_h3_t43 -1 p_r2_g47_h4_t43 -1 p_r2_g48_h5_t43 -1 p_r2_g49_h6_t43 -1 p_r2_g58_h15_t43 -1 p_r2_g119_h76_t43 -1 p_r2_g122_h79_t43 -1 p_r2_g141_h98_t43 -1 p_r2_g162_h119_t43 -1 p_r3_g46_h3_t43 -1 p_r3_g56_h13_t43 -1 p_r3_g66_h23_t43 -1 p_r3_g74_h31_t43 -1 p_r3_g88_h45_t43 -1 p_r3_g110_h67_t43 -1 p_r3_g117_h74_t43 -1 p_r3_g165_h122_t43 = -48 ;
1 d_43 -1 u_43 <= 0 ;
-1 d_43 -1 u_43 <= 0 ;
1 u_43 -1 M <= 0 ;
1 u_43 <= 1 ;
1 p_r0_g25_h146_t46 -1 x_r0_g25 <= 0 ;
1 p_r0_g25_h146_t46 -1 x_r0_g146 <= 0 ;
1 p_r0_g25_h146_t46 -1 x_r0_g25 -1 x_r0_g146 >= -1 ;
1 p_r0_g34_h155_t46 -1 x_r0_g34 <= 0 ;
1 p_r0_g34_h155_t46 -1 x_r0_g155 <= 0 ;
1 p_r0_g34_h155_t46 -1 x_r0_g34 -1 x_r0_g155 >= -1 ;
1 p_r0_g54_h8_t46 -1 x_r0_g54 <= 0 ;
1 p_r0_g54_h8_t46 -1 x_r0_g8 <= 0 ;
1 p_r0_g54_h8_t46 -1 x_r0_g54 -1 x_r0_g8 >= -1 ;
1 p_r0_g111_h65_t46 -1 x_r0_g111 <= 0 ;
1 p_r0_g111_h65_t46 -1 x_r0_g65 <= 0 ;
1 p_r0_g111_h65_t46 -1 x_r0_g111 -1 x_r0_g65 >= -1 ;
1 p_r0_g135_h89_t46 -1 x_r0_g135 <= 0 ;
1 p_r0_g135_h89_t46 -1 x_r0_g89 <= 0 ;
1 p_r0_g135_h89_t46 -1 x_r0_g135 -1 x_r0_g89 >= -1 ;
1 p_r1_g17_h138_t46 -1 x_r1_g17 <= 0 ;
1 p_r1_g17_h138_t46 -1 x_r1_g138 <= 0 ;
1 p_r1_g17_h138_t46 -1 x_r1_g17 -1 x_r1_g138 >= -1 ;
1 p_r1_g33_h154_t46 -1 x_r1_g33 <= 0 ;
1 p_r1_g33_h154_t46 -1 x_r1_g154 <= 0 ;
1 p_r1_g33_h154_t46 -1 x_r1_g33 -1 x_r1_g154 >= -1 ;
1 p_r1_g43_h164_t46 -1 x_r1_g43 <= 0 ;
1 p_r1_g43_h164_t46 -1 x_r1_g164 <= 0 ;
1 p_r1_g43_h164_t46 -1 x_r1_g43 -1 x_r1_g164 >= -1 ;
1 p_r1_g46_h0_t46 -1 x_r1_g46 <= 0 ;
1 p_r1_g46_h0_t46 -1 x_r1_g0 <= 0 ;
1 p_r1_g46_h0_t46 -1 x_r1_g46 -1 x_r1_g0 >= -1 ;
1 p_r1_g92_h46_t46 -1 x_r1_g92 <= 0 ;
1 p_r1_g92_h46_t46 -1 x_r1_g46 <= 0 ;
1 p_r1_g92_h46_t46 -1 x_r1_g92 -1 x_r1_g46 >= -1 ;
1 p_r1_g95_h49_t46 -1 x_r1_g95 <= 0 ;
1 p_r1_g95_h49_t46 -1 x_r1_g49 <= 0 ;
1 p_r1_g95_h49_t46 -1 x_r1_g95 -1 x_r1_g49 >= -1 ;
1 p_r1_g130_h84_t46 -1 x_r1_g130 <= 0 ;
1 p_r1_g130_h84_t46 -1 x_r1_g84 <= 0 ;
1 p_r1_g130_h84_t46 -1 x_r1_g130 -1 x_r1_g84 >= -1 ;
1 p_r1_g131_h85_t46 -1 x_r1_g131 <= 0 ;
1 p_r1_g131_h85_t46 -1 x_r1_g85 <= 0 ;
1 p_r1_g131_h85_t46 -1 x_r1_g131 -1 x_r1_g85 >= -1 ;
1 p_r1_g138_h92_t46 -1 x_r1_g138 <= 0 ;
1 p_r1_g138_h92_t46 -1 x_r1_g92 <= 0 ;
1 p_r1_g138_h92_t46 -1 x_r1_g138 -1 x_r1_g92 >= -1 ;
1 p_r1_g164_h118_t46 -1 x_r1_g164 <= 0 ;
1 p_r1_g164_h118_t46 -1 x_r1_g118 <= 0 ;
1 p_r1_g164_h118_t46 -1 x_r1_g164 -1 x_r1_g118 >= -1 ;
1 p_r2_g1_h122_t46 -1 x_r2_g1 <= 0 ;
1 p_r2_g1_h122_t46 -1 x_r2_g122 <= 0 ;
1 p_r2_g1_h122_t46 -1 x_r2_g1 -1 x_r2_g122 >= -1 ;
1 p_r2_g14_h135_t46 -1 x_r2_g14 <= 0 ;
1 p_r2_g14_h135_t46 -1 x_r2_g135 <= 0 ;
1 p_r2_g14_h135_t46 -1 x_r2_g14 -1 x_r2_g135 >= -1 ;
1 p_r2_g25_h146_t46 -1 x_r2_g25 <= 0 ;
1 p_r2_g25_h146_t46 -1 x_r2_g146 <= 0 ;
1 p_r2_g25_h146_t46 -1 x_r2_g25 -1 x_r2_g146 >= -1 ;
1 p_r2_g28_h149_t46 -1 x_r2_g28 <= 0 ;
1 p_r2_g28_h149_t46 -1 x_r2_g149 <= 0 ;
1 p_r2_g28_h149_t46 -1 x_r2_g28 -1 x_r2_g149 >= -1 ;
1 p_r2_g47_h1_t46 -1 x_r2_g47 <= 0 ;
1 p_r2_g47_h1_t46 -1 x_r2_g1 <= 0 ;
1 p_r2_g47_h1_t46 -1 x_r2_g47 -1 x_r2_g1 >= -1 ;
1 p_r2_g49_h3_t46 -1 x_r2_g49 <= 0 ;
1 p_r2_g49_h3_t46 -1 x_r2_g3 <= 0 ;
1 p_r2_g49_h3_t46 -1 x_r2_g49 -1 x_r2_g3 >= -1 ;
1 p_r2_g94_h48_t46 -1 x_r2_g94 <= 0 ;
1 p_r2_g94_h48_t46 -1 x_r2_g48 <= 0 ;
1 p_r2_g94_h48_t46 -1 x_r2_g94 -1 x_r2_g48 >= -1 ;
1 p_r2_g122_h76_t46 -1 x_r2_g122 <= 0 ;
1 p_r2_g122_h76_t46 -1 x_r2_g76 <= 0 ;
1 p_r2_g122_h76_t46 -1 x_r2_g122 -1 x_r2_g76 >= -1 ;
1 p_r3_g1_h122_t46 -1 x_r3_g1 <= 0 ;
1 p_r3_g1_h122_t46 -1 x_r3_g122 <= 0 ;
1 p_r3_g1_h122_t46 -1 x_r3_g1 -1 x_r3_g122 >= -1 ;
1 p_r3_g13_h134_t46 -1 x_r3_g13 <= 0 ;
1 p_r3_g13_h134_t46 -1 x_r3_g134 <= 0 ;
1 p_r3_g13_h134_t46 -1 x_r3_g13 -1 x_r3_g134 >= -1 ;
1 p_r3_g46_h0_t46 -1 x_r3_g46 <= 0 ;
1 p_r3_g46_h0_t46 -1 x_r3_g0 <= 0 ;
1 p_r3_g46_h0_t46 -1 x_r3_g46 -1 x_r3_g0 >= -1 ;
1 p_r3_g59_h13_t46 -1 x_r3_g59 <= 0 ;
1 p_r3_g59_h13_t46 -1 x_r3_g13 <= 0 ;
1 p_r3_g59_h13_t46 -1 x_r3_g59 -1 x_r3_g13 >= -1 ;
1 p_r3_g63_h17_t46 -1 x_r3_g63 <= 0 ;
1 p_r3_g63_h17_t46 -1 x_r3_g17 <= 0 ;
1 p_r3_g63_h17_t46 -1 x_r3_g63 -1 x_r3_g17 >= -1 ;
1 p_r3_g67_h21_t46 -1 x_r3_g67 <= 0 ;
1 p_r3_g67_h21_t46 -1 x_r3_g21 <= 0 ;
1 p_r3_g67_h21_t46 -1 x_r3_g67 -1 x_r3_g21 >= -1 ;
1 p_r3_g88_h42_t46 -1 x_r3_g88 <= 0 ;
1 p_r3_g88_h42_t46 -1 x_r3_g42 <= 0 ;
1 p_r3_g88_h42_t46 -1 x_r3_g88 -1 x_r3_g42 >= -1 ;
1 p_r3_g112_h66_t46 -1 x_r3_g112 <= 0 ;
1 p_r3_g112_h66_t46 -1 x_r3_g66 <= 0 ;
1 p_r3_g112_h66_t46 -1 x_r3_g112 -1 x_r3_g66 >= -1 ;
1 p_r3_g134_h88_t46 -1 x_r3_g134 <= 0 ;
1 p_r3_g134_h88_t46 -1 x_r3_g88 <= 0 ;
1 p_r3_g134_h88_t46 -1 x_r3_g134 -1 x_r3_g88 >= -1 ;
1 d_46 -2 x_r0_g2 -2 x_r0_g16 -1 x_r0_g18 -1 x_r0_g30 -2 x_r0_g31 -1 x_r0_g38 -1 x_r0_g39 -2 x_r0_g44 -1 x_r0_g49 -1 x_r0_g54 -1 x_r0_g58 -1 x_r0_g65 -1 x_r0_g89 -2 x_r0_g105 -1 x_r0_g106 -1 x_r0_g111 -1 x_r0_g112 -2 x_r0_g113 -1 x_r0_g116 -1 x_r0_g117 -1 x_r0_g132 -1 x_r0_g133 -1 x_r0_g135 -1 x_r0_g146 -1 x_r1_g18 -2 x_r1_g19 -2 x_r1_g20 -1 x_r1_g33 -2 x_r1_g35 -1 x_r1_g41 -1 x_r1_g43 -1 x_r1_g49 -2 x_r1_g62 -1 x_r1_g67 -2 x_r1_g82 -1 x_r1_g83 -1 x_r1_g84 -1 x_r1_g85 -1 x_r1_g95 -1 x_r1_g100 -1 x_r1_g115 -1 x_r1_g116 -1 x_r1_g125 -1 x_r1_g131 -1 x_r1_g132 -1 x_r1_g154 -2 x_r1_g158 -1 x_r2_g5 -1 x_r2_g6 -1 x_r2_g7 -1 x_r2_g8 -1 x_r2_g14 -2 x_r2_g15 -2 x_r2_g18 -1 x_r2_g28 -1 x_r2_g42 -1 x_r2_g46 -1 x_r2_g56 -1 x_r2_g58 -1 x_r2_g76 -1 x_r2_g79 -1 x_r2_g81 -1 x_r2_g94 -2 x_r2_g111 -1 x_r2_g117 -1 x_r2_g119 -1 x_r2_g132 -1 x_r2_g141 -2 x_r2_g162 -1 x_r2_g166 -1 x_r3_g1 -2 x_r3_g3 -1 x_r3_g17 -1 x_r3_g21 -1 x_r3_g23 -1 x_r3_g31 -1 x_r3_g42 -1 x_r3_g45 -2 x_r3_g52 -1 x_r3_g55 -1 x_r3_g58 -1 x_r3_g66 -1 x_r3_g68 -1 x_r3_g74 -2 x_r3_g78 -1 x_r3_g81 -1 x_r3_g84 -1 x_r3_g94 -1 x_r3_g97 -1 x_r3_g117 -1 x_r3_g122 -1 x_r3_g133 -1 x_r3_g139 -1 x_r3_g161 -1 x_r3_g165 -1 p_r0_g25_h146_t46 -1 p_r0_g34_h155_t46 -1 p_r0_g54_h8_t46 -1 p_r0_g111_h65_t46 -1 p_r0_g135_h89_t46 -1 p_r1_g17_h138_t46 -1 p_r1_g33_h154_t46 -1 p_r1_g43_h164_t46 -1 p_r1_g46_h0_t46 -1 p_r1_g92_h46_t46 -1 p_r1_g95_h49_t46 -1 p_r1_g130_h84_t46 -1 p_r1_g131_h85_t46 -1 p_r1_g138_h92_t46 -1 p_r1_g164_h118_t46 -1 p_r2_g1_h122_t46 -1 p_r2_g14_h135_t46 -1 p_r2_g25_h146_t46 -1 p_r2_g28_h149_t46 -1 p_r2_g47_h1_t46 -1 p_r2_g49_h3_t46 -1 p_r2_g94_h48_t46 -1 p_r2_g122_h76_t46 -1 p_r3_g1_h122_t46 -1 p_r3_g13_h134_t46 -1 p_r3_g46_h0_t46 -1 p_r3_g59_h13_t46 -1 p_r3_g63_h17_t46 -1 p_r3_g67_h21_t46 -1 p_r3_g88_h42_t46 -1 p_r3_g112_h66_t46 -1 p_r3_g134_h88_t46 = -63 ;
1 d_46 -1 u_46 <= 0 ;
-1 d_46 -1 u_46 <= 0 ;
1 u_46 -1 M <= 0 ;
1 u_46 <= 0 ;
1 p_r0_g18_h138_t47 -1 x_r0_g18 <= 0 ;
1 p_r0_g18_h138_t47 -1 x_r0_g138 <= 0 ;
1 p_r0_g18_h138_t47 -1 x_r0_g18 -1 x_r0_g138 >= -1 ;
1 p_r0_g30_h150_t47 -1 x_r0_g30 <= 0 ;
1 p_r0_g30_h150_t47 -1 x_r0_g150 <= 0 ;
1 p_r0_g30_h150_t47 -1 x_r0_g30 -1 x_r0_g150 >= -1 ;
1 p_r0_g34_h154_t47 -1 x_r0_g34 <= 0 ;
1 p_r0_g34_h154_t47 -1 x_r0_g154 <= 0 ;
1 p_r0_g34_h154_t47 -1 x_r0_g34 -1 x_r0_g154 >= -1 ;
1 p_r0_g35_h155_t47 -1 x_r0_g35 <= 0 ;
1 p_r0_g35_h155_t47 -1 x_r0_g155 <= 0 ;
1 p_r0_g35_h155_t47 -1 x_r0_g35 -1 x_r0_g155 >= -1 ;
1 p_r0_g49_h2_t47 -1 x_r0_g49 <= 0 ;
1 p_r0_g49_h2_t47 -1 x_r0_g2 <= 0 ;
1 p_r0_g49_h2_t47 -1 x_r0_g49 -1 x_r0_g2 >= -1 ;
1 p_r0_g65_h18_t47 -1 x_r0_g65 <= 0 ;
1 p_r0_g65_h18_t47 -1 x_r0_g18 <= 0 ;
1 p_r0_g65_h18_t47 -1 x_r0_g65 -1 x_r0_g18 >= -1 ;
1 p_r0_g105_h58_t47 -1 x_r0_g105 <= 0 ;
1 p_r0_g105_h58_t47 -1 x_r0_g58 <= 0 ;
1 p_r0_g105_h58_t47 -1 x_r0_g105 -1 x_r0_g58 >= -1 ;
1 p_r0_g112_h65_t47 -1 x_r0_g112 <= 0 ;
1 p_r0_g112_h65_t47 -1 x_r0_g65 <= 0 ;
1 p_r0_g112_h65_t47 -1 x_r0_g112 -1 x_r0_g65 >= -1 ;
1 p_r0_g146_h99_t47 -1 x_r0_g146 <= 0 ;
1 p_r0_g146_h99_t47 -1 x_r0_g99 <= 0 ;
1 p_r0_g146_h99_t47 -1 x_r0_g146 -1 x_r0_g99 >= -1 ;
1 p_r1_g18_h138_t47 -1 x_r1_g18 <= 0 ;
1 p_r1_g18_h138_t47 -1 x_r1_g138 <= 0 ;
1 p_r1_g18_h138_t47 -1 x_r1_g18 -1 x_r1_g138 >= -1 ;
1 p_r1_g62_h15_t47 -1 x_r1_g62 <= 0 ;
1 p_r1_g62_h15_t47 -1 x_r1_g15 <= 0 ;
1 p_r1_g62_h15_t47 -1 x_r1_g62 -1 x_r1_g15 >= -1 ;
1 p_r1_g67_h20_t47 -1 x_r1_g67 <= 0 ;
1 p_r1_g67_h20_t47 -1 x_r1_g20 <= 0 ;
1 p_r1_g67_h20_t47 -1 x_r1_g67 -1 x_r1_g20 >= -1 ;
1 p_r1_g82_h35_t47 -1 x_r1_g82 <= 0 ;
1 p_r1_g82_h35_t47 -1 x_r1_g35 <= 0 ;
1 p_r1_g82_h35_t47 -1 x_r1_g82 -1 x_r1_g35 >= -1 ;
1 p_r1_g95_h48_t47 -1 x_r1_g95 <= 0 ;
1 p_r1_g95_h48_t47 -1 x_r1_g48 <= 0 ;
1 p_r1_g95_h48_t47 -1 x_r1_g95 -1 x_r1_g48 >= -1 ;
1 p_r1_g130_h83_t47 -1 x_r1_g130 <= 0 ;
1 p_r1_g130_h83_t47 -1 x_r1_g83 <= 0 ;
1 p_r1_g130_h83_t47 -1 x_r1_g130 -1 x_r1_g83 >= -1 ;
1 p_r1_g131_h84_t47 -1 x_r1_g131 <= 0 ;
1 p_r1_g131_h84_t47 -1 x_r1_g84 <= 0 ;
1 p_r1_g131_h84_t47 -1 x_r1_g131 -1 x_r1_g84 >= -1 ;
1 p_r1_g132_h85_t47 -1 x_r1_g132 <= 0 ;
1 p_r1_g132_h85_t47 -1 x_r1_g85 <= 0 ;
1 p_r1_g132_h85_t47 -1 x_r1_g132 -1 x_r1_g85 >= -1 ;
1 p_r1_g138_h91_t47 -1 x_r1_g138 <= 0 ;
1 p_r1_g138_h91_t47 -1 x_r1_g91 <= 0 ;
1 p_r1_g138_h91_t47 -1 x_r1_g138 -1 x_r1_g91 >= -1 ;
1 p_r2_g14_h134_t47 -1 x_r2_g14 <= 0 ;
1 p_r2_g14_h134_t47 -1 x_r2_g134 <= 0 ;
1 p_r2_g14_h134_t47 -1 x_r2_g14 -1 x_r2_g134 >= -1 ;
1 p_r2_g15_h135_t47 -1 x_r2_g15 <= 0 ;
1 p_r2_g15_h135_t47 -1 x_r2_g135 <= 0 ;
1 p_r2_g15_h135_t47 -1 x_r2_g15 -1 x_r2_g135 >= -1 ;
1 p_r2_g18_h138_t47 -1 x_r2_g18 <= 0 ;
1 p_r2_g18_h138_t47 -1 x_r2_g138 <= 0 ;
1 p_r2_g18_h138_t47 -1 x_r2_g18 -1 x_r2_g138 >= -1 ;
1 p_r2_g21_h141_t47 -1 x_r2_g21 <= 0 ;
1 p_r2_g21_h141_t47 -1 x_r2_g141 <= 0 ;
1 p_r2_g21_h141_t47 -1 x_r2_g21 -1 x_r2_g141 >= -1 ;
1 p_r2_g25_h145_t47 -1 x_r2_g25 <= 0 ;
1 p_r2_g25_h145_t47 -1 x_r2_g145 <= 0 ;
1 p_r2_g25_h145_t47 -1 x_r2_g25 -1 x_r2_g145 >= -1 ;
1 p_r2_g42_h162_t47 -1 x_r2_g42 <= 0 ;
1 p_r2_g42_h162_t47 -1 x_r2_g162 <= 0 ;
1 p_r2_g42_h162_t47 -1 x_r2_g42 -1 x_r2_g162 >= -1 ;
1 p_r2_g46_h166_t47 -1 x_r2_g46 <= 0 ;
1 p_r2_g46_h166_t47 -1 x_r2_g166 <= 0 ;
1 p_r2_g46_h166_t47 -1 x_r2_g46 -1 x_r2_g166 >= -1 ;
1 p_r2_g48_h1_t47 -1 x_r2_g48 <= 0 ;
1 p_r2_g48_h1_t47 -1 x_r2_g1 <= 0 ;
1 p_r2_g48_h1_t47 -1 x_r2_g48 -1 x_r2_g1 >= -1 ;
1 p_r2_g94_h47_t47 -1 x_r2_g94 <= 0 ;
1 p_r2_g94_h47_t47 -1 x_r2_g47 <= 0 ;
1 p_r2_g94_h47_t47 -1 x_r2_g94 -1 x_r2_g47 >= -1 ;
1 p_r2_g141_h94_t47 -1 x_r2_g141 <= 0 ;
1 p_r2_g141_h94_t47 -1 x_r2_g94 <= 0 ;
1 p_r2_g141_h94_t47 -1 x_r2_g141 -1 x_r2_g94 >= -1 ;
1 p_r2_g145_h98_t47 -1 x_r2_g145 <= 0 ;
1 p_r2_g145_h98_t47 -1 x_r2_g98 <= 0 ;
1 p_r2_g145_h98_t47 -1 x_r2_g145 -1 x_r2_g98 >= -1 ;
1 p_r2_g166_h119_t47 -1 x_r2_g166 <= 0 ;
1 p_r2_g166_h119_t47 -1 x_r2_g119 <= 0 ;
1 p_r2_g166_h119_t47 -1 x_r2_g166 -1 x_r2_g119 >= -1 ;
1 p_r3_g13_h133_t47 -1 x_r3_g13 <= 0 ;
1 p_r3_g13_h133_t47 -1 x_r3_g133 <= 0 ;
1 p_r3_g13_h133_t47 -1 x_r3_g13 -1 x_r3_g133 >= -1 ;
1 p_r3_g26_h146_t47 -1 x_r3_g26 <= 0 ;
1 p_r3_g26_h146_t47 -1 x_r3_g146 <= 0 ;
1 p_r3_g26_h146_t47 -1 x_r3_g26 -1 x_r3_g146 >= -1 ;
1 p_r3_g45_h165_t47 -1 x_r3_g45 <= 0 ;
1 p_r3_g45_h165_t47 -1 x_r3_g165 <= 0 ;
1 p_r3_g45_h165_t47 -1 x_r3_g45 -1 x_r3_g165 >= -1 ;
1 p_r3_g52_h5_t47 -1 x_r3_g52 <= 0 ;
1 p_r3_g52_h5_t47 -1 x_r3_g5 <= 0 ;
1 p_r3_g52_h5_t47 -1 x_r3_g52 -1 x_r3_g5 >= -1 ;
1 p_r3_g68_h21_t47 -1 x_r3_g68 <= 0 ;
1 p_r3_g68_h21_t47 -1 x_r3_g21 <= 0 ;
1 p_r3_g68_h21_t47 -1 x_r3_g68 -1 x_r3_g21 >= -1 ;
1 p_r3_g78_h31_t47 -1 x_r3_g78 <= 0 ;
1 p_r3_g78_h31_t47 -1 x_r3_g31 <= 0 ;
1 p_r3_g78_h31_t47 -1 x_r3_g78 -1 x_r3_g31 >= -1 ;
1 p_r3_g110_h63_t47 -1 x_r3_g110 <= 0 ;
1 p_r3_g110_h63_t47 -1 x_r3_g63 <= 0 ;
1 p_r3_g110_h63_t47 -1 x_r3_g110 -1 x_r3_g63 >= -1 ;
1 d_47 -1 x_r0_g2 -1 x_r0_g8 -2 x_r0_g16 -1 x_r0_g30 -1 x_r0_g31 -1 x_r0_g38 -1 x_r0_g39 -1 x_r0_g40 -1 x_r0_g41 -1 x_r0_g45 -2 x_r0_g54 -1 x_r0_g58 -2 x_r0_g89 -1 x_r0_g99 -1 x_r0_g105 -1 x_r0_g106 -1 x_r0_g111 -1 x_r0_g112 -1 x_r0_g113 -1 x_r0_g116 -1 x_r0_g117 -1 x_r0_g118 -1 x_r0_g131 -1 x_r0_g132 -1 x_r0_g133 -2 x_r0_g135 -1 x_r0_g150 -1 x_r1_g17 -1 x_r1_g18 -1 x_r1_g19 -1 x_r1_g20 -1 x_r1_g33 -1 x_r1_g35 -1 x_r1_g41 -2 x_r1_g43 -1 x_r1_g46 -1 x_r1_g48 -1 x_r1_g49 -1 x_r1_g58 -1 x_r1_g62 -1 x_r1_g67 -1 x_r1_g83 -1 x_r1_g84 -1 x_r1_g85 -1 x_r1_g91 -1 x_r1_g100 -1 x_r1_g115 -2 x_r1_g116 -1 x_r1_g119 -1 x_r1_g125 -1 x_r1_g130 -1 x_r1_g131 -1 x_r1_g154 -1 x_r1_g158 -1 x_r1_g164 -1 x_r2_g1 -1 x_r2_g6 -1 x_r2_g7 -1 x_r2_g8 -1 x_r2_g14 -1 x_r2_g18 -1 x_r2_g21 -2 x_r2_g28 -1 x_r2_g47 -1 x_r2_g58 -1 x_r2_g79 -2 x_r2_g81 -2 x_r2_g111 -1 x_r2_g118 -1 x_r2_g122 -1 x_r2_g132 -1 x_r2_g134 -1 x_r2_g146 -1 x_r2_g149 -1 x_r2_g162 -1 x_r3_g0 -1 x_r3_g3 -1 x_r3_g17 -1 x_r3_g23 -1 x_r3_g31 -2 x_r3_g42 -1 x_r3_g46 -1 x_r3_g52 -1 x_r3_g55 -1 x_r3_g56 -2 x_r3_g59 -1 x_r3_g66 -1 x_r3_g67 -1 x_r3_g74 -1 x_r3_g81 -1 x_r3_g84 -1 x_r3_g88 -1 x_r3_g94 -1 x_r3_g97 -1 x_r3_g112 -2 x_r3_g122 -1 x_r3_g133 -1 x_r3_g136 -1 x_r3_g139 -1 x_r3_g146 -1 x_r3_g161 -1 x_r3_g165 -1 p_r0_g18_h138_t47 -1 p_r0_g30_h150_t47 -1 p_r0_g34_h154_t47 -1 p_r0_g35_h155_t47 -1 p_r0_g49_h2_t47 -1 p_r0_g65_h18_t47 -1 p_r0_g105_h58_t47 -1 p_r0_g112_h65_t47 -1 p_r0_g146_h99_t47 -1 p_r1_g18_h138_t47 -1 p_r1_g62_h15_t47 -1 p_r1_g67_h20_t47 -1 p_r1_g82_h35_t47 -1 p_r1_g95_h48_t47 -1 p_r1_g130_h83_t47 -1 p_r1_g131_h84_t47 -1 p_r1_g132_h85_t47 -1 p_r1_g138_h91_t47 -1 p_r2_g14_h134_t47 -1 p_r2_g15_h135_t47 -1 p_r2_g18_h138_t47 -1 p_r2_g21_h141_t47 -1 p_r2_g25_h145_t47 -1 p_r2_g42_h162_t47 -1 p_r2_g46_h166_t47 -1 p_r2_g48_h1_t47 -1 p_r2_g94_h47_t47 -1 p_r2_g141_h94_t47 -1 p_r2_g145_h98_t47 -1 p_r2_g166_h119_t47 -1 p_r3_g13_h133_t47 -1 p_r3_g26_h146_t47 -1 p_r3_g45_h165_t47 -1 p_r3_g52_h5_t47 -1 p_r3_g68_h21_t47 -1 p_r3_g78_h31_t47 -1 p_r3_g110_h63_t47 = -58 ;
1 d_47 -1 u_47 <= 0 ;
-1 d_47 -1 u_47 <= 0 ;
1 u_47 -1 M <= 0 ;
1 u_47 <= 1 ;
1 p_r0_g2_h105_t64 -1 x_r0_g2 <= 0 ;
1 p_r0_g2_h105_t64 -1 x_r0_g105 <= 0 ;
1 p_r0_g2_h105_t64 -1 x_r0_g2 -1 x_r0_g105 >= -1 ;
1 p_r0_g8_h111_t64 -1 x_r0_g8 <= 0 ;
1 p_r0_g8_h111_t64 -1 x_r0_g111 <= 0 ;
1 p_r0_g8_h111_t64 -1 x_r0_g8 -1 x_r0_g111 >= -1 ;
1 p_r0_g30_h133_t64 -1 x_r0_g30 <= 0 ;
1 p_r0_g30_h133_t64 -1 x_r0_g133 <= 0 ;
1 p_r0_g30_h133_t64 -1 x_r0_g30 -1 x_r0_g133 >= -1 ;
1 p_r0_g35_h138_t64 -1 x_r0_g35 <= 0 ;
1 p_r0_g35_h138_t64 -1 x_r0_g138 <= 0 ;
1 p_r0_g35_h138_t64 -1 x_r0_g35 -1 x_r0_g138 >= -1 ;
1 p_r0_g40_h143_t64 -1 x_r0_g40 <= 0 ;
1 p_r0_g40_h143_t64 -1 x_r0_g143 <= 0 ;
1 p_r0_g40_h143_t64 -1 x_r0_g40 -1 x_r0_g143 >= -1 ;
1 p_r0_g89_h25_t64 -1 x_r0_g89 <= 0 ;
1 p_r0_g89_h25_t64 -1 x_r0_g25 <= 0 ;
1 p_r0_g89_h25_t64 -1 x_r0_g89 -1 x_r0_g25 >= -1 ;
1 p_r0_g99_h35_t64 -1 x_r0_g99 <= 0 ;
1 p_r0_g99_h35_t64 -1 x_r0_g35 <= 0 ;
1 p_r0_g99_h35_t64 -1 x_r0_g99 -1 x_r0_g35 >= -1 ;
1 p_r0_g105_h41_t64 -1 x_r0_g105 <= 0 ;
1 p_r0_g105_h41_t64 -1 x_r0_g41 <= 0 ;
1 p_r0_g105_h41_t64 -1 x_r0_g105 -1 x_r0_g41 >= -1 ;
1 p_r0_g113_h49_t64 -1 x_r0_g113 <= 0 ;
1 p_r0_g113_h49_t64 -1 x_r0_g49 <= 0 ;
1 p_r0_g113_h49_t64 -1 x_r0_g113 -1 x_r0_g49 >= -1 ;
1 p_r0_g118_h54_t64 -1 x_r0_g118 <= 0 ;
1 p_r0_g118_h54_t64 -1 x_r0_g54 <= 0 ;
1 p_r0_g118_h54_t64 -1 x_r0_g118 -1 x_r0_g54 >= -1 ;
1 p_r1_g15_h118_t64 -1 x_r1_g15 <= 0 ;
1 p_r1_g15_h118_t64 -1 x_r1_g118 <= 0 ;
1 p_r1_g15_h118_t64 -1 x_r1_g15 -1 x_r1_g118 >= -1 ;
1 p_r1_g28_h131_t64 -1 x_r1_g28 <= 0 ;
1 p_r1_g28_h131_t64 -1 x_r1_g131 <= 0 ;
1 p_r1_g28_h131_t64 -1 x_r1_g28 -1 x_r1_g131 >= -1 ;
1 p_r1_g29_h132_t64 -1 x_r1_g29 <= 0 ;
1 p_r1_g29_h132_t64 -1 x_r1_g132 <= 0 ;
1 p_r1_g29_h132_t64 -1 x_r1_g29 -1 x_r1_g132 >= -1 ;
1 p_r1_g35_h138_t64 -1 x_r1_g35 <= 0 ;
1 p_r1_g35_h138_t64 -1 x_r1_g138 <= 0 ;
1 p_r1_g35_h138_t64 -1 x_r1_g35 -1 x_r1_g138 >= -1 ;
1 p_r1_g82_h18_t64 -1 x_r1_g82 <= 0 ;
1 p_r1_g82_h18_t64 -1 x_r1_g18 <= 0 ;
1 p_r1_g82_h18_t64 -1 x_r1_g82 -1 x_r1_g18 >= -1 ;
1 p_r1_g83_h19_t64 -1 x_r1_g83 <= 0 ;
1 p_r1_g83_h19_t64 -1 x_r1_g19 <= 0 ;
1 p_r1_g83_h19_t64 -1 x_r1_g83 -1 x_r1_g19 >= -1 ;
1 p_r1_g84_h20_t64 -1 x_r1_g84 <= 0 ;
1 p_r1_g84_h20_t64 -1 x_r1_g20 <= 0 ;
1 p_r1_g84_h20_t64 -1 x_r1_g84 -1 x_r1_g20 >= -1 ;
1 p_r1_g92_h28_t64 -1 x_r1_g92 <= 0 ;
1 p_r1_g92_h28_t64 -1 x_r1_g28 <= 0 ;
1 p_r1_g92_h28_t64 -1 x_r1_g92 -1 x_r1_g28 >= -1 ;
1 p_r1_g97_h33_t64 -1 x_r1_g97 <= 0 ;
1 p_r1_g97_h33_t64 -1 x_r1_g33 <= 0 ;
1 p_r1_g97_h33_t64 -1 x_r1_g97 -1 x_r1_g33 >= -1 ;
1 p_r1_g131_h67_t64 -1 x_r1_g131 <= 0 ;
1 p_r1_g131_h67_t64 -1 x_r1_g67 <= 0 ;
1 p_r1_g131_h67_t64 -1 x_r1_g131 -1 x_r1_g67 >= -1 ;
1 p_r1_g164_h100_t64 -1 x_r1_g164 <= 0 ;
1 p_r1_g164_h100_t64 -1 x_r1_g100 <= 0 ;
1 p_r1_g164_h100_t64 -1 x_r1_g164 -1 x_r1_g100 >= -1 ;
1 p_r2_g8_h111_t64 -1 x_r2_g8 <= 0 ;
1 p_r2_g8_h111_t64 -1 x_r2_g111 <= 0 ;
1 p_r2_g8_h111_t64 -1 x_r2_g8 -1 x_r2_g111 >= -1 ;
1 p_r2_g14_h117_t64 -1 x_r2_g14 <= 0 ;
1 p_r2_g14_h117_t64 -1 x_r2_g117 <= 0 ;
1 p_r2_g14_h117_t64 -1 x_r2_g14 -1 x_r2_g117 >= -1 ;
1 p_r2_g15_h118_t64 -1 x_r2_g15 <= 0 ;
1 p_r2_g15_h118_t64 -1 x_r2_g118 <= 0 ;
1 p_r2_g15_h118_t64 -1 x_r2_g15 -1 x_r2_g118 >= -1 ;
1 p_r2_g42_h145_t64 -1 x_r2_g42 <= 0 ;
1 p_r2_g42_h145_t64 -1 x_r2_g145 <= 0 ;
1 p_r2_g42_h145_t64 -1 x_r2_g42 -1 x_r2_g145 >= -1 ;
1 p_r2_g46_h149_t64 -1 x_r2_g46 <= 0 ;
1 p_r2_g46_h149_t64 -1 x_r2_g149 <= 0 ;
1 p_r2_g46_h149_t64 -1 x_r2_g46 -1 x_r2_g149 >= -1 ;
1 p_r2_g79_h15_t64 -1 x_r2_g79 <= 0 ;
1 p_r2_g79_h15_t64 -1 x_r2_g15 <= 0 ;
1 p_r2_g79_h15_t64 -1 x_r2_g79 -1 x_r2_g15 >= -1 ;
1 p_r2_g111_h47_t64 -1 x_r2_g111 <= 0 ;
1 p_r2_g111_h47_t64 -1 x_r2_g47 <= 0 ;
1 p_r2_g111_h47_t64 -1 x_r2_g111 -1 x_r2_g47 >= -1 ;
1 p_r2_g122_h58_t64 -1 x_r2_g122 <= 0 ;
1 p_r2_g122_h58_t64 -1 x_r2_g58 <= 0 ;
1 p_r2_g122_h58_t64 -1 x_r2_g122 -1 x_r2_g58 >= -1 ;
1 p_r2_g145_h81_t64 -1 x_r2_g145 <= 0 ;
1 p_r2_g145_h81_t64 -1 x_r2_g81 <= 0 ;
1 p_r2_g145_h81_t64 -1 x_r2_g145 -1 x_r2_g81 >= -1 ;
1 p_r2_g162_h98_t64 -1 x_r2_g162 <= 0 ;
1 p_r2_g162_h98_t64 -1 x_r2_g98 <= 0 ;
1 p_r2_g162_h98_t64 -1 x_r2_g162 -1 x_r2_g98 >= -1 ;
1 p_r3_g31_h134_t64 -1 x_r3_g31 <= 0 ;
1 p_r3_g31_h134_t64 -1 x_r3_g134 <= 0 ;
1 p_r3_g31_h134_t64 -1 x_r3_g31 -1 x_r3_g134 >= -1 ;
1 p_r3_g58_h161_t64 -1 x_r3_g58 <= 0 ;
1 p_r3_g58_h161_t64 -1 x_r3_g161 <= 0 ;
1 p_r3_g58_h161_t64 -1 x_r3_g58 -1 x_r3_g161 >= -1 ;
1 p_r3_g67_h3_t64 -1 x_r3_g67 <= 0 ;
1 p_r3_g67_h3_t64 -1 x_r3_g3 <= 0 ;
1 p_r3_g67_h3_t64 -1 x_r3_g67 -1 x_r3_g3 >= -1 ;
1 p_r3_g81_h17_t64 -1 x_r3_g81 <= 0 ;
1 p_r3_g81_h17_t64 -1 x_r3_g17 <= 0 ;
1 p_r3_g81_h17_t64 -1 x_r3_g81 -1 x_r3_g17 >= -1 ;
1 p_r3_g110_h46_t64 -1 x_r3_g110 <= 0 ;
1 p_r3_g110_h46_t64 -1 x_r3_g46 <= 0 ;
1 p_r3_g110_h46_t64 -1 x_r3_g110 -1 x_r3_g46 >= -1 ;
1 p_r3_g122_h58_t64 -1 x_r3_g122 <= 0 ;
1 p_r3_g122_h58_t64 -1 x_r3_g58 <= 0 ;
1 p_r3_g122_h58_t64 -1 x_r3_g122 -1 x_r3_g58 >= -1 ;
1 p_r3_g161_h97_t64 -1 x_r3_g161 <= 0 ;
1 p_r3_g161_h97_t64 -1 x_r3_g97 <= 0 ;
1 p_r3_g161_h97_t64 -1 x_r3_g161 -1 x_r3_g97 >= -1 ;
1 d_64 -1 x_r0_g16 -2 x_r0_g34 -1 x_r0_g38 -2 x_r0_g39 -1 x_r0_g46 -1 x_r0_g49 -1 x_r0_g54 -1 x_r0_g58 -1 x_r0_g99 -2 x_r0_g106 -1 x_r0_g111 -1 x_r0_g112 -2 x_r0_g116 -1 x_r0_g117 -1 x_r0_g118 -1 x_r0_g131 -1 x_r0_g132 -1 x_r0_g138 -1 x_r0_g146 -1 x_r0_g150 -2 x_r0_g154 -1 x_r0_g155 -2 x_r1_g0 -1 x_r1_g15 -1 x_r1_g17 -1 x_r1_g20 -2 x_r1_g43 -1 x_r1_g48 -1 x_r1_g49 -1 x_r1_g67 -1 x_r1_g82 -2 x_r1_g91 -1 x_r1_g92 -2 x_r1_g95 -1 x_r1_g100 -1 x_r1_g119 -2 x_r1_g130 -1 x_r1_g132 -1 x_r1_g154 -2 x_r2_g1 -1 x_r2_g4 -1 x_r2_g7 -1 x_r2_g14 -2 x_r2_g18 -1 x_r2_g21 -1 x_r2_g25 -1 x_r2_g46 -1 x_r2_g47 -2 x_r2_g48 -2 x_r2_g49 -1 x_r2_g56 -1 x_r2_g58 -1 x_r2_g76 -2 x_r2_g94 -1 x_r2_g98 -1 x_r2_g132 -1 x_r2_g134 -1 x_r2_g138 -2 x_r2_g146 -1 x_r2_g149 -2 x_r2_g166 -1 x_r3_g1 -1 x_r3_g3 -1 x_r3_g5 -1 x_r3_g13 -1 x_r3_g21 -1 x_r3_g26 -2 x_r3_g42 -1 x_r3_g45 -1 x_r3_g46 -1 x_r3_g55 -2 x_r3_g59 -2 x_r3_g63 -1 x_r3_g66 -2 x_r3_g68 -1 x_r3_g74 -1 x_r3_g78 -1 x_r3_g81 -2 x_r3_g84 -1 x_r3_g94 -1 x_r3_g112 -1 x_r3_g117 -1 x_r3_g122 -1 x_r3_g133 -2 x_r3_g139 -1 x_r3_g146 -1 x_r3_g165 -1 p_r0_g2_h105_t64 -1 p_r0_g8_h111_t64 -1 p_r0_g30_h133_t64 -1 p_r0_g35_h138_t64 -1 p_r0_g40_h143_t64 -1 p_r0_g89_h25_t64 -1 p_r0_g99_h35_t64 -1 p_r0_g105_h41_t64 -1 p_r0_g113_h49_t64 -1 p_r0_g118_h54_t64 -1 p_r1_g15_h118_t64 -1 p_r1_g28_h131_t64 -1 p_r1_g29_h132_t64 -1 p_r1_g35_h138_t64 -1 p_r1_g82_h18_t64 -1 p_r1_g83_h19_t64 -1 p_r1_g84_h20_t64 -1 p_r1_g92_h28_t64 -1 p_r1_g97_h33_t64 -1 p_r1_g131_h67_t64 -1 p_r1_g164_h100_t64 -1 p_r2_g8_h111_t64 -1 p_r2_g14_h117_t64 -1 p_r2_g15_h118_t64 -1 p_r2_g42_h145_t64 -1 p_r2_g46_h149_t64 -1 p_r2_g79_h15_t64 -1 p_r2_g111_h47_t64 -1 p_r2_g122_h58_t64 -1 p_r2_g145_h81_t64 -1 p_r2_g162_h98_t64 -1 p_r3_g31_h134_t64 -1 p_r3_g58_h161_t64 -1 p_r3_g67_h3_t64 -1 p_r3_g81_h17_t64 -1 p_r3_g110_h46_t64 -1 p_r3_g122_h58_t64 -1 p_r3_g161_h97_t64 = -82 ;
1 d_64 -1 u_64 <= 0 ;
-1 d_64 -1 u_64 <= 0 ;
1 u_64 -1 M <= 0 ;
1 u_64 <= 1 ;
1 p_r0_g16_h117_t66 -1 x_r0_g16 <= 0 ;
1 p_r0_g16_h117_t66 -1 x_r0_g117 <= 0 ;
1 p_r0_g16_h117_t66 -1 x_r0_g16 -1 x_r0_g117 >= -1 ;
1 p_r0_g30_h131_t66 -1 x_r0_g30 <= 0 ;
1 p_r0_g30_h131_t66 -1 x_r0_g131 <= 0 ;
1 p_r0_g30_h131_t66 -1 x_r0_g30 -1 x_r0_g131 >= -1 ;
1 p_r0_g31_h132_t66 -1 x_r0_g31 <= 0 ;
1 p_r0_g31_h132_t66 -1 x_r0_g132 <= 0 ;
1 p_r0_g31_h132_t66 -1 x_r0_g31 -1 x_r0_g132 >= -1 ;
1 p_r0_g34_h135_t66 -1 x_r0_g34 <= 0 ;
1 p_r0_g34_h135_t66 -1 x_r0_g135 <= 0 ;
1 p_r0_g34_h135_t66 -1 x_r0_g34 -1 x_r0_g135 >= -1 ;
1 p_r0_g45_h146_t66 -1 x_r0_g45 <= 0 ;
1 p_r0_g45_h146_t66 -1 x_r0_g146 <= 0 ;
1 p_r0_g45_h146_t66 -1 x_r0_g45 -1 x_r0_g146 >= -1 ;
1 p_r0_g49_h150_t66 -1 x_r0_g49 <= 0 ;
1 p_r0_g49_h150_t66 -1 x_r0_g150 <= 0 ;
1 p_r0_g49_h150_t66 -1 x_r0_g49 -1 x_r0_g150 >= -1 ;
1 p_r0_g54_h155_t66 -1 x_r0_g54 <= 0 ;
1 p_r0_g54_h155_t66 -1 x_r0_g155 <= 0 ;
1 p_r0_g54_h155_t66 -1 x_r0_g54 -1 x_r0_g155 >= -1 ;
1 p_r0_g105_h39_t66 -1 x_r0_g105 <= 0 ;
1 p_r0_g105_h39_t66 -1 x_r0_g39 <= 0 ;
1 p_r0_g105_h39_t66 -1 x_r0_g105 -1 x_r0_g39 >= -1 ;
1 p_r0_g106_h40_t66 -1 x_r0_g106 <= 0 ;
1 p_r0_g106_h40_t66 -1 x_r0_g40 <= 0 ;
1 p_r0_g106_h40_t66 -1 x_r0_g106 -1 x_r0_g40 >= -1 ;
1 p_r0_g111_h45_t66 -1 x_r0_g111 <= 0 ;
1 p_r0_g111_h45_t66 -1 x_r0_g45 <= 0 ;
1 p_r0_g111_h45_t66 -1 x_r0_g111 -1 x_r0_g45 >= -1 ;
1 p_r0_g112_h46_t66 -1 x_r0_g112 <= 0 ;
1 p_r0_g112_h46_t66 -1 x_r0_g46 <= 0 ;
1 p_r0_g112_h46_t66 -1 x_r0_g112 -1 x_r0_g46 >= -1 ;
1 p_r0_g131_h65_t66 -1 x_r0_g131 <= 0 ;
1 p_r0_g131_h65_t66 -1 x_r0_g65 <= 0 ;
1 p_r0_g131_h65_t66 -1 x_r0_g131 -1 x_r0_g65 >= -1 ;
1 p_r0_g155_h89_t66 -1 x_r0_g155 <= 0 ;
1 p_r0_g155_h89_t66 -1 x_r0_g89 <= 0 ;
1 p_r0_g155_h89_t66 -1 x_r0_g155 -1 x_r0_g89 >= -1 ;
1 p_r1_g15_h116_t66 -1 x_r1_g15 <= 0 ;
1 p_r1_g15_h116_t66 -1 x_r1_g116 <= 0 ;
1 p_r1_g15_h116_t66 -1 x_r1_g15 -1 x_r1_g116 >= -1 ;
1 p_r1_g17_h118_t66 -1 x_r1_g17 <= 0 ;
1 p_r1_g17_h118_t66 -1 x_r1_g118 <= 0 ;
1 p_r1_g17_h118_t66 -1 x_r1_g17 -1 x_r1_g118 >= -1 ;
1 p_r1_g18_h119_t66 -1 x_r1_g18 <= 0 ;
1 p_r1_g18_h119_t66 -1 x_r1_g119 <= 0 ;
1 p_r1_g18_h119_t66 -1 x_r1_g18 -1 x_r1_g119 >= -1 ;
1 p_r1_g29_h130_t66 -1 x_r1_g29 <= 0 ;
1 p_r1_g29_h130_t66 -1 x_r1_g130 <= 0 ;
1 p_r1_g29_h130_t66 -1 x_r1_g29 -1 x_r1_g130 >= -1 ;
1 p_r1_g83_h17_t66 -1 x_r1_g83 <= 0 ;
1 p_r1_g83_h17_t66 -1 x_r1_g17 <= 0 ;
1 p_r1_g83_h17_t66 -1 x_r1_g83 -1 x_r1_g17 >= -1 ;
1 p_r1_g84_h18_t66 -1 x_r1_g84 <= 0 ;
1 p_r1_g84_h18_t66 -1 x_r1_g18 <= 0 ;
1 p_r1_g84_h18_t66 -1 x_r1_g84 -1 x_r1_g18 >= -1 ;
1 p_r1_g85_h19_t66 -1 x_r1_g85 <= 0 ;
1 p_r1_g85_h19_t66 -1 x_r1_g19 <= 0 ;
1 p_r1_g85_h19_t66 -1 x_r1_g85 -1 x_r1_g19 >= -1 ;
1 p_r1_g95_h29_t66 -1 x_r1_g95 <= 0 ;
1 p_r1_g95_h29_t66 -1 x_r1_g29 <= 0 ;
1 p_r1_g95_h29_t66 -1 x_r1_g95 -1 x_r1_g29 >= -1 ;
1 p_r1_g115_h49_t66 -1 x_r1_g115 <= 0 ;
1 p_r1_g115_h49_t66 -1 x_r1_g49 <= 0 ;
1 p_r1_g115_h49_t66 -1 x_r1_g115 -1 x_r1_g49 >= -1 ;
1 p_r1_g158_h92_t66 -1 x_r1_g158 <= 0 ;
1 p_r1_g158_h92_t66 -1 x_r1_g92 <= 0 ;
1 p_r1_g158_h92_t66 -1 x_r1_g158 -1 x_r1_g92 >= -1 ;
1 p_r1_g164_h98_t66 -1 x_r1_g164 <= 0 ;
1 p_r1_g164_h98_t66 -1 x_r1_g98 <= 0 ;
1 p_r1_g164_h98_t66 -1 x_r1_g164 -1 x_r1_g98 >= -1 ;
1 p_r2_g18_h119_t66 -1 x_r2_g18 <= 0 ;
1 p_r2_g18_h119_t66 -1 x_r2_g119 <= 0 ;
1 p_r2_g18_h119_t66 -1 x_r2_g18 -1 x_r2_g119 >= -1 ;
1 p_r2_g21_h122_t66 -1 x_r2_g21 <= 0 ;
1 p_r2_g21_h122_t66 -1 x_r2_g122 <= 0 ;
1 p_r2_g21_h122_t66 -1 x_r2_g21 -1 x_r2_g122 >= -1 ;
1 p_r2_g48_h149_t66 -1 x_r2_g48 <= 0 ;
1 p_r2_g48_h149_t66 -1 x_r2_g149 <= 0 ;
1 p_r2_g48_h149_t66 -1 x_r2_g48 -1 x_r2_g149 >= -1 ;
1 p_r2_g81_h15_t66 -1 x_r2_g81 <= 0 ;
1 p_r2_g81_h15_t66 -1 x_r2_g15 <= 0 ;
1 p_r2_g81_h15_t66 -1 x_r2_g81 -1 x_r2_g15 >= -1 ;
1 p_r2_g94_h28_t66 -1 x_r2_g94 <= 0 ;
1 p_r2_g94_h28_t66 -1 x_r2_g28 <= 0 ;
1 p_r2_g94_h28_t66 -1 x_r2_g94 -1 x_r2_g28 >= -1 ;
1 p_r2_g122_h56_t66 -1 x_r2_g122 <= 0 ;
1 p_r2_g122_h56_t66 -1 x_r2_g56 <= 0 ;
1 p_r2_g122_h56_t66 -1 x_r2_g122 -1 x_r2_g56 >= -1 ;
1 p_r2_g145_h79_t66 -1 x_r2_g145 <= 0 ;
1 p_r2_g145_h79_t66 -1 x_r2_g79 <= 0 ;
1 p_r2_g145_h79_t66 -1 x_r2_g145 -1 x_r2_g79 >= -1 ;
1 p_r3_g21_h122_t66 -1 x_r3_g21 <= 0 ;
1 p_r3_g21_h122_t66 -1 x_r3_g122 <= 0 ;
1 p_r3_g21_h122_t66 -1 x_r3_g21 -1 x_r3_g122 >= -1 ;
1 p_r3_g45_h146_t66 -1 x_r3_g45 <= 0 ;
1 p_r3_g45_h146_t66 -1 x_r3_g146 <= 0 ;
1 p_r3_g45_h146_t66 -1 x_r3_g45 -1 x_r3_g146 >= -1 ;
1 p_r3_g66_h0_t66 -1 x_r3_g66 <= 0 ;
1 p_r3_g66_h0_t66 -1 x_r3_g0 <= 0 ;
1 p_r3_g66_h0_t66 -1 x_r3_g66 -1 x_r3_g0 >= -1 ;
1 p_r3_g67_h1_t66 -1 x_r3_g67 <= 0 ;
1 p_r3_g67_h1_t66 -1 x_r3_g1 <= 0 ;
1 p_r3_g67_h1_t66 -1 x_r3_g67 -1 x_r3_g1 >= -1 ;
1 p_r3_g97_h31_t66 -1 x_r3_g97 <= 0 ;
1 p_r3_g97_h31_t66 -1 x_r3_g31 <= 0 ;
1 p_r3_g97_h31_t66 -1 x_r3_g97 -1 x_r3_g31 >= -1 ;
1 p_r3_g112_h46_t66 -1 x_r3_g112 <= 0 ;
1 p_r3_g112_h46_t66 -1 x_r3_g46 <= 0 ;
1 p_r3_g112_h46_t66 -1 x_r3_g112 -1 x_r3_g46 >= -1 ;
1 p_r3_g122_h56_t66 -1 x_r3_g122 <= 0 ;
1 p_r3_g122_h56_t66 -1 x_r3_g56 <= 0 ;
1 p_r3_g122_h56_t66 -1 x_r3_g122 -1 x_r3_g56 >= -1 ;
1 p_r3_g133_h67_t66 -1 x_r3_g133 <= 0 ;
1 p_r3_g133_h67_t66 -1 x_r3_g67 <= 0 ;
1 p_r3_g133_h67_t66 -1 x_r3_g133 -1 x_r3_g67 >= -1 ;
1 p_r3_g134_h68_t66 -1 x_r3_g134 <= 0 ;
1 p_r3_g134_h68_t66 -1 x_r3_g68 <= 0 ;
1 p_r3_g134_h68_t66 -1 x_r3_g134 -1 x_r3_g68 >= -1 ;
1 d_66 -2 x_r0_g2 -1 x_r0_g8 -1 x_r0_g18 -1 x_r0_g25 -1 x_r0_g34 -2 x_r0_g35 -1 x_r0_g38 -1 x_r0_g41 -1 x_r0_g54 -1 x_r0_g58 -1 x_r0_g99 -1 x_r0_g106 -1 x_r0_g112 -2 x_r0_g113 -1 x_r0_g116 -1 x_r0_g117 -1 x_r0_g118 -1 x_r0_g133 -1 x_r0_g138 -2 x_r0_g143 -1 x_r0_g154 -1 x_r1_g0 -1 x_r1_g15 -1 x_r1_g41 -1 x_r1_g43 -1 x_r1_g46 -1 x_r1_g48 -2 x_r1_g58 -2 x_r1_g62 -1 x_r1_g67 -1 x_r1_g82 -1 x_r1_g91 -1 x_r1_g92 -2 x_r1_g97 -1 x_r1_g98 -1 x_r1_g100 -1 x_r1_g119 -1 x_r1_g130 -1 x_r1_g131 -2 x_r1_g132 -1 x_r1_g138 -2 x_r1_g154 -1 x_r1_g158 -1 x_r2_g1 -1 x_r2_g3 -1 x_r2_g4 -1 x_r2_g8 -2 x_r2_g14 -1 x_r2_g15 -1 x_r2_g21 -1 x_r2_g25 -1 x_r2_g28 -1 x_r2_g46 -2 x_r2_g47 -1 x_r2_g48 -2 x_r2_g49 -1 x_r2_g56 -1 x_r2_g94 -1 x_r2_g132 -2 x_r2_g134 -1 x_r2_g135 -1 x_r2_g141 -1 x_r2_g146 -1 x_r2_g149 -1 x_r2_g162 -1 x_r2_g166 -1 x_r3_g5 -2 x_r3_g17 -2 x_r3_g23 -1 x_r3_g26 -1 x_r3_g31 -2 x_r3_g42 -1 x_r3_g45 -1 x_r3_g52 -1 x_r3_g58 -1 x_r3_g59 -1 x_r3_g63 -1 x_r3_g66 -1 x_r3_g68 -2 x_r3_g74 -2 x_r3_g78 -1 x_r3_g84 -2 x_r3_g88 -2 x_r3_g94 -1 x_r3_g97 -1 x_r3_g110 -1 x_r3_g133 -1 x_r3_g139 -1 x_r3_g146 -1 x_r3_g165 -1 p_r0_g16_h117_t66 -1 p_r0_g30_h131_t66 -1 p_r0_g31_h132_t66 -1 p_r0_g34_h135_t66 -1 p_r0_g45_h146_t66 -1 p_r0_g49_h150_t66 -1 p_r0_g54_h155_t66 -1 p_r0_g105_h39_t66 -1 p_r0_g106_h40_t66 -1 p_r0_g111_h45_t66 -1 p_r0_g112_h46_t66 -1 p_r0_g131_h65_t66 -1 p_r0_g155_h89_t66 -1 p_r1_g15_h116_t66 -1 p_r1_g17_h118_t66 -1 p_r1_g18_h119_t66 -1 p_r1_g29_h130_t66 -1 p_r1_g83_h17_t66 -1 p_r1_g84_h18_t66 -1 p_r1_g85_h19_t66 -1 p_r1_g95_h29_t66 -1 p_r1_g115_h49_t66 -1 p_r1_g158_h92_t66 -1 p_r1_g164_h98_t66 -1 p_r2_g18_h119_t66 -1 p_r2_g21_h122_t66 -1 p_r2_g48_h149_t66 -1 p_r2_g81_h15_t66 -1 p_r2_g94_h28_t66 -1 p_r2_g122_h56_t66 -1 p_r2_g145_h79_t66 -1 p_r3_g21_h122_t66 -1 p_r3_g45_h146_t66 -1 p_r3_g66_h0_t66 -1 p_r3_g67_h1_t66 -1 p_r3_g97_h31_t66 -1 p_r3_g112_h46_t66 -1 p_r3_g122_h56_t66 -1 p_r3_g133_h67_t66 -1 p_r3_g134_h68_t66 = -77 ;
1 d_66 -1 u_66 <= 0 ;
-1 d_66 -1 u_66 <= 0 ;
1 u_66 -1 M <= 0 ;
1 u_66 <= 1 ;
1 p_r0_g16_h116_t67 -1 x_r0_g16 <= 0 ;
1 p_r0_g16_h116_t67 -1 x_r0_g116 <= 0 ;
1 p_r0_g16_h116_t67 -1 x_r0_g16 -1 x_r0_g116 >= -1 ;
1 p_r0_g18_h118_t67 -1 x_r0_g18 <= 0 ;
1 p_r0_g18_h118_t67 -1 x_r0_g118 <= 0 ;
1 p_r0_g18_h118_t67 -1 x_r0_g18 -1 x_r0_g118 >= -1 ;
1 p_r0_g31_h131_t67 -1 x_r0_g31 <= 0 ;
1 p_r0_g31_h131_t67 -1 x_r0_g131 <= 0 ;
1 p_r0_g31_h131_t67 -1 x_r0_g31 -1 x_r0_g131 >= -1 ;
1 p_r0_g35_h135_t67 -1 x_r0_g35 <= 0 ;
1 p_r0_g35_h135_t67 -1 x_r0_g135 <= 0 ;
1 p_r0_g35_h135_t67 -1 x_r0_g35 -1 x_r0_g135 >= -1 ;
1 p_r0_g38_h138_t67 -1 x_r0_g38 <= 0 ;
1 p_r0_g38_h138_t67 -1 x_r0_g138 <= 0 ;
1 p_r0_g38_h138_t67 -1 x_r0_g38 -1 x_r0_g138 >= -1 ;
1 p_r0_g46_h146_t67 -1 x_r0_g46 <= 0 ;
1 p_r0_g46_h146_t67 -1 x_r0_g146 <= 0 ;
1 p_r0_g46_h146_t67 -1 x_r0_g46 -1 x_r0_g146 >= -1 ;
1 p_r0_g54_h154_t67 -1 x_r0_g54 <= 0 ;
1 p_r0_g54_h154_t67 -1 x_r0_g154 <= 0 ;
1 p_r0_g54_h154_t67 -1 x_r0_g54 -1 x_r0_g154 >= -1 ;
1 p_r0_g105_h38_t67 -1 x_r0_g105 <= 0 ;
1 p_r0_g105_h38_t67 -1 x_r0_g38 <= 0 ;
1 p_r0_g105_h38_t67 -1 x_r0_g105 -1 x_r0_g38 >= -1 ;
1 p_r0_g106_h39_t67 -1 x_r0_g106 <= 0 ;
1 p_r0_g106_h39_t67 -1 x_r0_g39 <= 0 ;
1 p_r0_g106_h39_t67 -1 x_r0_g106 -1 x_r0_g39 >= -1 ;
1 p_r0_g111_h44_t67 -1 x_r0_g111 <= 0 ;
1 p_r0_g111_h44_t67 -1 x_r0_g44 <= 0 ;
1 p_r0_g111_h44_t67 -1 x_r0_g111 -1 x_r0_g44 >= -1 ;
1 p_r0_g112_h45_t67 -1 x_r0_g112 <= 0 ;
1 p_r0_g112_h45_t67 -1 x_r0_g45 <= 0 ;
1 p_r0_g112_h45_t67 -1 x_r0_g112 -1 x_r0_g45 >= -1 ;
1 p_r0_g113_h46_t67 -1 x_r0_g113 <= 0 ;
1 p_r0_g113_h46_t67 -1 x_r0_g46 <= 0 ;
1 p_r0_g113_h46_t67 -1 x_r0_g113 -1 x_r0_g46 >= -1 ;
1 p_r0_g116_h49_t67 -1 x_r0_g116 <= 0 ;
1 p_r0_g116_h49_t67 -1 x_r0_g49 <= 0 ;
1 p_r0_g116_h49_t67 -1 x_r0_g116 -1 x_r0_g49 >= -1 ;
1 p_r0_g132_h65_t67 -1 x_r0_g132 <= 0 ;
1 p_r0_g132_h65_t67 -1 x_r0_g65 <= 0 ;
1 p_r0_g132_h65_t67 -1 x_r0_g132 -1 x_r0_g65 >= -1 ;
1 p_r1_g0_h100_t67 -1 x_r1_g0 <= 0 ;
1 p_r1_g0_h100_t67 -1 x_r1_g100 <= 0 ;
1 p_r1_g0_h100_t67 -1 x_r1_g0 -1 x_r1_g100 >= -1 ;
1 p_r1_g15_h115_t67 -1 x_r1_g15 <= 0 ;
1 p_r1_g15_h115_t67 -1 x_r1_g115 <= 0 ;
1 p_r1_g15_h115_t67 -1 x_r1_g15 -1 x_r1_g115 >= -1 ;
1 p_r1_g18_h118_t67 -1 x_r1_g18 <= 0 ;
1 p_r1_g18_h118_t67 -1 x_r1_g118 <= 0 ;
1 p_r1_g18_h118_t67 -1 x_r1_g18 -1 x_r1_g118 >= -1 ;
1 p_r1_g19_h119_t67 -1 x_r1_g19 <= 0 ;
1 p_r1_g19_h119_t67 -1 x_r1_g119 <= 0 ;
1 p_r1_g19_h119_t67 -1 x_r1_g19 -1 x_r1_g119 >= -1 ;
1 p_r1_g58_h158_t67 -1 x_r1_g58 <= 0 ;
1 p_r1_g58_h158_t67 -1 x_r1_g158 <= 0 ;
1 p_r1_g58_h158_t67 -1 x_r1_g58 -1 x_r1_g158 >= -1 ;
1 p_r1_g67_h0_t67 -1 x_r1_g67 <= 0 ;
1 p_r1_g67_h0_t67 -1 x_r1_g0 <= 0 ;
1 p_r1_g67_h0_t67 -1 x_r1_g67 -1 x_r1_g0 >= -1 ;
1 p_r1_g82_h15_t67 -1 x_r1_g82 <= 0 ;
1 p_r1_g82_h15_t67 -1 x_r1_g15 <= 0 ;
1 p_r1_g82_h15_t67 -1 x_r1_g82 -1 x_r1_g15 >= -1 ;
1 p_r1_g84_h17_t67 -1 x_r1_g84 <= 0 ;
1 p_r1_g84_h17_t67 -1 x_r1_g17 <= 0 ;
1 p_r1_g84_h17_t67 -1 x_r1_g84 -1 x_r1_g17 >= -1 ;
1 p_r1_g85_h18_t67 -1 x_r1_g85 <= 0 ;
1 p_r1_g85_h18_t67 -1 x_r1_g18 <= 0 ;
1 p_r1_g85_h18_t67 -1 x_r1_g85 -1 x_r1_g18 >= -1 ;
1 p_r1_g95_h28_t67 -1 x_r1_g95 <= 0 ;
1 p_r1_g95_h28_t67 -1 x_r1_g28 <= 0 ;
1 p_r1_g95_h28_t67 -1 x_r1_g95 -1 x_r1_g28 >= -1 ;
1 p_r1_g100_h33_t67 -1 x_r1_g100 <= 0 ;
1 p_r1_g100_h33_t67 -1 x_r1_g33 <= 0 ;
1 p_r1_g100_h33_t67 -1 x_r1_g100 -1 x_r1_g33 >= -1 ;
1 p_r1_g115_h48_t67 -1 x_r1_g115 <= 0 ;
1 p_r1_g115_h48_t67 -1 x_r1_g48 <= 0 ;
1 p_r1_g115_h48_t67 -1 x_r1_g115 -1 x_r1_g48 >= -1 ;
1 p_r1_g116_h49_t67 -1 x_r1_g116 <= 0 ;
1 p_r1_g116_h49_t67 -1 x_r1_g49 <= 0 ;
1 p_r1_g116_h49_t67 -1 x_r1_g116 -1 x_r1_g49 >= -1 ;
1 p_r1_g125_h58_t67 -1 x_r1_g125 <= 0 ;
1 p_r1_g125_h58_t67 -1 x_r1_g58 <= 0 ;
1 p_r1_g125_h58_t67 -1 x_r1_g125 -1 x_r1_g58 >= -1 ;
1 p_r1_g158_h91_t67 -1 x_r1_g158 <= 0 ;
1 p_r1_g158_h91_t67 -1 x_r1_g91 <= 0 ;
1 p_r1_g158_h91_t67 -1 x_r1_g158 -1 x_r1_g91 >= -1 ;
1 p_r1_g164_h97_t67 -1 x_r1_g164 <= 0 ;
1 p_r1_g164_h97_t67 -1 x_r1_g97 <= 0 ;
1 p_r1_g164_h97_t67 -1 x_r1_g164 -1 x_r1_g97 >= -1 ;
1 p_r2_g18_h118_t67 -1 x_r2_g18 <= 0 ;
1 p_r2_g18_h118_t67 -1 x_r2_g118 <= 0 ;
1 p_r2_g18_h118_t67 -1 x_r2_g18 -1 x_r2_g118 >= -1 ;
1 p_r2_g46_h146_t67 -1 x_r2_g46 <= 0 ;
1 p_r2_g46_h146_t67 -1 x_r2_g146 <= 0 ;
1 p_r2_g46_h146_t67 -1 x_r2_g46 -1 x_r2_g146 >= -1 ;
1 p_r2_g49_h149_t67 -1 x_r2_g49 <= 0 ;
1 p_r2_g49_h149_t67 -1 x_r2_g149 <= 0 ;
1 p_r2_g49_h149_t67 -1 x_r2_g49 -1 x_r2_g149 >= -1 ;
1 p_r2_g81_h14_t67 -1 x_r2_g81 <= 0 ;
1 p_r2_g81_h14_t67 -1 x_r2_g14 <= 0 ;
1 p_r2_g81_h14_t67 -1 x_r2_g81 -1 x_r2_g14 >= -1 ;
1 p_r2_g146_h79_t67 -1 x_r2_g146 <= 0 ;
1 p_r2_g146_h79_t67 -1 x_r2_g79 <= 0 ;
1 p_r2_g146_h79_t67 -1 x_r2_g146 -1 x_r2_g79 >= -1 ;
1 p_r3_g17_h117_t67 -1 x_r3_g17 <= 0 ;
1 p_r3_g17_h117_t67 -1 x_r3_g117 <= 0 ;
1 p_r3_g17_h117_t67 -1 x_r3_g17 -1 x_r3_g117 >= -1 ;
1 p_r3_g46_h146_t67 -1 x_r3_g46 <= 0 ;
1 p_r3_g46_h146_t67 -1 x_r3_g146 <= 0 ;
1 p_r3_g46_h146_t67 -1 x_r3_g46 -1 x_r3_g146 >= -1 ;
1 p_r3_g67_h0_t67 -1 x_r3_g67 <= 0 ;
1 p_r3_g67_h0_t67 -1 x_r3_g0 <= 0 ;
1 p_r3_g67_h0_t67 -1 x_r3_g67 -1 x_r3_g0 >= -1 ;
1 p_r3_g68_h1_t67 -1 x_r3_g68 <= 0 ;
1 p_r3_g68_h1_t67 -1 x_r3_g1 <= 0 ;
1 p_r3_g68_h1_t67 -1 x_r3_g68 -1 x_r3_g1 >= -1 ;
1 p_r3_g84_h17_t67 -1 x_r3_g84 <= 0 ;
1 p_r3_g84_h17_t67 -1 x_r3_g17 <= 0 ;
1 p_r3_g84_h17_t67 -1 x_r3_g84 -1 x_r3_g17 >= -1 ;
1 p_r3_g88_h21_t67 -1 x_r3_g88 <= 0 ;
1 p_r3_g88_h21_t67 -1 x_r3_g21 <= 0 ;
1 p_r3_g88_h21_t67 -1 x_r3_g88 -1 x_r3_g21 >= -1 ;
1 p_r3_g112_h45_t67 -1 x_r3_g112 <= 0 ;
1 p_r3_g112_h45_t67 -1 x_r3_g45 <= 0 ;
1 p_r3_g112_h45_t67 -1 x_r3_g112 -1 x_r3_g45 >= -1 ;
1 p_r3_g122_h55_t67 -1 x_r3_g122 <= 0 ;
1 p_r3_g122_h55_t67 -1 x_r3_g55 <= 0 ;
1 p_r3_g122_h55_t67 -1 x_r3_g122 -1 x_r3_g55 >= -1 ;
1 p_r3_g133_h66_t67 -1 x_r3_g133 <= 0 ;
1 p_r3_g133_h66_t67 -1 x_r3_g66 <= 0 ;
1 p_r3_g133_h66_t67 -1 x_r3_g133 -1 x_r3_g66 >= -1 ;
1 p_r3_g134_h67_t67 -1 x_r3_g134 <= 0 ;
1 p_r3_g134_h67_t67 -1 x_r3_g67 <= 0 ;
1 p_r3_g134_h67_t67 -1 x_r3_g134 -1 x_r3_g67 >= -1 ;
1 p_r3_g161_h94_t67 -1 x_r3_g161 <= 0 ;
1 p_r3_g161_h94_t67 -1 x_r3_g94 <= 0 ;
1 p_r3_g161_h94_t67 -1 x_r3_g161 -1 x_r3_g94 >= -1 ;
1 d_67 -1 x_r0_g2 -1 x_r0_g25 -1 x_r0_g31 -1 x_r0_g34 -1 x_r0_g35 -1 x_r0_g39 -1 x_r0_g49 -2 x_r0_g58 -1 x_r0_g65 -1 x_r0_g105 -1 x_r0_g106 -1 x_r0_g111 -1 x_r0_g112 -1 x_r0_g113 -1 x_r0_g118 -1 x_r0_g135 -1 x_r0_g143 -2 x_r0_g155 -1 x_r1_g20 -1 x_r1_g28 -1 x_r1_g29 -2 x_r1_g41 -2 x_r1_g46 -1 x_r1_g83 -1 x_r1_g92 -1 x_r1_g98 -1 x_r1_g116 -2 x_r1_g131 -2 x_r1_g132 -1 x_r1_g138 -1 x_r1_g154 -1 x_r1_g164 -2 x_r2_g1 -1 x_r2_g4 -1 x_r2_g5 -1 x_r2_g7 -1 x_r2_g8 -1 x_r2_g14 -2 x_r2_g15 -1 x_r2_g18 -1 x_r2_g21 -1 x_r2_g28 -1 x_r2_g46 -1 x_r2_g47 -2 x_r2_g48 -1 x_r2_g49 -1 x_r2_g58 -1 x_r2_g81 -2 x_r2_g94 -2 x_r2_g98 -1 x_r2_g132 -1 x_r2_g134 -1 x_r2_g135 -2 x_r2_g141 -1 x_r2_g145 -1 x_r2_g149 -1 x_r3_g13 -1 x_r3_g23 -1 x_r3_g31 -1 x_r3_g42 -1 x_r3_g45 -1 x_r3_g52 -1 x_r3_g56 -1 x_r3_g63 -1 x_r3_g66 -1 x_r3_g78 -1 x_r3_g81 -1 x_r3_g84 -1 x_r3_g94 -1 x_r3_g97 -1 x_r3_g110 -1 x_r3_g112 -1 x_r3_g122 -1 x_r3_g136 -1 x_r3_g139 -1 x_r3_g161 -2 x_r3_g165 -1 p_r0_g16_h116_t67 -1 p_r0_g18_h118_t67 -1 p_r0_g31_h131_t67 -1 p_r0_g35_h135_t67 -1 p_r0_g38_h138_t67 -1 p_r0_g46_h146_t67 -1 p_r0_g54_h154_t67 -1 p_r0_g105_h38_t67 -1 p_r0_g106_h39_t67 -1 p_r0_g111_h44_t67 -1 p_r0_g112_h45_t67 -1 p_r0_g113_h46_t67 -1 p_r0_g116_h49_t67 -1 p_r0_g132_h65_t67 -1 p_r1_g0_h100_t67 -1 p_r1_g15_h115_t67 -1 p_r1_g18_h118_t67 -1 p_r1_g19_h119_t67 -1 p_r1_g58_h158_t67 -1 p_r1_g67_h0_t67 -1 p_r1_g82_h15_t67 -1 p_r1_g84_h17_t67 -1 p_r1_g85_h18_t67 -1 p_r1_g95_h28_t67 -1 p_r1_g100_h33_t67 -1 p_r1_g115_h48_t67 -1 p_r1_g116_h49_t67 -1 p_r1_g125_h58_t67 -1 p_r1_g158_h91_t67 -1 p_r1_g164_h97_t67 -1 p_r2_g18_h118_t67 -1 p_r2_g46_h146_t67 -1 p_r2_g49_h149_t67 -1 p_r2_g81_h14_t67 -1 p_r2_g146_h79_t67 -1 p_r3_g17_h117_t67 -1 p_r3_g46_h146_t67 -1 p_r3_g67_h0_t67 -1 p_r3_g68_h1_t67 -1 p_r3_g84_h17_t67 -1 p_r3_g88_h21_t67 -1 p_r3_g112_h45_t67 -1 p_r3_g122_h55_t67 -1 p_r3_g133_h66_t67 -1 p_r3_g134_h67_t67 -1 p_r3_g161_h94_t67 = -60 ;
1 d_67 -1 u_67 <= 0 ;
-1 d_67 -1 u_67 <= 0 ;
1 u_67 -1 M <= 0 ;
1 u_67 <= 0 ;
1 p_r0_g18_h117_t68 -1 x_r0_g18 <= 0 ;
1 p_r0_g18_h117_t68 -1 x_r0_g117 <= 0 ;
1 p_r0_g18_h117_t68 -1 x_r0_g18 -1 x_r0_g117 >= -1 ;
1 p_r0_g34_h133_t68 -1 x_r0_g34 <= 0 ;
1 p_r0_g34_h133_t68 -1 x_r0_g133 <= 0 ;
1 p_r0_g34_h133_t68 -1 x_r0_g34 -1 x_r0_g133 >= -1 ;
1 p_r0_g39_h138_t68 -1 x_r0_g39 <= 0 ;
1 p_r0_g39_h138_t68 -1 x_r0_g138 <= 0 ;
1 p_r0_g39_h138_t68 -1 x_r0_g39 -1 x_r0_g138 >= -1 ;
1 p_r0_g44_h143_t68 -1 x_r0_g44 <= 0 ;
1 p_r0_g44_h143_t68 -1 x_r0_g143 <= 0 ;
1 p_r0_g44_h143_t68 -1 x_r0_g44 -1 x_r0_g143 >= -1 ;
1 p_r0_g99_h31_t68 -1 x_r0_g99 <= 0 ;
1 p_r0_g99_h31_t68 -1 x_r0_g31 <= 0 ;
1 p_r0_g99_h31_t68 -1 x_r0_g99 -1 x_r0_g31 >= -1 ;
1 p_r0_g106_h38_t68 -1 x_r0_g106 <= 0 ;
1 p_r0_g106_h38_t68 -1 x_r0_g38 <= 0 ;
1 p_r0_g106_h38_t68 -1 x_r0_g106 -1 x_r0_g38 >= -1 ;
1 p_r0_g112_h44_t68 -1 x_r0_g112 <= 0 ;
1 p_r0_g112_h44_t68 -1 x_r0_g44 <= 0 ;
1 p_r0_g112_h44_t68 -1 x_r0_g112 -1 x_r0_g44 >= -1 ;
1 p_r0_g113_h45_t68 -1 x_r0_g113 <= 0 ;
1 p_r0_g113_h45_t68 -1 x_r0_g45 <= 0 ;
1 p_r0_g113_h45_t68 -1 x_r0_g113 -1 x_r0_g45 >= -1 ;
1 p_r0_g117_h49_t68 -1 x_r0_g117 <= 0 ;
1 p_r0_g117_h49_t68 -1 x_r0_g49 <= 0 ;
1 p_r0_g117_h49_t68 -1 x_r0_g117 -1 x_r0_g49 >= -1 ;
1 p_r0_g133_h65_t68 -1 x_r0_g133 <= 0 ;
1 p_r0_g133_h65_t68 -1 x_r0_g65 <= 0 ;
1 p_r0_g133_h65_t68 -1 x_r0_g133 -1 x_r0_g65 >= -1 ;
1 p_r1_g17_h116_t68 -1 x_r1_g17 <= 0 ;
1 p_r1_g17_h116_t68 -1 x_r1_g116 <= 0 ;
1 p_r1_g17_h116_t68 -1 x_r1_g17 -1 x_r1_g116 >= -1 ;
1 p_r1_g19_h118_t68 -1 x_r1_g19 <= 0 ;
1 p_r1_g19_h118_t68 -1 x_r1_g118 <= 0 ;
1 p_r1_g19_h118_t68 -1 x_r1_g19 -1 x_r1_g118 >= -1 ;
1 p_r1_g20_h119_t68 -1 x_r1_g20 <= 0 ;
1 p_r1_g20_h119_t68 -1 x_r1_g119 <= 0 ;
1 p_r1_g20_h119_t68 -1 x_r1_g20 -1 x_r1_g119 >= -1 ;
1 p_r1_g33_h132_t68 -1 x_r1_g33 <= 0 ;
1 p_r1_g33_h132_t68 -1 x_r1_g132 <= 0 ;
1 p_r1_g33_h132_t68 -1 x_r1_g33 -1 x_r1_g132 >= -1 ;
1 p_r1_g83_h15_t68 -1 x_r1_g83 <= 0 ;
1 p_r1_g83_h15_t68 -1 x_r1_g15 <= 0 ;
1 p_r1_g83_h15_t68 -1 x_r1_g83 -1 x_r1_g15 >= -1 ;
1 p_r1_g85_h17_t68 -1 x_r1_g85 <= 0 ;
1 p_r1_g85_h17_t68 -1 x_r1_g17 <= 0 ;
1 p_r1_g85_h17_t68 -1 x_r1_g85 -1 x_r1_g17 >= -1 ;
1 p_r1_g97_h29_t68 -1 x_r1_g97 <= 0 ;
1 p_r1_g97_h29_t68 -1 x_r1_g29 <= 0 ;
1 p_r1_g97_h29_t68 -1 x_r1_g97 -1 x_r1_g29 >= -1 ;
1 p_r1_g116_h48_t68 -1 x_r1_g116 <= 0 ;
1 p_r1_g116_h48_t68 -1 x_r1_g48 <= 0 ;
1 p_r1_g116_h48_t68 -1 x_r1_g116 -1 x_r1_g48 >= -1 ;
1 p_r1_g130_h62_t68 -1 x_r1_g130 <= 0 ;
1 p_r1_g130_h62_t68 -1 x_r1_g62 <= 0 ;
1 p_r1_g130_h62_t68 -1 x_r1_g130 -1 x_r1_g62 >= -1 ;
1 p_r2_g18_h117_t68 -1 x_r2_g18 <= 0 ;
1 p_r2_g18_h117_t68 -1 x_r2_g117 <= 0 ;
1 p_r2_g18_h117_t68 -1 x_r2_g18 -1 x_r2_g117 >= -1 ;
1 p_r2_g42_h141_t68 -1 x_r2_g42 <= 0 ;
1 p_r2_g42_h141_t68 -1 x_r2_g141 <= 0 ;
1 p_r2_g42_h141_t68 -1 x_r2_g42 -1 x_r2_g141 >= -1 ;
1 p_r2_g46_h145_t68 -1 x_r2_g46 <= 0 ;
1 p_r2_g46_h145_t68 -1 x_r2_g145 <= 0 ;
1 p_r2_g46_h145_t68 -1 x_r2_g46 -1 x_r2_g145 >= -1 ;
1 p_r2_g47_h146_t68 -1 x_r2_g47 <= 0 ;
1 p_r2_g47_h146_t68 -1 x_r2_g146 <= 0 ;
1 p_r2_g47_h146_t68 -1 x_r2_g47 -1 x_r2_g146 >= -1 ;
1 p_r2_g76_h8_t68 -1 x_r2_g76 <= 0 ;
1 p_r2_g76_h8_t68 -1 x_r2_g8 <= 0 ;
1 p_r2_g76_h8_t68 -1 x_r2_g76 -1 x_r2_g8 >= -1 ;
1 p_r2_g117_h49_t68 -1 x_r2_g117 <= 0 ;
1 p_r2_g117_h49_t68 -1 x_r2_g49 <= 0 ;
1 p_r2_g117_h49_t68 -1 x_r2_g117 -1 x_r2_g49 >= -1 ;
1 p_r2_g149_h81_t68 -1 x_r2_g149 <= 0 ;
1 p_r2_g149_h81_t68 -1 x_r2_g81 <= 0 ;
1 p_r2_g149_h81_t68 -1 x_r2_g149 -1 x_r2_g81 >= -1 ;
1 p_r2_g162_h94_t68 -1 x_r2_g162 <= 0 ;
1 p_r2_g162_h94_t68 -1 x_r2_g94 <= 0 ;
1 p_r2_g162_h94_t68 -1 x_r2_g162 -1 x_r2_g94 >= -1 ;
1 p_r2_g166_h98_t68 -1 x_r2_g166 <= 0 ;
1 p_r2_g166_h98_t68 -1 x_r2_g98 <= 0 ;
1 p_r2_g166_h98_t68 -1 x_r2_g166 -1 x_r2_g98 >= -1 ;
1 p_r3_g13_h112_t68 -1 x_r3_g13 <= 0 ;
1 p_r3_g13_h112_t68 -1 x_r3_g112 <= 0 ;
1 p_r3_g13_h112_t68 -1 x_r3_g13 -1 x_r3_g112 >= -1 ;
1 p_r3_g23_h122_t68 -1 x_r3_g23 <= 0 ;
1 p_r3_g23_h122_t68 -1 x_r3_g122 <= 0 ;
1 p_r3_g23_h122_t68 -1 x_r3_g23 -1 x_r3_g122 >= -1 ;
1 p_r3_g66_h165_t68 -1 x_r3_g66 <= 0 ;
1 p_r3_g66_h165_t68 -1 x_r3_g165 <= 0 ;
1 p_r3_g66_h165_t68 -1 x_r3_g66 -1 x_r3_g165 >= -1 ;
1 p_r3_g68_h0_t68 -1 x_r3_g68 <= 0 ;
1 p_r3_g68_h0_t68 -1 x_r3_g0 <= 0 ;
1 p_r3_g68_h0_t68 -1 x_r3_g68 -1 x_r3_g0 >= -1 ;
1 p_r3_g81_h13_t68 -1 x_r3_g81 <= 0 ;
1 p_r3_g81_h13_t68 -1 x_r3_g13 <= 0 ;
1 p_r3_g81_h13_t68 -1 x_r3_g81 -1 x_r3_g13 >= -1 ;
1 p_r3_g94_h26_t68 -1 x_r3_g94 <= 0 ;
1 p_r3_g94_h26_t68 -1 x_r3_g26 <= 0 ;
1 p_r3_g94_h26_t68 -1 x_r3_g94 -1 x_r3_g26 >= -1 ;
1 p_r3_g110_h42_t68 -1 x_r3_g110 <= 0 ;
1 p_r3_g110_h42_t68 -1 x_r3_g42 <= 0 ;
1 p_r3_g110_h42_t68 -1 x_r3_g110 -1 x_r3_g42 >= -1 ;
1 p_r3_g134_h66_t68 -1 x_r3_g134 <= 0 ;
1 p_r3_g134_h66_t68 -1 x_r3_g66 <= 0 ;
1 p_r3_g134_h66_t68 -1 x_r3_g134 -1 x_r3_g66 >= -1 ;
1 p_r3_g136_h68_t68 -1 x_r3_g136 <= 0 ;
1 p_r3_g136_h68_t68 -1 x_r3_g68 <= 0 ;
1 p_r3_g136_h68_t68 -1 x_r3_g136 -1 x_r3_g68 >= -1 ;
1 p_r3_g146_h78_t68 -1 x_r3_g146 <= 0 ;
1 p_r3_g146_h78_t68 -1 x_r3_g78 <= 0 ;
1 p_r3_g146_h78_t68 -1 x_r3_g146 -1 x_r3_g78 >= -1 ;
1 p_r3_g165_h97_t68 -1 x_r3_g165 <= 0 ;
1 p_r3_g165_h97_t68 -1 x_r3_g97 <= 0 ;
1 p_r3_g165_h97_t68 -1 x_r3_g165 -1 x_r3_g97 >= -1 ;
1 d_68 -2 x_r0_g2 -1 x_r0_g30 -1 x_r0_g34 -1 x_r0_g35 -1 x_r0_g38 -1 x_r0_g40 -1 x_r0_g54 -2 x_r0_g58 -1 x_r0_g89 -2 x_r0_g105 -1 x_r0_g106 -2 x_r0_g111 -1 x_r0_g112 -1 x_r0_g113 -1 x_r0_g116 -1 x_r0_g118 -1 x_r0_g131 -2 x_r0_g135 -1 x_r0_g138 -1 x_r0_g146 -1 x_r0_g150 -1 x_r0_g154 -1 x_r1_g0 -1 x_r1_g15 -1 x_r1_g19 -1 x_r1_g20 -2 x_r1_g28 -1 x_r1_g29 -1 x_r1_g35 -2 x_r1_g41 -1 x_r1_g46 -1 x_r1_g58 -1 x_r1_g67 -1 x_r1_g84 -1 x_r1_g91 -1 x_r1_g92 -2 x_r1_g95 -1 x_r1_g98 -2 x_r1_g100 -1 x_r1_g115 -2 x_r1_g125 -1 x_r1_g130 -1 x_r1_g131 -1 x_r1_g132 -2 x_r1_g138 -1 x_r1_g158 -2 x_r1_g164 -1 x_r2_g3 -1 x_r2_g5 -2 x_r2_g6 -1 x_r2_g7 -2 x_r2_g14 -2 x_r2_g15 -1 x_r2_g18 -1 x_r2_g21 -1 x_r2_g28 -1 x_r2_g42 -1 x_r2_g46 -1 x_r2_g47 -1 x_r2_g48 -1 x_r2_g49 -2 x_r2_g58 -1 x_r2_g94 -1 x_r2_g98 -1 x_r2_g111 -1 x_r2_g119 -2 x_r2_g132 -1 x_r2_g138 -1 x_r2_g146 -1 x_r2_g162 -1 x_r3_g0 -1 x_r3_g21 -1 x_r3_g31 -1 x_r3_g45 -1 x_r3_g46 -1 x_r3_g52 -2 x_r3_g55 -1 x_r3_g56 -1 x_r3_g59 -1 x_r3_g63 -1 x_r3_g67 -2 x_r3_g74 -1 x_r3_g81 -1 x_r3_g88 -1 x_r3_g94 -2 x_r3_g117 -1 x_r3_g133 -1 x_r3_g136 -1 x_r3_g139 -1 x_r3_g146 -1 x_r3_g161 -1 p_r0_g18_h117_t68 -1 p_r0_g34_h133_t68 -1 p_r0_g39_h138_t68 -1 p_r0_g44_h143_t68 -1 p_r0_g99_h31_t68 -1 p_r0_g106_h38_t68 -1 p_r0_g112_h44_t68 -1 p_r0_g113_h45_t68 -1 p_r0_g117_h49_t68 -1 p_r0_g133_h65_t68 -1 p_r1_g17_h116_t68 -1 p_r1_g19_h118_t68 -1 p_r1_g20_h119_t68 -1 p_r1_g33_h132_t68 -1 p_r1_g83_h15_t68 -1 p_r1_g85_h17_t68 -1 p_r1_g97_h29_t68 -1 p_r1_g116_h48_t68 -1 p_r1_g130_h62_t68 -1 p_r2_g18_h117_t68 -1 p_r2_g42_h141_t68 -1 p_r2_g46_h145_t68 -1 p_r2_g47_h146_t68 -1 p_r2_g76_h8_t68 -1 p_r2_g117_h49_t68 -1 p_r2_g149_h81_t68 -1 p_r2_g162_h94_t68 -1 p_r2_g166_h98_t68 -1 p_r3_g13_h112_t68 -1 p_r3_g23_h122_t68 -1 p_r3_g66_h165_t68 -1 p_r3_g68_h0_t68 -1 p_r3_g81_h13_t68 -1 p_r3_g94_h26_t68 -1 p_r3_g110_h42_t68 -1 p_r3_g134_h66_t68 -1 p_r3_g136_h68_t68 -1 p_r3_g146_h78_t68 -1 p_r3_g165_h97_t68 = -68 ;
1 d_68 -1 u_68 <= 0 ;
-1 d_68 -1 u_68 <= 0 ;
1 u_68 -1 M <= 0 ;
1 u_68 <= 0 ;
1 p_r0_g18_h112_t73 -1 x_r0_g18 <= 0 ;
1 p_r0_g18_h112_t73 -1 x_r0_g112 <= 0 ;
1 p_r0_g18_h112_t73 -1 x_r0_g18 -1 x_r0_g112 >= -1 ;
1 p_r0_g38_h132_t73 -1 x_r0_g38 <= 0 ;
1 p_r0_g38_h132_t73 -1 x_r0_g132 <= 0 ;
1 p_r0_g38_h132_t73 -1 x_r0_g38 -1 x_r0_g132 >= -1 ;
1 p_r0_g39_h133_t73 -1 x_r0_g39 <= 0 ;
1 p_r0_g39_h133_t73 -1 x_r0_g133 <= 0 ;
1 p_r0_g39_h133_t73 -1 x_r0_g39 -1 x_r0_g133 >= -1 ;
1 p_r0_g41_h135_t73 -1 x_r0_g41 <= 0 ;
1 p_r0_g41_h135_t73 -1 x_r0_g135 <= 0 ;
1 p_r0_g41_h135_t73 -1 x_r0_g41 -1 x_r0_g135 >= -1 ;
1 p_r0_g44_h138_t73 -1 x_r0_g44 <= 0 ;
1 p_r0_g44_h138_t73 -1 x_r0_g138 <= 0 ;
1 p_r0_g44_h138_t73 -1 x_r0_g44 -1 x_r0_g138 >= -1 ;
1 p_r0_g49_h143_t73 -1 x_r0_g49 <= 0 ;
1 p_r0_g49_h143_t73 -1 x_r0_g143 <= 0 ;
1 p_r0_g49_h143_t73 -1 x_r0_g49 -1 x_r0_g143 >= -1 ;
1 p_r0_g89_h16_t73 -1 x_r0_g89 <= 0 ;
1 p_r0_g89_h16_t73 -1 x_r0_g16 <= 0 ;
1 p_r0_g89_h16_t73 -1 x_r0_g89 -1 x_r0_g16 >= -1 ;
1 p_r0_g111_h38_t73 -1 x_r0_g111 <= 0 ;
1 p_r0_g111_h38_t73 -1 x_r0_g38 <= 0 ;
1 p_r0_g111_h38_t73 -1 x_r0_g111 -1 x_r0_g38 >= -1 ;
1 p_r0_g112_h39_t73 -1 x_r0_g112 <= 0 ;
1 p_r0_g112_h39_t73 -1 x_r0_g39 <= 0 ;
1 p_r0_g112_h39_t73 -1 x_r0_g112 -1 x_r0_g39 >= -1 ;
1 p_r0_g113_h40_t73 -1 x_r0_g113 <= 0 ;
1 p_r0_g113_h40_t73 -1 x_r0_g40 <= 0 ;
1 p_r0_g113_h40_t73 -1 x_r0_g113 -1 x_r0_g40 >= -1 ;
1 p_r0_g117_h44_t73 -1 x_r0_g117 <= 0 ;
1 p_r0_g117_h44_t73 -1 x_r0_g44 <= 0 ;
1 p_r0_g117_h44_t73 -1 x_r0_g117 -1 x_r0_g44 >= -1 ;
1 p_r0_g118_h45_t73 -1 x_r0_g118 <= 0 ;
1 p_r0_g118_h45_t73 -1 x_r0_g45 <= 0 ;
1 p_r0_g118_h45_t73 -1 x_r0_g118 -1 x_r0_g45 >= -1 ;
1 p_r0_g131_h58_t73 -1 x_r0_g131 <= 0 ;
1 p_r0_g131_h58_t73 -1 x_r0_g58 <= 0 ;
1 p_r0_g131_h58_t73 -1 x_r0_g131 -1 x_r0_g58 >= -1 ;
1 p_r0_g138_h65_t73 -1 x_r0_g138 <= 0 ;
1 p_r0_g138_h65_t73 -1 x_r0_g65 <= 0 ;
1 p_r0_g138_h65_t73 -1 x_r0_g138 -1 x_r0_g65 >= -1 ;
1 p_r1_g91_h18_t73 -1 x_r1_g91 <= 0 ;
1 p_r1_g91_h18_t73 -1 x_r1_g18 <= 0 ;
1 p_r1_g91_h18_t73 -1 x_r1_g91 -1 x_r1_g18 >= -1 ;
1 p_r1_g92_h19_t73 -1 x_r1_g92 <= 0 ;
1 p_r1_g92_h19_t73 -1 x_r1_g19 <= 0 ;
1 p_r1_g92_h19_t73 -1 x_r1_g92 -1 x_r1_g19 >= -1 ;
1 p_r1_g116_h43_t73 -1 x_r1_g116 <= 0 ;
1 p_r1_g116_h43_t73 -1 x_r1_g43 <= 0 ;
1 p_r1_g116_h43_t73 -1 x_r1_g116 -1 x_r1_g43 >= -1 ;
1 p_r1_g119_h46_t73 -1 x_r1_g119 <= 0 ;
1 p_r1_g119_h46_t73 -1 x_r1_g46 <= 0 ;
1 p_r1_g119_h46_t73 -1 x_r1_g119 -1 x_r1_g46 >= -1 ;
1 p_r1_g131_h58_t73 -1 x_r1_g131 <= 0 ;
1 p_r1_g131_h58_t73 -1 x_r1_g58 <= 0 ;
1 p_r1_g131_h58_t73 -1 x_r1_g131 -1 x_r1_g58 >= -1 ;
1 p_r1_g158_h85_t73 -1 x_r1_g158 <= 0 ;
1 p_r1_g158_h85_t73 -1 x_r1_g85 <= 0 ;
1 p_r1_g158_h85_t73 -1 x_r1_g158 -1 x_r1_g85 >= -1 ;
1 p_r1_g164_h91_t73 -1 x_r1_g164 <= 0 ;
1 p_r1_g164_h91_t73 -1 x_r1_g91 <= 0 ;
1 p_r1_g164_h91_t73 -1 x_r1_g164 -1 x_r1_g91 >= -1 ;
1 p_r2_g4_h98_t73 -1 x_r2_g4 <= 0 ;
1 p_r2_g4_h98_t73 -1 x_r2_g98 <= 0 ;
1 p_r2_g4_h98_t73 -1 x_r2_g4 -1 x_r2_g98 >= -1 ;
1 p_r2_g25_h119_t73 -1 x_r2_g25 <= 0 ;
1 p_r2_g25_h119_t73 -1 x_r2_g119 <= 0 ;
1 p_r2_g25_h119_t73 -1 x_r2_g25 -1 x_r2_g119 >= -1 ;
1 p_r2_g28_h122_t73 -1 x_r2_g28 <= 0 ;
1 p_r2_g28_h122_t73 -1 x_r2_g122 <= 0 ;
1 p_r2_g28_h122_t73 -1 x_r2_g28 -1 x_r2_g122 >= -1 ;
1 p_r2_g47_h141_t73 -1 x_r2_g47 <= 0 ;
1 p_r2_g47_h141_t73 -1 x_r2_g141 <= 0 ;
1 p_r2_g47_h141_t73 -1 x_r2_g47 -1 x_r2_g141 >= -1 ;
1 p_r2_g76_h3_t73 -1 x_r2_g76 <= 0 ;
1 p_r2_g76_h3_t73 -1 x_r2_g3 <= 0 ;
1 p_r2_g76_h3_t73 -1 x_r2_g76 -1 x_r2_g3 >= -1 ;
1 p_r2_g79_h6_t73 -1 x_r2_g79 <= 0 ;
1 p_r2_g79_h6_t73 -1 x_r2_g6 <= 0 ;
1 p_r2_g79_h6_t73 -1 x_r2_g79 -1 x_r2_g6 >= -1 ;
1 p_r2_g81_h8_t73 -1 x_r2_g81 <= 0 ;
1 p_r2_g81_h8_t73 -1 x_r2_g8 <= 0 ;
1 p_r2_g81_h8_t73 -1 x_r2_g81 -1 x_r2_g8 >= -1 ;
1 p_r2_g94_h21_t73 -1 x_r2_g94 <= 0 ;
1 p_r2_g94_h21_t73 -1 x_r2_g21 <= 0 ;
1 p_r2_g94_h21_t73 -1 x_r2_g94 -1 x_r2_g21 >= -1 ;
1 p_r2_g98_h25_t73 -1 x_r2_g98 <= 0 ;
1 p_r2_g98_h25_t73 -1 x_r2_g25 <= 0 ;
1 p_r2_g98_h25_t73 -1 x_r2_g98 -1 x_r2_g25 >= -1 ;
1 p_r2_g119_h46_t73 -1 x_r2_g119 <= 0 ;
1 p_r2_g119_h46_t73 -1 x_r2_g46 <= 0 ;
1 p_r2_g119_h46_t73 -1 x_r2_g119 -1 x_r2_g46 >= -1 ;
1 p_r2_g122_h49_t73 -1 x_r2_g122 <= 0 ;
1 p_r2_g122_h49_t73 -1 x_r2_g49 <= 0 ;
1 p_r2_g122_h49_t73 -1 x_r2_g122 -1 x_r2_g49 >= -1 ;
1 p_r2_g149_h76_t73 -1 x_r2_g149 <= 0 ;
1 p_r2_g149_h76_t73 -1 x_r2_g76 <= 0 ;
1 p_r2_g149_h76_t73 -1 x_r2_g149 -1 x_r2_g76 >= -1 ;
1 p_r3_g0_h94_t73 -1 x_r3_g0 <= 0 ;
1 p_r3_g0_h94_t73 -1 x_r3_g94 <= 0 ;
1 p_r3_g0_h94_t73 -1 x_r3_g0 -1 x_r3_g94 >= -1 ;
1 p_r3_g3_h97_t73 -1 x_r3_g3 <= 0 ;
1 p_r3_g3_h97_t73 -1 x_r3_g97 <= 0 ;
1 p_r3_g3_h97_t73 -1 x_r3_g3 -1 x_r3_g97 >= -1 ;
1 p_r3_g23_h117_t73 -1 x_r3_g23 <= 0 ;
1 p_r3_g23_h117_t73 -1 x_r3_g117 <= 0 ;
1 p_r3_g23_h117_t73 -1 x_r3_g23 -1 x_r3_g117 >= -1 ;
1 p_r3_g42_h136_t73 -1 x_r3_g42 <= 0 ;
1 p_r3_g42_h136_t73 -1 x_r3_g136 <= 0 ;
1 p_r3_g42_h136_t73 -1 x_r3_g42 -1 x_r3_g136 >= -1 ;
1 p_r3_g45_h139_t73 -1 x_r3_g45 <= 0 ;
1 p_r3_g45_h139_t73 -1 x_r3_g139 <= 0 ;
1 p_r3_g45_h139_t73 -1 x_r3_g45 -1 x_r3_g139 >= -1 ;
1 p_r3_g52_h146_t73 -1 x_r3_g52 <= 0 ;
1 p_r3_g52_h146_t73 -1 x_r3_g146 <= 0 ;
1 p_r3_g52_h146_t73 -1 x_r3_g52 -1 x_r3_g146 >= -1 ;
1 p_r3_g67_h161_t73 -1 x_r3_g67 <= 0 ;
1 p_r3_g67_h161_t73 -1 x_r3_g161 <= 0 ;
1 p_r3_g67_h161_t73 -1 x_r3_g67 -1 x_r3_g161 >= -1 ;
1 p_r3_g74_h1_t73 -1 x_r3_g74 <= 0 ;
1 p_r3_g74_h1_t73 -1 x_r3_g1 <= 0 ;
1 p_r3_g74_h1_t73 -1 x_r3_g74 -1 x_r3_g1 >= -1 ;
1 p_r3_g78_h5_t73 -1 x_r3_g78 <= 0 ;
1 p_r3_g78_h5_t73 -1 x_r3_g5 <= 0 ;
1 p_r3_g78_h5_t73 -1 x_r3_g78 -1 x_r3_g5 >= -1 ;
1 p_r3_g94_h21_t73 -1 x_r3_g94 <= 0 ;
1 p_r3_g94_h21_t73 -1 x_r3_g21 <= 0 ;
1 p_r3_g94_h21_t73 -1 x_r3_g94 -1 x_r3_g21 >= -1 ;
1 p_r3_g136_h63_t73 -1 x_r3_g136 <= 0 ;
1 p_r3_g136_h63_t73 -1 x_r3_g63 <= 0 ;
1 p_r3_g136_h63_t73 -1 x_r3_g136 -1 x_r3_g63 >= -1 ;
1 p_r3_g139_h66_t73 -1 x_r3_g139 <= 0 ;
1 p_r3_g139_h66_t73 -1 x_r3_g66 <= 0 ;
1 p_r3_g139_h66_t73 -1 x_r3_g139 -1 x_r3_g66 >= -1 ;
1 p_r3_g161_h88_t73 -1 x_r3_g161 <= 0 ;
1 p_r3_g161_h88_t73 -1 x_r3_g88 <= 0 ;
1 p_r3_g161_h88_t73 -1 x_r3_g161 -1 x_r3_g88 >= -1 ;
1 d_73 -1 x_r0_g8 -2 x_r0_g25 -1 x_r0_g30 -1 x_r0_g31 -1 x_r0_g45 -1 x_r0_g46 -1 x_r0_g49 -1 x_r0_g54 -1 x_r0_g58 -1 x_r0_g65 -1 x_r0_g99 -1 x_r0_g105 -1 x_r0_g106 -1 x_r0_g113 -1 x_r0_g116 -1 x_r0_g131 -1 x_r0_g132 -1 x_r0_g135 -1 x_r0_g143 -1 x_r0_g146 -1 x_r0_g150 -2 x_r1_g15 -1 x_r1_g17 -1 x_r1_g18 -1 x_r1_g19 -1 x_r1_g20 -1 x_r1_g29 -1 x_r1_g33 -1 x_r1_g35 -1 x_r1_g41 -1 x_r1_g46 -1 x_r1_g62 -1 x_r1_g67 -1 x_r1_g82 -2 x_r1_g83 -2 x_r1_g84 -1 x_r1_g95 -1 x_r1_g97 -1 x_r1_g100 -1 x_r1_g115 -1 x_r1_g125 -2 x_r1_g130 -1 x_r1_g131 -1 x_r1_g132 -2 x_r1_g138 -1 x_r1_g154 -1 x_r1_g158 -1 x_r1_g164 -1 x_r2_g1 -1 x_r2_g5 -2 x_r2_g7 -1 x_r2_g8 -1 x_r2_g14 -1 x_r2_g18 -1 x_r2_g21 -1 x_r2_g28 -2 x_r2_g42 -1 x_r2_g46 -1 x_r2_g47 -1 x_r2_g48 -2 x_r2_g56 -1 x_r2_g58 -1 x_r2_g79 -1 x_r2_g94 -1 x_r2_g134 -1 x_r2_g135 -1 x_r2_g138 -1 x_r2_g141 -1 x_r2_g162 -1 x_r3_g3 -1 x_r3_g5 -1 x_r3_g13 -1 x_r3_g17 -1 x_r3_g26 -1 x_r3_g45 -2 x_r3_g46 -2 x_r3_g55 -1 x_r3_g56 -1 x_r3_g59 -1 x_r3_g66 -1 x_r3_g67 -1 x_r3_g68 -1 x_r3_g78 -2 x_r3_g81 -1 x_r3_g110 -2 x_r3_g112 -2 x_r3_g122 -1 x_r3_g133 -2 x_r3_g134 -1 p_r0_g18_h112_t73 -1 p_r0_g38_h132_t73 -1 p_r0_g39_h133_t73 -1 p_r0_g41_h135_t73 -1 p_r0_g44_h138_t73 -1 p_r0_g49_h143_t73 -1 p_r0_g89_h16_t73 -1 p_r0_g111_h38_t73 -1 p_r0_g112_h39_t73 -1 p_r0_g113_h40_t73 -1 p_r0_g117_h44_t73 -1 p_r0_g118_h45_t73 -1 p_r0_g131_h58_t73 -1 p_r0_g138_h65_t73 -1 p_r1_g91_h18_t73 -1 p_r1_g92_h19_t73 -1 p_r1_g116_h43_t73 -1 p_r1_g119_h46_t73 -1 p_r1_g131_h58_t73 -1 p_r1_g158_h85_t73 -1 p_r1_g164_h91_t73 -1 p_r2_g4_h98_t73 -1 p_r2_g25_h119_t73 -1 p_r2_g28_h122_t73 -1 p_r2_g47_h141_t73 -1 p_r2_g76_h3_t73 -1 p_r2_g79_h6_t73 -1 p_r2_g81_h8_t73 -1 p_r2_g94_h21_t73 -1 p_r2_g98_h25_t73 -1 p_r2_g119_h46_t73 -1 p_r2_g122_h49_t73 -1 p_r2_g149_h76_t73 -1 p_r3_g0_h94_t73 -1 p_r3_g3_h97_t73 -1 p_r3_g23_h117_t73 -1 p_r3_g42_h136_t73 -1 p_r3_g45_h139_t73 -1 p_r3_g52_h146_t73 -1 p_r3_g67_h161_t73 -1 p_r3_g74_h1_t73 -1 p_r3_g78_h5_t73 -1 p_r3_g94_h21_t73 -1 p_r3_g136_h63_t73 -1 p_r3_g139_h66_t73 -1 p_r3_g161_h88_t73 = -89 ;
1 d_73 -1 u_73 <= 0 ;
-1 d_73 -1 u_73 <= 0 ;
1 u_73 -1 M <= 0 ;
1 u_73 <= 2 ;
1 p_r0_g2_h89_t80 -1 x_r0_g2 <= 0 ;
1 p_r0_g2_h89_t80 -1 x_r0_g89 <= 0 ;
1 p_r0_g2_h89_t80 -1 x_r0_g2 -1 x_r0_g89 >= -1 ;
1 p_r0_g18_h105_t80 -1 x_r0_g18 <= 0 ;
1 p_r0_g18_h105_t80 -1 x_r0_g105 <= 0 ;
1 p_r0_g18_h105_t80 -1 x_r0_g18 -1 x_r0_g105 >= -1 ;
1 p_r0_g25_h112_t80 -1 x_r0_g25 <= 0 ;
1 p_r0_g25_h112_t80 -1 x_r0_g112 <= 0 ;
1 p_r0_g25_h112_t80 -1 x_r0_g25 -1 x_r0_g112 >= -1 ;
1 p_r0_g30_h117_t80 -1 x_r0_g30 <= 0 ;
1 p_r0_g30_h117_t80 -1 x_r0_g117 <= 0 ;
1 p_r0_g30_h117_t80 -1 x_r0_g30 -1 x_r0_g117 >= -1 ;
1 p_r0_g31_h118_t80 -1 x_r0_g31 <= 0 ;
1 p_r0_g31_h118_t80 -1 x_r0_g118 <= 0 ;
1 p_r0_g31_h118_t80 -1 x_r0_g31 -1 x_r0_g118 >= -1 ;
1 p_r0_g44_h131_t80 -1 x_r0_g44 <= 0 ;
1 p_r0_g44_h131_t80 -1 x_r0_g131 <= 0 ;
1 p_r0_g44_h131_t80 -1 x_r0_g44 -1 x_r0_g131 >= -1 ;
1 p_r0_g45_h132_t80 -1 x_r0_g45 <= 0 ;
1 p_r0_g45_h132_t80 -1 x_r0_g132 <= 0 ;
1 p_r0_g45_h132_t80 -1 x_r0_g45 -1 x_r0_g132 >= -1 ;
1 p_r0_g46_h133_t80 -1 x_r0_g46 <= 0 ;
1 p_r0_g46_h133_t80 -1 x_r0_g133 <= 0 ;
1 p_r0_g46_h133_t80 -1 x_r0_g46 -1 x_r0_g133 >= -1 ;
1 p_r0_g105_h25_t80 -1 x_r0_g105 <= 0 ;
1 p_r0_g105_h25_t80 -1 x_r0_g25 <= 0 ;
1 p_r0_g105_h25_t80 -1 x_r0_g105 -1 x_r0_g25 >= -1 ;
1 p_r0_g111_h31_t80 -1 x_r0_g111 <= 0 ;
1 p_r0_g111_h31_t80 -1 x_r0_g31 <= 0 ;
1 p_r0_g111_h31_t80 -1 x_r0_g111 -1 x_r0_g31 >= -1 ;
1 p_r0_g118_h38_t80 -1 x_r0_g118 <= 0 ;
1 p_r0_g118_h38_t80 -1 x_r0_g38 <= 0 ;
1 p_r0_g118_h38_t80 -1 x_r0_g118 -1 x_r0_g38 >= -1 ;
1 p_r0_g138_h58_t80 -1 x_r0_g138 <= 0 ;
1 p_r0_g138_h58_t80 -1 x_r0_g58 <= 0 ;
1 p_r0_g138_h58_t80 -1 x_r0_g138 -1 x_r0_g58 >= -1 ;
1 p_r1_g28_h115_t80 -1 x_r1_g28 <= 0 ;
1 p_r1_g28_h115_t80 -1 x_r1_g115 <= 0 ;
1 p_r1_g28_h115_t80 -1 x_r1_g28 -1 x_r1_g115 >= -1 ;
1 p_r1_g29_h116_t80 -1 x_r1_g29 <= 0 ;
1 p_r1_g29_h116_t80 -1 x_r1_g116 <= 0 ;
1 p_r1_g29_h116_t80 -1 x_r1_g29 -1 x_r1_g116 >= -1 ;
1 p_r1_g43_h130_t80 -1 x_r1_g43 <= 0 ;
1 p_r1_g43_h130_t80 -1 x_r1_g130 <= 0 ;
1 p_r1_g43_h130_t80 -1 x_r1_g43 -1 x_r1_g130 >= -1 ;
1 p_r1_g67_h154_t80 -1 x_r1_g67 <= 0 ;
1 p_r1_g67_h154_t80 -1 x_r1_g154 <= 0 ;
1 p_r1_g67_h154_t80 -1 x_r1_g67 -1 x_r1_g154 >= -1 ;
1 p_r1_g95_h15_t80 -1 x_r1_g95 <= 0 ;
1 p_r1_g95_h15_t80 -1 x_r1_g15 <= 0 ;
1 p_r1_g95_h15_t80 -1 x_r1_g95 -1 x_r1_g15 >= -1 ;
1 p_r1_g97_h17_t80 -1 x_r1_g97 <= 0 ;
1 p_r1_g97_h17_t80 -1 x_r1_g17 <= 0 ;
1 p_r1_g97_h17_t80 -1 x_r1_g97 -1 x_r1_g17 >= -1 ;
1 p_r1_g98_h18_t80 -1 x_r1_g98 <= 0 ;
1 p_r1_g98_h18_t80 -1 x_r1_g18 <= 0 ;
1 p_r1_g98_h18_t80 -1 x_r1_g98 -1 x_r1_g18 >= -1 ;
1 p_r1_g100_h20_t80 -1 x_r1_g100 <= 0 ;
1 p_r1_g100_h20_t80 -1 x_r1_g20 <= 0 ;
1 p_r1_g100_h20_t80 -1 x_r1_g100 -1 x_r1_g20 >= -1 ;
1 p_r1_g115_h35_t80 -1 x_r1_g115 <= 0 ;
1 p_r1_g115_h35_t80 -1 x_r1_g35 <= 0 ;
1 p_r1_g115_h35_t80 -1 x_r1_g115 -1 x_r1_g35 >= -1 ;
1 p_r1_g138_h58_t80 -1 x_r1_g138 <= 0 ;
1 p_r1_g138_h58_t80 -1 x_r1_g58 <= 0 ;
1 p_r1_g138_h58_t80 -1 x_r1_g138 -1 x_r1_g58 >= -1 ;
1 p_r1_g164_h84_t80 -1 x_r1_g164 <= 0 ;
1 p_r1_g164_h84_t80 -1 x_r1_g84 <= 0 ;
1 p_r1_g164_h84_t80 -1 x_r1_g164 -1 x_r1_g84 >= -1 ;
1 p_r2_g7_h94_t80 -1 x_r2_g7 <= 0 ;
1 p_r2_g7_h94_t80 -1 x_r2_g94 <= 0 ;
1 p_r2_g7_h94_t80 -1 x_r2_g7 -1 x_r2_g94 >= -1 ;
1 p_r2_g47_h134_t80 -1 x_r2_g47 <= 0 ;
1 p_r2_g47_h134_t80 -1 x_r2_g134 <= 0 ;
1 p_r2_g47_h134_t80 -1 x_r2_g47 -1 x_r2_g134 >= -1 ;
1 p_r2_g48_h135_t80 -1 x_r2_g48 <= 0 ;
1 p_r2_g48_h135_t80 -1 x_r2_g135 <= 0 ;
1 p_r2_g48_h135_t80 -1 x_r2_g48 -1 x_r2_g135 >= -1 ;
1 p_r2_g58_h145_t80 -1 x_r2_g58 <= 0 ;
1 p_r2_g58_h145_t80 -1 x_r2_g145 <= 0 ;
1 p_r2_g58_h145_t80 -1 x_r2_g58 -1 x_r2_g145 >= -1 ;
1 p_r2_g79_h166_t80 -1 x_r2_g79 <= 0 ;
1 p_r2_g79_h166_t80 -1 x_r2_g166 <= 0 ;
1 p_r2_g79_h166_t80 -1 x_r2_g79 -1 x_r2_g166 >= -1 ;
1 p_r2_g81_h1_t80 -1 x_r2_g81 <= 0 ;
1 p_r2_g81_h1_t80 -1 x_r2_g1 <= 0 ;
1 p_r2_g81_h1_t80 -1 x_r2_g81 -1 x_r2_g1 >= -1 ;
1 p_r2_g94_h14_t80 -1 x_r2_g94 <= 0 ;
1 p_r2_g94_h14_t80 -1 x_r2_g14 <= 0 ;
1 p_r2_g94_h14_t80 -1 x_r2_g94 -1 x_r2_g14 >= -1 ;
1 p_r2_g98_h18_t80 -1 x_r2_g98 <= 0 ;
1 p_r2_g98_h18_t80 -1 x_r2_g18 <= 0 ;
1 p_r2_g98_h18_t80 -1 x_r2_g98 -1 x_r2_g18 >= -1 ;
1 p_r2_g122_h42_t80 -1 x_r2_g122 <= 0 ;
1 p_r2_g122_h42_t80 -1 x_r2_g42 <= 0 ;
1 p_r2_g122_h42_t80 -1 x_r2_g122 -1 x_r2_g42 >= -1 ;
1 p_r2_g138_h58_t80 -1 x_r2_g138 <= 0 ;
1 p_r2_g138_h58_t80 -1 x_r2_g58 <= 0 ;
1 p_r2_g138_h58_t80 -1 x_r2_g138 -1 x_r2_g58 >= -1 ;
1 p_r3_g1_h88_t80 -1 x_r3_g1 <= 0 ;
1 p_r3_g1_h88_t80 -1 x_r3_g88 <= 0 ;
1 p_r3_g1_h88_t80 -1 x_r3_g1 -1 x_r3_g88 >= -1 ;
1 p_r3_g23_h110_t80 -1 x_r3_g23 <= 0 ;
1 p_r3_g23_h110_t80 -1 x_r3_g110 <= 0 ;
1 p_r3_g23_h110_t80 -1 x_r3_g23 -1 x_r3_g110 >= -1 ;
1 p_r3_g46_h133_t80 -1 x_r3_g46 <= 0 ;
1 p_r3_g46_h133_t80 -1 x_r3_g133 <= 0 ;
1 p_r3_g46_h133_t80 -1 x_r3_g46 -1 x_r3_g133 >= -1 ;
1 p_r3_g52_h139_t80 -1 x_r3_g52 <= 0 ;
1 p_r3_g52_h139_t80 -1 x_r3_g139 <= 0 ;
1 p_r3_g52_h139_t80 -1 x_r3_g52 -1 x_r3_g139 >= -1 ;
1 p_r3_g59_h146_t80 -1 x_r3_g59 <= 0 ;
1 p_r3_g59_h146_t80 -1 x_r3_g146 <= 0 ;
1 p_r3_g59_h146_t80 -1 x_r3_g59 -1 x_r3_g146 >= -1 ;
1 p_r3_g74_h161_t80 -1 x_r3_g74 <= 0 ;
1 p_r3_g74_h161_t80 -1 x_r3_g161 <= 0 ;
1 p_r3_g74_h161_t80 -1 x_r3_g74 -1 x_r3_g161 >= -1 ;
1 p_r3_g78_h165_t80 -1 x_r3_g78 <= 0 ;
1 p_r3_g78_h165_t80 -1 x_r3_g165 <= 0 ;
1 p_r3_g78_h165_t80 -1 x_r3_g78 -1 x_r3_g165 >= -1 ;
1 p_r3_g81_h1_t80 -1 x_r3_g81 <= 0 ;
1 p_r3_g81_h1_t80 -1 x_r3_g1 <= 0 ;
1 p_r3_g81_h1_t80 -1 x_r3_g81 -1 x_r3_g1 >= -1 ;
1 p_r3_g97_h17_t80 -1 x_r3_g97 <= 0 ;
1 p_r3_g97_h17_t80 -1 x_r3_g17 <= 0 ;
1 p_r3_g97_h17_t80 -1 x_r3_g97 -1 x_r3_g17 >= -1 ;
1 p_r3_g122_h42_t80 -1 x_r3_g122 <= 0 ;
1 p_r3_g122_h42_t80 -1 x_r3_g42 <= 0 ;
1 p_r3_g122_h42_t80 -1 x_r3_g122 -1 x_r3_g42 >= -1 ;
1 p_r3_g136_h56_t80 -1 x_r3_g136 <= 0 ;
1 p_r3_g136_h56_t80 -1 x_r3_g56 <= 0 ;
1 p_r3_g136_h56_t80 -1 x_r3_g136 -1 x_r3_g56 >= -1 ;
1 p_r3_g139_h59_t80 -1 x_r3_g139 <= 0 ;
1 p_r3_g139_h59_t80 -1 x_r3_g59 <= 0 ;
1 p_r3_g139_h59_t80 -1 x_r3_g139 -1 x_r3_g59 >= -1 ;
1 p_r3_g146_h66_t80 -1 x_r3_g146 <= 0 ;
1 p_r3_g146_h66_t80 -1 x_r3_g66 <= 0 ;
1 p_r3_g146_h66_t80 -1 x_r3_g146 -1 x_r3_g66 >= -1 ;
1 p_r3_g161_h81_t80 -1 x_r3_g161 <= 0 ;
1 p_r3_g161_h81_t80 -1 x_r3_g81 <= 0 ;
1 p_r3_g161_h81_t80 -1 x_r3_g161 -1 x_r3_g81 >= -1 ;
1 d_80 -1 x_r0_g8 -1 x_r0_g16 -1 x_r0_g18 -1 x_r0_g35 -1 x_r0_g38 -2 x_r0_g39 -2 x_r0_g40 -1 x_r0_g45 -1 x_r0_g46 -1 x_r0_g49 -1 x_r0_g65 -2 x_r0_g99 -1 x_r0_g106 -1 x_r0_g116 -1 x_r0_g117 -1 x_r0_g131 -1 x_r0_g132 -2 x_r0_g135 -1 x_r0_g138 -1 x_r0_g143 -1 x_r0_g146 -2 x_r0_g150 -2 x_r0_g154 -1 x_r0_g155 -2 x_r1_g0 -1 x_r1_g20 -1 x_r1_g28 -1 x_r1_g29 -1 x_r1_g33 -1 x_r1_g41 -1 x_r1_g43 -1 x_r1_g48 -2 x_r1_g83 -1 x_r1_g91 -1 x_r1_g97 -1 x_r1_g98 -1 x_r1_g116 -2 x_r1_g118 -2 x_r1_g119 -1 x_r1_g125 -1 x_r1_g131 -1 x_r1_g158 -2 x_r2_g3 -1 x_r2_g5 -1 x_r2_g6 -1 x_r2_g7 -1 x_r2_g14 -1 x_r2_g15 -1 x_r2_g18 -1 x_r2_g21 -2 x_r2_g25 -1 x_r2_g28 -1 x_r2_g42 -1 x_r2_g46 -1 x_r2_g47 -1 x_r2_g48 -2 x_r2_g49 -1 x_r2_g56 -1 x_r2_g76 -1 x_r2_g81 -1 x_r2_g111 -1 x_r2_g117 -1 x_r2_g118 -1 x_r2_g119 -1 x_r2_g141 -1 x_r2_g145 -2 x_r2_g162 -1 x_r2_g166 -1 x_r3_g0 -1 x_r3_g3 -1 x_r3_g21 -1 x_r3_g26 -2 x_r3_g31 -1 x_r3_g42 -1 x_r3_g45 -1 x_r3_g52 -1 x_r3_g55 -1 x_r3_g56 -2 x_r3_g58 -1 x_r3_g63 -1 x_r3_g67 -1 x_r3_g68 -1 x_r3_g74 -1 x_r3_g84 -1 x_r3_g88 -1 x_r3_g110 -1 x_r3_g112 -2 x_r3_g117 -1 x_r3_g133 -1 x_r3_g134 -1 x_r3_g136 -1 p_r0_g2_h89_t80 -1 p_r0_g18_h105_t80 -1 p_r0_g25_h112_t80 -1 p_r0_g30_h117_t80 -1 p_r0_g31_h118_t80 -1 p_r0_g44_h131_t80 -1 p_r0_g45_h132_t80 -1 p_r0_g46_h133_t80 -1 p_r0_g105_h25_t80 -1 p_r0_g111_h31_t80 -1 p_r0_g118_h38_t80 -1 p_r0_g138_h58_t80 -1 p_r1_g28_h115_t80 -1 p_r1_g29_h116_t80 -1 p_r1_g43_h130_t80 -1 p_r1_g67_h154_t80 -1 p_r1_g95_h15_t80 -1 p_r1_g97_h17_t80 -1 p_r1_g98_h18_t80 -1 p_r1_g100_h20_t80 -1 p_r1_g115_h35_t80 -1 p_r1_g138_h58_t80 -1 p_r1_g164_h84_t80 -1 p_r2_g7_h94_t80 -1 p_r2_g47_h134_t80 -1 p_r2_g48_h135_t80 -1 p_r2_g58_h145_t80 -1 p_r2_g79_h166_t80 -1 p_r2_g81_h1_t80 -1 p_r2_g94_h14_t80 -1 p_r2_g98_h18_t80 -1 p_r2_g122_h42_t80 -1 p_r2_g138_h58_t80 -1 p_r3_g1_h88_t80 -1 p_r3_g23_h110_t80 -1 p_r3_g46_h133_t80 -1 p_r3_g52_h139_t80 -1 p_r3_g59_h146_t80 -1 p_r3_g74_h161_t80 -1 p_r3_g78_h165_t80 -1 p_r3_g81_h1_t80 -1 p_r3_g97_h17_t80 -1 p_r3_g122_h42_t80 -1 p_r3_g136_h56_t80 -1 p_r3_g139_h59_t80 -1 p_r3_g146_h66_t80 -1 p_r3_g161_h81_t80 = -52 ;
1 d_80 -1 u_80 <= 0 ;
-1 d_80 -1 u_80 <= 0 ;
1 u_80 -1 M <= 0 ;
1 u_80 <= 1 ;
1 M <= 3 ;
10 u_1 1 u_22 1 u_42 1 u_43 1 u_46 1 u_47 1 u_64 1 u_66 1 u_67 1 u_68 10 u_73 1 u_80 <= 46 ;
1 F -1 x_r0_g2 -1 x_r0_g8 -1 x_r0_g16 -1 x_r0_g18 -1 x_r0_g31 -1 x_r0_g35 -1 x_r0_g39 -1 x_r0_g41 -1 x_r0_g44 -1 x_r0_g46 -1 x_r0_g89 -1 x_r0_g99 -1 x_r0_g105 -1 x_r0_g112 -1 x_r0_g117 -1 x_r0_g133 -1 x_r0_g135 -1 x_r0_g138 -1 x_r0_g150 -1 x_r0_g154 -1 x_r1_g0 -1 x_r1_g17 -1 x_r1_g19 -1 x_r1_g28 -1 x_r1_g33 -1 x_r1_g35 -1 x_r1_g41 -1 x_r1_g43 -1 x_r1_g48 -1 x_r1_g58 -1 x_r1_g67 -1 x_r1_g83 -1 x_r1_g85 -1 x_r1_g92 -1 x_r1_g97 -1 x_r1_g116 -1 x_r1_g118 -1 x_r1_g125 -1 x_r1_g131 -1 x_r1_g158 -1 x_r2_g3 -1 x_r2_g5 -1 x_r2_g6 -1 x_r2_g8 -1 x_r2_g15 -1 x_r2_g42 -1 x_r2_g47 -1 x_r2_g76 -1 x_r2_g79 -1 x_r2_g81 -1 x_r2_g111 -1 x_r2_g117 -1 x_r2_g118 -1 x_r2_g135 -1 x_r2_g138 -1 x_r2_g141 -1 x_r2_g145 -1 x_r2_g149 -1 x_r2_g162 -1 x_r2_g166 -1 x_r3_g0 -1 x_r3_g3 -1 x_r3_g21 -1 x_r3_g23 -1 x_r3_g31 -1 x_r3_g42 -1 x_r3_g52 -1 x_r3_g56 -1 x_r3_g58 -1 x_r3_g63 -1 x_r3_g67 -1 x_r3_g84 -1 x_r3_g88 -1 x_r3_g97 -1 x_r3_g117 -1 x_r3_g133 -1 x_r3_g136 -1 x_r3_g146 -1 x_r3_g161 -1 x_r3_g165 1 x_r0_g25 1 x_r0_g30 1 x_r0_g34 1 x_r0_g38 1 x_r0_g40 1 x_r0_g45 1 x_r0_g49 1 x_r0_g54 1 x_r0_g58 1 x_r0_g65 1 x_r0_g106 1 x_r0_g111 1 x_r0_g113 1 x_r0_g116 1 x_r0_g118 1 x_r0_g131 1 x_r0_g132 1 x_r0_g143 1 x_r0_g146 1 x_r0_g155 1 x_r1_g15 1 x_r1_g18 1 x_r1_g20 1 x_r1_g29 1 x_r1_g46 1 x_r1_g49 1 x_r1_g62 1 x_r1_g82 1 x_r1_g84 1 x_r1_g91 1 x_r1_g95 1 x_r1_g98 1 x_r1_g100 1 x_r1_g115 1 x_r1_g119 1 x_r1_g130 1 x_r1_g132 1 x_r1_g138 1 x_r1_g154 1 x_r1_g164 1 x_r2_g1 1 x_r2_g4 1 x_r2_g7 1 x_r2_g14 1 x_r2_g18 1 x_r2_g21 1 x_r2_g25 1 x_r2_g28 1 x_r2_g46 1 x_r2_g48 1 x_r2_g49 1 x_r2_g56 1 x_r2_g58 1 x_r2_g94 1 x_r2_g98 1 x_r2_g119 1 x_r2_g122 1 x_r2_g132 1 x_r2_g134 1 x_r2_g146 1 x_r3_g1 1 x_r3_g5 1 x_r3_g13 1 x_r3_g17 1 x_r3_g26 1 x_r3_g45 1 x_r3_g46 1 x_r3_g55 1 x_r3_g59 1 x_r3_g66 1 x_r3_g68 1 x_r3_g74 1 x_r3_g78 1 x_r3_g81 1 x_r3_g94 1 x_r3_g110 1 x_r3_g112 1 x_r3_g122 1 x_r3_g134 1 x_r3_g139 = 80 ;
1 F <= 6 ;
