* #variable= 1050 #constraint= 2650
* int d_1 d_2 d_3 d_4 d_6 d_8 d_22 d_34 d_41 d_42 d_43 d_46 d_47 d_49 d_64 d_66 d_67 d_68 d_70 d_71 d_73 d_80 u_1 u_2 u_3 u_4 u_6 u_8 u_22 u_34 u_41 u_42 u_43 u_46 u_47 u_49 u_64 u_66 u_67 u_68 u_70 u_71 u_73 u_80 M F ;
min: 1 M ;
1 x_r0_g6 1 x_r0_g13 1 x_r0_g16 1 x_r0_g23 1 x_r0_g25 1 x_r0_g35 1 x_r0_g39 1 x_r0_g40 1 x_r0_g41 1 x_r0_g44 1 x_r0_g46 1 x_r0_g47 1 x_r0_g49 1 x_r0_g50 1 x_r0_g54 1 x_r0_g66 1 x_r0_g73 1 x_r0_g74 1 x_r0_g77 1 x_r0_g88 1 x_r0_g95 1 x_r0_g99 1 x_r0_g101 1 x_r0_g110 1 x_r0_g111 1 x_r0_g112 1 x_r0_g113 1 x_r0_g116 1 x_r0_g117 1 x_r0_g128 1 x_r0_g132 1 x_r0_g135 1 x_r0_g136 1 x_r0_g137 1 x_r0_g139 1 x_r0_g144 1 x_r0_g150 1 x_r0_g152 1 x_r0_g156 1 x_r0_g163 = 20 ;
1 x_r1_g0 1 x_r1_g16 1 x_r1_g19 1 x_r1_g20 1 x_r1_g27 1 x_r1_g28 1 x_r1_g29 1 x_r1_g33 1 x_r1_g35 1 x_r1_g36 1 x_r1_g38 1 x_r1_g42 1 x_r1_g43 1 x_r1_g45 1 x_r1_g46 1 x_r1_g58 1 x_r1_g64 1 x_r1_g71 1 x_r1_g76 1 x_r1_g77 1 x_r1_g78 1 x_r1_g82 1 x_r1_g85 1 x_r1_g89 1 x_r1_g91 1 x_r1_g92 1 x_r1_g94 1 x_r1_g98 1 x_r1_g99 1 x_r1_g101 1 x_r1_g114 1 x_r1_g116 1 x_r1_g120 1 x_r1_g128 1 x_r1_g130 1 x_r1_g131 1 x_r1_g132 1 x_r1_g135 1 x_r1_g157 1 x_r1_g164 = 20 ;
1 x_r2_g5 1 x_r2_g6 1 x_r2_g7 1 x_r2_g13 1 x_r2_g14 1 x_r2_g17 1 x_r2_g22 1 x_r2_g29 1 x_r2_g34 1 x_r2_g35 1 x_r2_g41 1 x_r2_g42 1 x_r2_g47 1 x_r2_g51 1 x_r2_g56 1 x_r2_g63 1 x_r2_g75 1 x_r2_g76 1 x_r2_g80 1 x_r2_g85 1 x_r2_g87 1 x_r2_g93 1 x_r2_g106 1 x_r2_g111 1 x_r2_g112 1 x_r2_g114 1 x_r2_g116 1 x_r2_g118 1 x_r2_g119 1 x_r2_g125 1 x_r2_g127 1 x_r2_g132 1 x_r2_g133 1 x_r2_g138 1 x_r2_g139 1 x_r2_g141 1 x_r2_g145 1 x_r2_g146 1 x_r2_g151 1 x_r2_g161 = 20 ;
1 x_r3_g0 1 x_r3_g4 1 x_r3_g6 1 x_r3_g12 1 x_r3_g21 1 x_r3_g29 1 x_r3_g31 1 x_r3_g52 1 x_r3_g53 1 x_r3_g54 1 x_r3_g55 1 x_r3_g56 1 x_r3_g61 1 x_r3_g63 1 x_r3_g66 1 x_r3_g68 1 x_r3_g77 1 x_r3_g78 1 x_r3_g80 1 x_r3_g82 1 x_r3_g83 1 x_r3_g84 1 x_r3_g89 1 x_r3_g97 1 x_r3_g107 1 x_r3_g108 1 x_r3_g112 1 x_r3_g115 1 x_r3_g121 1 x_r3_g122 1 x_r3_g125 1 x_r3_g132 1 x_r3_g133 1 x_r3_g136 1 x_r3_g139 1 x_r3_g141 1 x_r3_g146 1 x_r3_g149 1 x_r3_g150 1 x_r3_g160 = 20 ;
1 p_r0_g40_h39_t1 -1 x_r0_g40 <= 0 ;
1 p_r0_g40_h39_t1 -1 x_r0_g39 <= 0 ;
1 p_r0_g40_h39_t1 -1 x_r0_g40 -1 x_r0_g39 >= -1 ;
1 p_r0_g41_h40_t1 -1 x_r0_g41 <= 0 ;
1 p_r0_g41_h40_t1 -1 x_r0_g40 <= 0 ;
1 p_r0_g41_h40_t1 -1 x_r0_g41 -1 x_r0_g40 >= -1 ;
1 p_r0_g47_h46_t1 -1 x_r0_g47 <= 0 ;
1 p_r0_g47_h46_t1 -1 x_r0_g46 <= 0 ;
1 p_r0_g47_h46_t1 -1 x_r0_g47 -1 x_r0_g46 >= -1 ;
1 p_r0_g50_h49_t1 -1 x_r0_g50 <= 0 ;
1 p_r0_g50_h49_t1 -1 x_r0_g49 <= 0 ;
1 p_r0_g50_h49_t1 -1 x_r0_g50 -1 x_r0_g49 >= -1 ;
1 p_r0_g74_h73_t1 -1 x_r0_g74 <= 0 ;
1 p_r0_g74_h73_t1 -1 x_r0_g73 <= 0 ;
1 p_r0_g74_h73_t1 -1 x_r0_g74 -1 x_r0_g73 >= -1 ;
1 p_r0_g111_h110_t1 -1 x_r0_g111 <= 0 ;
1 p_r0_g111_h110_t1 -1 x_r0_g110 <= 0 ;
1 p_r0_g111_h110_t1 -1 x_r0_g111 -1 x_r0_g110 >= -1 ;
1 p_r0_g112_h111_t1 -1 x_r0_g112 <= 0 ;
1 p_r0_g112_h111_t1 -1 x_r0_g111 <= 0 ;
1 p_r0_g112_h111_t1 -1 x_r0_g112 -1 x_r0_g111 >= -1 ;
1 p_r0_g113_h112_t1 -1 x_r0_g113 <= 0 ;
1 p_r0_g113_h112_t1 -1 x_r0_g112 <= 0 ;
1 p_r0_g113_h112_t1 -1 x_r0_g113 -1 x_r0_g112 >= -1 ;
1 p_r0_g117_h116_t1 -1 x_r0_g117 <= 0 ;
1 p_r0_g117_h116_t1 -1 x_r0_g116 <= 0 ;
1 p_r0_g117_h116_t1 -1 x_r0_g117 -1 x_r0_g116 >= -1 ;
1 p_r0_g136_h135_t1 -1 x_r0_g136 <= 0 ;
1 p_r0_g136_h135_t1 -1 x_r0_g135 <= 0 ;
1 p_r0_g136_h135_t1 -1 x_r0_g136 -1 x_r0_g135 >= -1 ;
1 p_r0_g137_h136_t1 -1 x_r0_g137 <= 0 ;
1 p_r0_g137_h136_t1 -1 x_r0_g136 <= 0 ;
1 p_r0_g137_h136_t1 -1 x_r0_g137 -1 x_r0_g136 >= -1 ;
1 p_r1_g20_h19_t1 -1 x_r1_g20 <= 0 ;
1 p_r1_g20_h19_t1 -1 x_r1_g19 <= 0 ;
1 p_r1_g20_h19_t1 -1 x_r1_g20 -1 x_r1_g19 >= -1 ;
1 p_r1_g28_h27_t1 -1 x_r1_g28 <= 0 ;
1 p_r1_g28_h27_t1 -1 x_r1_g27 <= 0 ;
1 p_r1_g28_h27_t1 -1 x_r1_g28 -1 x_r1_g27 >= -1 ;
1 p_r1_g29_h28_t1 -1 x_r1_g29 <= 0 ;
1 p_r1_g29_h28_t1 -1 x_r1_g28 <= 0 ;
1 p_r1_g29_h28_t1 -1 x_r1_g29 -1 x_r1_g28 >= -1 ;
1 p_r1_g36_h35_t1 -1 x_r1_g36 <= 0 ;
1 p_r1_g36_h35_t1 -1 x_r1_g35 <= 0 ;
1 p_r1_g36_h35_t1 -1 x_r1_g36 -1 x_r1_g35 >= -1 ;
1 p_r1_g43_h42_t1 -1 x_r1_g43 <= 0 ;
1 p_r1_g43_h42_t1 -1 x_r1_g42 <= 0 ;
1 p_r1_g43_h42_t1 -1 x_r1_g43 -1 x_r1_g42 >= -1 ;
1 p_r1_g46_h45_t1 -1 x_r1_g46 <= 0 ;
1 p_r1_g46_h45_t1 -1 x_r1_g45 <= 0 ;
1 p_r1_g46_h45_t1 -1 x_r1_g46 -1 x_r1_g45 >= -1 ;
1 p_r1_g77_h76_t1 -1 x_r1_g77 <= 0 ;
1 p_r1_g77_h76_t1 -1 x_r1_g76 <= 0 ;
1 p_r1_g77_h76_t1 -1 x_r1_g77 -1 x_r1_g76 >= -1 ;
1 p_r1_g78_h77_t1 -1 x_r1_g78 <= 0 ;
1 p_r1_g78_h77_t1 -1 x_r1_g77 <= 0 ;
1 p_r1_g78_h77_t1 -1 x_r1_g78 -1 x_r1_g77 >= -1 ;
1 p_r1_g92_h91_t1 -1 x_r1_g92 <= 0 ;
1 p_r1_g92_h91_t1 -1 x_r1_g91 <= 0 ;
1 p_r1_g92_h91_t1 -1 x_r1_g92 -1 x_r1_g91 >= -1 ;
1 p_r1_g99_h98_t1 -1 x_r1_g99 <= 0 ;
1 p_r1_g99_h98_t1 -1 x_r1_g98 <= 0 ;
1 p_r1_g99_h98_t1 -1 x_r1_g99 -1 x_r1_g98 >= -1 ;
1 p_r1_g131_h130_t1 -1 x_r1_g131 <= 0 ;
1 p_r1_g131_h130_t1 -1 x_r1_g130 <= 0 ;
1 p_r1_g131_h130_t1 -1 x_r1_g131 -1 x_r1_g130 >= -1 ;
1 p_r1_g132_h131_t1 -1 x_r1_g132 <= 0 ;
1 p_r1_g132_h131_t1 -1 x_r1_g131 <= 0 ;
1 p_r1_g132_h131_t1 -1 x_r1_g132 -1 x_r1_g131 >= -1 ;
1 p_r2_g6_h5_t1 -1 x_r2_g6 <= 0 ;
1 p_r2_g6_h5_t1 -1 x_r2_g5 <= 0 ;
1 p_r2_g6_h5_t1 -1 x_r2_g6 -1 x_r2_g5 >= -1 ;
1 p_r2_g7_h6_t1 -1 x_r2_g7 <= 0 ;
1 p_r2_g7_h6_t1 -1 x_r2_g6 <= 0 ;
1 p_r2_g7_h6_t1 -1 x_r2_g7 -1 x_r2_g6 >= -1 ;
1 p_r2_g14_h13_t1 -1 x_r2_g14 <= 0 ;
1 p_r2_g14_h13_t1 -1 x_r2_g13 <= 0 ;
1 p_r2_g14_h13_t1 -1 x_r2_g14 -1 x_r2_g13 >= -1 ;
1 p_r2_g35_h34_t1 -1 x_r2_g35 <= 0 ;
1 p_r2_g35_h34_t1 -1 x_r2_g34 <= 0 ;
1 p_r2_g35_h34_t1 -1 x_r2_g35 -1 x_r2_g34 >= -1 ;
1 p_r2_g42_h41_t1 -1 x_r2_g42 <= 0 ;
1 p_r2_g42_h41_t1 -1 x_r2_g41 <= 0 ;
1 p_r2_g42_h41_t1 -1 x_r2_g42 -1 x_r2_g41 >= -1 ;
1 p_r2_g76_h75_t1 -1 x_r2_g76 <= 0 ;
1 p_r2_g76_h75_t1 -1 x_r2_g75 <= 0 ;
1 p_r2_g76_h75_t1 -1 x_r2_g76 -1 x_r2_g75 >= -1 ;
1 p_r2_g112_h111_t1 -1 x_r2_g112 <= 0 ;
1 p_r2_g112_h111_t1 -1 x_r2_g111 <= 0 ;
1 p_r2_g112_h111_t1 -1 x_r2_g112 -1 x_r2_g111 >= -1 ;
1 p_r2_g119_h118_t1 -1 x_r2_g119 <= 0 ;
1 p_r2_g119_h118_t1 -1 x_r2_g118 <= 0 ;
1 p_r2_g119_h118_t1 -1 x_r2_g119 -1 x_r2_g118 >= -1 ;
1 p_r2_g133_h132_t1 -1 x_r2_g133 <= 0 ;
1 p_r2_g133_h132_t1 -1 x_r2_g132 <= 0 ;
1 p_r2_g133_h132_t1 -1 x_r2_g133 -1 x_r2_g132 >= -1 ;
1 p_r2_g139_h138_t1 -1 x_r2_g139 <= 0 ;
1 p_r2_g139_h138_t1 -1 x_r2_g138 <= 0 ;
1 p_r2_g139_h138_t1 -1 x_r2_g139 -1 x_r2_g138 >= -1 ;
1 p_r2_g146_h145_t1 -1 x_r2_g146 <= 0 ;
1 p_r2_g146_h145_t1 -1 x_r2_g145 <= 0 ;
1 p_r2_g146_h145_t1 -1 x_r2_g146 -1 x_r2_g145 >= -1 ;
1 p_r3_g53_h52_t1 -1 x_r3_g53 <= 0 ;
1 p_r3_g53_h52_t1 -1 x_r3_g52 <= 0 ;
1 p_r3_g53_h52_t1 -1 x_r3_g53 -1 x_r3_g52 >= -1 ;
1 p_r3_g54_h53_t1 -1 x_r3_g54 <= 0 ;
1 p_r3_g54_h53_t1 -1 x_r3_g53 <= 0 ;
1 p_r3_g54_h53_t1 -1 x_r3_g54 -1 x_r3_g53 >= -1 ;
1 p_r3_g55_h54_t1 -1 x_r3_g55 <= 0 ;
1 p_r3_g55_h54_t1 -1 x_r3_g54 <= 0 ;
1 p_r3_g55_h54_t1 -1 x_r3_g55 -1 x_r3_g54 >= -1 ;
1 p_r3_g56_h55_t1 -1 x_r3_g56 <= 0 ;
1 p_r3_g56_h55_t1 -1 x_r3_g55 <= 0 ;
1 p_r3_g56_h55_t1 -1 x_r3_g56 -1 x_r3_g55 >= -1 ;
1 p_r3_g78_h77_t1 -1 x_r3_g78 <= 0 ;
1 p_r3_g78_h77_t1 -1 x_r3_g77 <= 0 ;
1 p_r3_g78_h77_t1 -1 x_r3_g78 -1 x_r3_g77 >= -1 ;
1 p_r3_g83_h82_t1 -1 x_r3_g83 <= 0 ;
1 p_r3_g83_h82_t1 -1 x_r3_g82 <= 0 ;
1 p_r3_g83_h82_t1 -1 x_r3_g83 -1 x_r3_g82 >= -1 ;
1 p_r3_g84_h83_t1 -1 x_r3_g84 <= 0 ;
1 p_r3_g84_h83_t1 -1 x_r3_g83 <= 0 ;
1 p_r3_g84_h83_t1 -1 x_r3_g84 -1 x_r3_g83 >= -1 ;
1 p_r3_g108_h107_t1 -1 x_r3_g108 <= 0 ;
1 p_r3_g108_h107_t1 -1 x_r3_g107 <= 0 ;
1 p_r3_g108_h107_t1 -1 x_r3_g108 -1 x_r3_g107 >= -1 ;
1 p_r3_g122_h121_t1 -1 x_r3_g122 <= 0 ;
1 p_r3_g122_h121_t1 -1 x_r3_g121 <= 0 ;
1 p_r3_g122_h121_t1 -1 x_r3_g122 -1 x_r3_g121 >= -1 ;
1 p_r3_g133_h132_t1 -1 x_r3_g133 <= 0 ;
1 p_r3_g133_h132_t1 -1 x_r3_g132 <= 0 ;
1 p_r3_g133_h132_t1 -1 x_r3_g133 -1 x_r3_g132 >= -1 ;
1 p_r3_g150_h149_t1 -1 x_r3_g150 <= 0 ;
1 p_r3_g150_h149_t1 -1 x_r3_g149 <= 0 ;
1 p_r3_g150_h149_t1 -1 x_r3_g150 -1 x_r3_g149 >= -1 ;
1 d_1 -2 x_r0_g6 -2 x_r0_g13 -1 x_r0_g16 -2 x_r0_g35 -1 x_r0_g39 -1 x_r0_g41 -2 x_r0_g44 -1 x_r0_g46 -1 x_r0_g47 -1 x_r0_g49 -1 x_r0_g50 -1 x_r0_g54 -2 x_r0_g66 -2 x_r0_g99 -2 x_r0_g101 -1 x_r0_g117 -1 x_r0_g128 -1 x_r0_g132 -1 x_r0_g144 -2 x_r0_g150 -1 x_r0_g152 -2 x_r0_g156 -2 x_r1_g0 -1 x_r1_g16 -1 x_r1_g19 -1 x_r1_g27 -1 x_r1_g33 -1 x_r1_g36 -2 x_r1_g38 -1 x_r1_g43 -1 x_r1_g45 -1 x_r1_g58 -1 x_r1_g64 -1 x_r1_g71 -1 x_r1_g78 -1 x_r1_g82 -1 x_r1_g85 -2 x_r1_g89 -1 x_r1_g91 -1 x_r1_g94 -1 x_r1_g99 -1 x_r1_g101 -2 x_r1_g114 -1 x_r1_g116 -1 x_r1_g120 -1 x_r1_g128 -1 x_r1_g157 -1 x_r1_g164 -1 x_r2_g5 -1 x_r2_g17 -1 x_r2_g22 -2 x_r2_g29 -1 x_r2_g34 -1 x_r2_g42 -2 x_r2_g47 -1 x_r2_g63 -1 x_r2_g75 -1 x_r2_g85 -1 x_r2_g87 -1 x_r2_g93 -1 x_r2_g106 -1 x_r2_g111 -1 x_r2_g112 -2 x_r2_g114 -1 x_r2_g116 -1 x_r2_g119 -1 x_r2_g125 -2 x_r2_g127 -1 x_r2_g133 -1 x_r2_g138 -1 x_r2_g139 -1 x_r2_g141 -2 x_r2_g151 -1 x_r2_g161 -2 x_r3_g0 -1 x_r3_g4 -1 x_r3_g6 -1 x_r3_g12 -2 x_r3_g21 -2 x_r3_g29 -2 x_r3_g31 -1 x_r3_g61 -1 x_r3_g63 -1 x_r3_g66 -1 x_r3_g77 -1 x_r3_g80 -1 x_r3_g82 -1 x_r3_g97 -1 x_r3_g107 -1 x_r3_g112 -1 x_r3_g122 -1 x_r3_g125 -1 x_r3_g133 -1 x_r3_g136 -2 x_r3_g139 -2 x_r3_g141 -1 x_r3_g146 -1 x_r3_g149 -1 x_r3_g150 -1 p_r0_g40_h39_t1 -1 p_r0_g41_h40_t1 -1 p_r0_g47_h46_t1 -1 p_r0_g50_h49_t1 -1 p_r0_g74_h73_t1 -1 p_r0_g111_h110_t1 -1 p_r0_g112_h111_t1 -1 p_r0_g113_h112_t1 -1 p_r0_g117_h116_t1 -1 p_r0_g136_h135_t1 -1 p_r0_g137_h136_t1 -1 p_r1_g20_h19_t1 -1 p_r1_g28_h27_t1 -1 p_r1_g29_h28_t1 -1 p_r1_g36_h35_t1 -1 p_r1_g43_h42_t1 -1 p_r1_g46_h45_t1 -1 p_r1_g77_h76_t1 -1 p_r1_g78_h77_t1 -1 p_r1_g92_h91_t1 -1 p_r1_g99_h98_t1 -1 p_r1_g131_h130_t1 -1 p_r1_g132_h131_t1 -1 p_r2_g6_h5_t1 -1 p_r2_g7_h6_t1 -1 p_r2_g14_h13_t1 -1 p_r2_g35_h34_t1 -1 p_r2_g42_h41_t1 -1 p_r2_g76_h75_t1 -1 p_r2_g112_h111_t1 -1 p_r2_g119_h118_t1 -1 p_r2_g133_h132_t1 -1 p_r2_g139_h138_t1 -1 p_r2_g146_h145_t1 -1 p_r3_g53_h52_t1 -1 p_r3_g54_h53_t1 -1 p_r3_g55_h54_t1 -1 p_r3_g56_h55_t1 -1 p_r3_g78_h77_t1 -1 p_r3_g83_h82_t1 -1 p_r3_g84_h83_t1 -1 p_r3_g108_h107_t1 -1 p_r3_g122_h121_t1 -1 p_r3_g133_h132_t1 -1 p_r3_g150_h149_t1 = -59 ;
1 d_1 -1 u_1 <= 0 ;
-1 d_1 -1 u_1 <= 0 ;
1 u_1 -1 M <= 0 ;
1 u_1 <= 2 ;
1 p_r0_g25_h23_t2 -1 x_r0_g25 <= 0 ;
1 p_r0_g25_h23_t2 -1 x_r0_g23 <= 0 ;
1 p_r0_g25_h23_t2 -1 x_r0_g25 -1 x_r0_g23 >= -1 ;
1 p_r0_g41_h39_t2 -1 x_r0_g41 <= 0 ;
1 p_r0_g41_h39_t2 -1 x_r0_g39 <= 0 ;
1 p_r0_g41_h39_t2 -1 x_r0_g41 -1 x_r0_g39 >= -1 ;
1 p_r0_g46_h44_t2 -1 x_r0_g46 <= 0 ;
1 p_r0_g46_h44_t2 -1 x_r0_g44 <= 0 ;
1 p_r0_g46_h44_t2 -1 x_r0_g46 -1 x_r0_g44 >= -1 ;
1 p_r0_g49_h47_t2 -1 x_r0_g49 <= 0 ;
1 p_r0_g49_h47_t2 -1 x_r0_g47 <= 0 ;
1 p_r0_g49_h47_t2 -1 x_r0_g49 -1 x_r0_g47 >= -1 ;
1 p_r0_g101_h99_t2 -1 x_r0_g101 <= 0 ;
1 p_r0_g101_h99_t2 -1 x_r0_g99 <= 0 ;
1 p_r0_g101_h99_t2 -1 x_r0_g101 -1 x_r0_g99 >= -1 ;
1 p_r0_g112_h110_t2 -1 x_r0_g112 <= 0 ;
1 p_r0_g112_h110_t2 -1 x_r0_g110 <= 0 ;
1 p_r0_g112_h110_t2 -1 x_r0_g112 -1 x_r0_g110 >= -1 ;
1 p_r0_g113_h111_t2 -1 x_r0_g113 <= 0 ;
1 p_r0_g113_h111_t2 -1 x_r0_g111 <= 0 ;
1 p_r0_g113_h111_t2 -1 x_r0_g113 -1 x_r0_g111 >= -1 ;
1 p_r0_g137_h135_t2 -1 x_r0_g137 <= 0 ;
1 p_r0_g137_h135_t2 -1 x_r0_g135 <= 0 ;
1 p_r0_g137_h135_t2 -1 x_r0_g137 -1 x_r0_g135 >= -1 ;
1 p_r0_g139_h137_t2 -1 x_r0_g139 <= 0 ;
1 p_r0_g139_h137_t2 -1 x_r0_g137 <= 0 ;
1 p_r0_g139_h137_t2 -1 x_r0_g139 -1 x_r0_g137 >= -1 ;
1 p_r0_g152_h150_t2 -1 x_r0_g152 <= 0 ;
1 p_r0_g152_h150_t2 -1 x_r0_g150 <= 0 ;
1 p_r0_g152_h150_t2 -1 x_r0_g152 -1 x_r0_g150 >= -1 ;
1 p_r1_g29_h27_t2 -1 x_r1_g29 <= 0 ;
1 p_r1_g29_h27_t2 -1 x_r1_g27 <= 0 ;
1 p_r1_g29_h27_t2 -1 x_r1_g29 -1 x_r1_g27 >= -1 ;
1 p_r1_g35_h33_t2 -1 x_r1_g35 <= 0 ;
1 p_r1_g35_h33_t2 -1 x_r1_g33 <= 0 ;
1 p_r1_g35_h33_t2 -1 x_r1_g35 -1 x_r1_g33 >= -1 ;
1 p_r1_g38_h36_t2 -1 x_r1_g38 <= 0 ;
1 p_r1_g38_h36_t2 -1 x_r1_g36 <= 0 ;
1 p_r1_g38_h36_t2 -1 x_r1_g38 -1 x_r1_g36 >= -1 ;
1 p_r1_g45_h43_t2 -1 x_r1_g45 <= 0 ;
1 p_r1_g45_h43_t2 -1 x_r1_g43 <= 0 ;
1 p_r1_g45_h43_t2 -1 x_r1_g45 -1 x_r1_g43 >= -1 ;
1 p_r1_g78_h76_t2 -1 x_r1_g78 <= 0 ;
1 p_r1_g78_h76_t2 -1 x_r1_g76 <= 0 ;
1 p_r1_g78_h76_t2 -1 x_r1_g78 -1 x_r1_g76 >= -1 ;
1 p_r1_g91_h89_t2 -1 x_r1_g91 <= 0 ;
1 p_r1_g91_h89_t2 -1 x_r1_g89 <= 0 ;
1 p_r1_g91_h89_t2 -1 x_r1_g91 -1 x_r1_g89 >= -1 ;
1 p_r1_g94_h92_t2 -1 x_r1_g94 <= 0 ;
1 p_r1_g94_h92_t2 -1 x_r1_g92 <= 0 ;
1 p_r1_g94_h92_t2 -1 x_r1_g94 -1 x_r1_g92 >= -1 ;
1 p_r1_g101_h99_t2 -1 x_r1_g101 <= 0 ;
1 p_r1_g101_h99_t2 -1 x_r1_g99 <= 0 ;
1 p_r1_g101_h99_t2 -1 x_r1_g101 -1 x_r1_g99 >= -1 ;
1 p_r1_g116_h114_t2 -1 x_r1_g116 <= 0 ;
1 p_r1_g116_h114_t2 -1 x_r1_g114 <= 0 ;
1 p_r1_g116_h114_t2 -1 x_r1_g116 -1 x_r1_g114 >= -1 ;
1 p_r1_g130_h128_t2 -1 x_r1_g130 <= 0 ;
1 p_r1_g130_h128_t2 -1 x_r1_g128 <= 0 ;
1 p_r1_g130_h128_t2 -1 x_r1_g130 -1 x_r1_g128 >= -1 ;
1 p_r1_g132_h130_t2 -1 x_r1_g132 <= 0 ;
1 p_r1_g132_h130_t2 -1 x_r1_g130 <= 0 ;
1 p_r1_g132_h130_t2 -1 x_r1_g132 -1 x_r1_g130 >= -1 ;
1 p_r2_g7_h5_t2 -1 x_r2_g7 <= 0 ;
1 p_r2_g7_h5_t2 -1 x_r2_g5 <= 0 ;
1 p_r2_g7_h5_t2 -1 x_r2_g7 -1 x_r2_g5 >= -1 ;
1 p_r2_g87_h85_t2 -1 x_r2_g87 <= 0 ;
1 p_r2_g87_h85_t2 -1 x_r2_g85 <= 0 ;
1 p_r2_g87_h85_t2 -1 x_r2_g87 -1 x_r2_g85 >= -1 ;
1 p_r2_g114_h112_t2 -1 x_r2_g114 <= 0 ;
1 p_r2_g114_h112_t2 -1 x_r2_g112 <= 0 ;
1 p_r2_g114_h112_t2 -1 x_r2_g114 -1 x_r2_g112 >= -1 ;
1 p_r2_g116_h114_t2 -1 x_r2_g116 <= 0 ;
1 p_r2_g116_h114_t2 -1 x_r2_g114 <= 0 ;
1 p_r2_g116_h114_t2 -1 x_r2_g116 -1 x_r2_g114 >= -1 ;
1 p_r2_g118_h116_t2 -1 x_r2_g118 <= 0 ;
1 p_r2_g118_h116_t2 -1 x_r2_g116 <= 0 ;
1 p_r2_g118_h116_t2 -1 x_r2_g118 -1 x_r2_g116 >= -1 ;
1 p_r2_g127_h125_t2 -1 x_r2_g127 <= 0 ;
1 p_r2_g127_h125_t2 -1 x_r2_g125 <= 0 ;
1 p_r2_g127_h125_t2 -1 x_r2_g127 -1 x_r2_g125 >= -1 ;
1 p_r2_g141_h139_t2 -1 x_r2_g141 <= 0 ;
1 p_r2_g141_h139_t2 -1 x_r2_g139 <= 0 ;
1 p_r2_g141_h139_t2 -1 x_r2_g141 -1 x_r2_g139 >= -1 ;
1 p_r3_g6_h4_t2 -1 x_r3_g6 <= 0 ;
1 p_r3_g6_h4_t2 -1 x_r3_g4 <= 0 ;
1 p_r3_g6_h4_t2 -1 x_r3_g6 -1 x_r3_g4 >= -1 ;
1 p_r3_g31_h29_t2 -1 x_r3_g31 <= 0 ;
1 p_r3_g31_h29_t2 -1 x_r3_g29 <= 0 ;
1 p_r3_g31_h29_t2 -1 x_r3_g31 -1 x_r3_g29 >= -1 ;
1 p_r3_g54_h52_t2 -1 x_r3_g54 <= 0 ;
1 p_r3_g54_h52_t2 -1 x_r3_g52 <= 0 ;
1 p_r3_g54_h52_t2 -1 x_r3_g54 -1 x_r3_g52 >= -1 ;
1 p_r3_g55_h53_t2 -1 x_r3_g55 <= 0 ;
1 p_r3_g55_h53_t2 -1 x_r3_g53 <= 0 ;
1 p_r3_g55_h53_t2 -1 x_r3_g55 -1 x_r3_g53 >= -1 ;
1 p_r3_g56_h54_t2 -1 x_r3_g56 <= 0 ;
1 p_r3_g56_h54_t2 -1 x_r3_g54 <= 0 ;
1 p_r3_g56_h54_t2 -1 x_r3_g56 -1 x_r3_g54 >= -1 ;
1 p_r3_g63_h61_t2 -1 x_r3_g63 <= 0 ;
1 p_r3_g63_h61_t2 -1 x_r3_g61 <= 0 ;
1 p_r3_g63_h61_t2 -1 x_r3_g63 -1 x_r3_g61 >= -1 ;
1 p_r3_g68_h66_t2 -1 x_r3_g68 <= 0 ;
1 p_r3_g68_h66_t2 -1 x_r3_g66 <= 0 ;
1 p_r3_g68_h66_t2 -1 x_r3_g68 -1 x_r3_g66 >= -1 ;
1 p_r3_g80_h78_t2 -1 x_r3_g80 <= 0 ;
1 p_r3_g80_h78_t2 -1 x_r3_g78 <= 0 ;
1 p_r3_g80_h78_t2 -1 x_r3_g80 -1 x_r3_g78 >= -1 ;
1 p_r3_g82_h80_t2 -1 x_r3_g82 <= 0 ;
1 p_r3_g82_h80_t2 -1 x_r3_g80 <= 0 ;
1 p_r3_g82_h80_t2 -1 x_r3_g82 -1 x_r3_g80 >= -1 ;
1 p_r3_g84_h82_t2 -1 x_r3_g84 <= 0 ;
1 p_r3_g84_h82_t2 -1 x_r3_g82 <= 0 ;
1 p_r3_g84_h82_t2 -1 x_r3_g84 -1 x_r3_g82 >= -1 ;
1 p_r3_g141_h139_t2 -1 x_r3_g141 <= 0 ;
1 p_r3_g141_h139_t2 -1 x_r3_g139 <= 0 ;
1 p_r3_g141_h139_t2 -1 x_r3_g141 -1 x_r3_g139 >= -1 ;
1 d_2 -2 x_r0_g13 -1 x_r0_g16 -1 x_r0_g35 -1 x_r0_g39 -2 x_r0_g40 -1 x_r0_g41 -1 x_r0_g44 -1 x_r0_g46 -1 x_r0_g47 -1 x_r0_g49 -2 x_r0_g50 -1 x_r0_g54 -1 x_r0_g66 -1 x_r0_g88 -1 x_r0_g101 -1 x_r0_g116 -1 x_r0_g117 -1 x_r0_g128 -2 x_r0_g144 -1 x_r0_g156 -1 x_r0_g163 -1 x_r1_g16 -1 x_r1_g20 -1 x_r1_g28 -1 x_r1_g29 -1 x_r1_g33 -1 x_r1_g35 -1 x_r1_g38 -2 x_r1_g42 -1 x_r1_g46 -1 x_r1_g58 -2 x_r1_g64 -1 x_r1_g71 -1 x_r1_g77 -1 x_r1_g78 -2 x_r1_g82 -1 x_r1_g85 -1 x_r1_g89 -1 x_r1_g92 -1 x_r1_g94 -2 x_r1_g98 -1 x_r1_g101 -1 x_r1_g114 -2 x_r1_g157 -1 x_r1_g164 -1 x_r2_g6 -1 x_r2_g22 -2 x_r2_g29 -1 x_r2_g35 -2 x_r2_g41 -1 x_r2_g47 -1 x_r2_g51 -1 x_r2_g56 -2 x_r2_g63 -2 x_r2_g76 -2 x_r2_g80 -1 x_r2_g85 -1 x_r2_g106 -1 x_r2_g111 -1 x_r2_g112 -1 x_r2_g118 -1 x_r2_g119 -1 x_r2_g127 -2 x_r2_g132 -2 x_r2_g138 -1 x_r2_g139 -1 x_r2_g146 -1 x_r2_g151 -1 x_r2_g161 -1 x_r3_g0 -1 x_r3_g4 -1 x_r3_g6 -1 x_r3_g21 -1 x_r3_g29 -1 x_r3_g61 -1 x_r3_g63 -1 x_r3_g77 -1 x_r3_g78 -1 x_r3_g83 -1 x_r3_g84 -1 x_r3_g97 -2 x_r3_g108 -1 x_r3_g112 -2 x_r3_g121 -1 x_r3_g122 -2 x_r3_g125 -1 x_r3_g132 -2 x_r3_g136 -1 x_r3_g139 -1 x_r3_g141 -2 x_r3_g146 -1 x_r3_g149 -1 x_r3_g150 -1 x_r3_g160 -1 p_r0_g25_h23_t2 -1 p_r0_g41_h39_t2 -1 p_r0_g46_h44_t2 -1 p_r0_g49_h47_t2 -1 p_r0_g101_h99_t2 -1 p_r0_g112_h110_t2 -1 p_r0_g113_h111_t2 -1 p_r0_g137_h135_t2 -1 p_r0_g139_h137_t2 -1 p_r0_g152_h150_t2 -1 p_r1_g29_h27_t2 -1 p_r1_g35_h33_t2 -1 p_r1_g38_h36_t2 -1 p_r1_g45_h43_t2 -1 p_r1_g78_h76_t2 -1 p_r1_g91_h89_t2 -1 p_r1_g94_h92_t2 -1 p_r1_g101_h99_t2 -1 p_r1_g116_h114_t2 -1 p_r1_g130_h128_t2 -1 p_r1_g132_h130_t2 -1 p_r2_g7_h5_t2 -1 p_r2_g87_h85_t2 -1 p_r2_g114_h112_t2 -1 p_r2_g116_h114_t2 -1 p_r2_g118_h116_t2 -1 p_r2_g127_h125_t2 -1 p_r2_g141_h139_t2 -1 p_r3_g6_h4_t2 -1 p_r3_g31_h29_t2 -1 p_r3_g54_h52_t2 -1 p_r3_g55_h53_t2 -1 p_r3_g56_h54_t2 -1 p_r3_g63_h61_t2 -1 p_r3_g68_h66_t2 -1 p_r3_g80_h78_t2 -1 p_r3_g82_h80_t2 -1 p_r3_g84_h82_t2 -1 p_r3_g141_h139_t2 = -75 ;
1 d_2 -1 u_2 <= 0 ;
-1 d_2 -1 u_2 <= 0 ;
1 u_2 -1 M <= 0 ;
1 u_2 <= 1 ;
1 p_r0_g16_h13_t3 -1 x_r0_g16 <= 0 ;
1 p_r0_g16_h13_t3 -1 x_r0_g13 <= 0 ;
1 p_r0_g16_h13_t3 -1 x_r0_g16 -1 x_r0_g13 >= -1 ;
1 p_r0_g44_h41_t3 -1 x_r0_g44 <= 0 ;
1 p_r0_g44_h41_t3 -1 x_r0_g41 <= 0 ;
1 p_r0_g44_h41_t3 -1 x_r0_g44 -1 x_r0_g41 >= -1 ;
1 p_r0_g47_h44_t3 -1 x_r0_g47 <= 0 ;
1 p_r0_g47_h44_t3 -1 x_r0_g44 <= 0 ;
1 p_r0_g47_h44_t3 -1 x_r0_g47 -1 x_r0_g44 >= -1 ;
1 p_r0_g49_h46_t3 -1 x_r0_g49 <= 0 ;
1 p_r0_g49_h46_t3 -1 x_r0_g46 <= 0 ;
1 p_r0_g49_h46_t3 -1 x_r0_g49 -1 x_r0_g46 >= -1 ;
1 p_r0_g50_h47_t3 -1 x_r0_g50 <= 0 ;
1 p_r0_g50_h47_t3 -1 x_r0_g47 <= 0 ;
1 p_r0_g50_h47_t3 -1 x_r0_g50 -1 x_r0_g47 >= -1 ;
1 p_r0_g77_h74_t3 -1 x_r0_g77 <= 0 ;
1 p_r0_g77_h74_t3 -1 x_r0_g74 <= 0 ;
1 p_r0_g77_h74_t3 -1 x_r0_g77 -1 x_r0_g74 >= -1 ;
1 p_r0_g113_h110_t3 -1 x_r0_g113 <= 0 ;
1 p_r0_g113_h110_t3 -1 x_r0_g110 <= 0 ;
1 p_r0_g113_h110_t3 -1 x_r0_g113 -1 x_r0_g110 >= -1 ;
1 p_r0_g116_h113_t3 -1 x_r0_g116 <= 0 ;
1 p_r0_g116_h113_t3 -1 x_r0_g113 <= 0 ;
1 p_r0_g116_h113_t3 -1 x_r0_g116 -1 x_r0_g113 >= -1 ;
1 p_r0_g135_h132_t3 -1 x_r0_g135 <= 0 ;
1 p_r0_g135_h132_t3 -1 x_r0_g132 <= 0 ;
1 p_r0_g135_h132_t3 -1 x_r0_g135 -1 x_r0_g132 >= -1 ;
1 p_r0_g139_h136_t3 -1 x_r0_g139 <= 0 ;
1 p_r0_g139_h136_t3 -1 x_r0_g136 <= 0 ;
1 p_r0_g139_h136_t3 -1 x_r0_g139 -1 x_r0_g136 >= -1 ;
1 p_r1_g0_h164_t3 -1 x_r1_g0 <= 0 ;
1 p_r1_g0_h164_t3 -1 x_r1_g164 <= 0 ;
1 p_r1_g0_h164_t3 -1 x_r1_g0 -1 x_r1_g164 >= -1 ;
1 p_r1_g19_h16_t3 -1 x_r1_g19 <= 0 ;
1 p_r1_g19_h16_t3 -1 x_r1_g16 <= 0 ;
1 p_r1_g19_h16_t3 -1 x_r1_g19 -1 x_r1_g16 >= -1 ;
1 p_r1_g36_h33_t3 -1 x_r1_g36 <= 0 ;
1 p_r1_g36_h33_t3 -1 x_r1_g33 <= 0 ;
1 p_r1_g36_h33_t3 -1 x_r1_g36 -1 x_r1_g33 >= -1 ;
1 p_r1_g38_h35_t3 -1 x_r1_g38 <= 0 ;
1 p_r1_g38_h35_t3 -1 x_r1_g35 <= 0 ;
1 p_r1_g38_h35_t3 -1 x_r1_g38 -1 x_r1_g35 >= -1 ;
1 p_r1_g45_h42_t3 -1 x_r1_g45 <= 0 ;
1 p_r1_g45_h42_t3 -1 x_r1_g42 <= 0 ;
1 p_r1_g45_h42_t3 -1 x_r1_g45 -1 x_r1_g42 >= -1 ;
1 p_r1_g46_h43_t3 -1 x_r1_g46 <= 0 ;
1 p_r1_g46_h43_t3 -1 x_r1_g43 <= 0 ;
1 p_r1_g46_h43_t3 -1 x_r1_g46 -1 x_r1_g43 >= -1 ;
1 p_r1_g85_h82_t3 -1 x_r1_g85 <= 0 ;
1 p_r1_g85_h82_t3 -1 x_r1_g82 <= 0 ;
1 p_r1_g85_h82_t3 -1 x_r1_g85 -1 x_r1_g82 >= -1 ;
1 p_r1_g92_h89_t3 -1 x_r1_g92 <= 0 ;
1 p_r1_g92_h89_t3 -1 x_r1_g89 <= 0 ;
1 p_r1_g92_h89_t3 -1 x_r1_g92 -1 x_r1_g89 >= -1 ;
1 p_r1_g94_h91_t3 -1 x_r1_g94 <= 0 ;
1 p_r1_g94_h91_t3 -1 x_r1_g91 <= 0 ;
1 p_r1_g94_h91_t3 -1 x_r1_g94 -1 x_r1_g91 >= -1 ;
1 p_r1_g101_h98_t3 -1 x_r1_g101 <= 0 ;
1 p_r1_g101_h98_t3 -1 x_r1_g98 <= 0 ;
1 p_r1_g101_h98_t3 -1 x_r1_g101 -1 x_r1_g98 >= -1 ;
1 p_r1_g131_h128_t3 -1 x_r1_g131 <= 0 ;
1 p_r1_g131_h128_t3 -1 x_r1_g128 <= 0 ;
1 p_r1_g131_h128_t3 -1 x_r1_g131 -1 x_r1_g128 >= -1 ;
1 p_r1_g135_h132_t3 -1 x_r1_g135 <= 0 ;
1 p_r1_g135_h132_t3 -1 x_r1_g132 <= 0 ;
1 p_r1_g135_h132_t3 -1 x_r1_g135 -1 x_r1_g132 >= -1 ;
1 p_r2_g17_h14_t3 -1 x_r2_g17 <= 0 ;
1 p_r2_g17_h14_t3 -1 x_r2_g14 <= 0 ;
1 p_r2_g17_h14_t3 -1 x_r2_g17 -1 x_r2_g14 >= -1 ;
1 p_r2_g114_h111_t3 -1 x_r2_g114 <= 0 ;
1 p_r2_g114_h111_t3 -1 x_r2_g111 <= 0 ;
1 p_r2_g114_h111_t3 -1 x_r2_g114 -1 x_r2_g111 >= -1 ;
1 p_r2_g119_h116_t3 -1 x_r2_g119 <= 0 ;
1 p_r2_g119_h116_t3 -1 x_r2_g116 <= 0 ;
1 p_r2_g119_h116_t3 -1 x_r2_g119 -1 x_r2_g116 >= -1 ;
1 p_r2_g141_h138_t3 -1 x_r2_g141 <= 0 ;
1 p_r2_g141_h138_t3 -1 x_r2_g138 <= 0 ;
1 p_r2_g141_h138_t3 -1 x_r2_g141 -1 x_r2_g138 >= -1 ;
1 p_r3_g55_h52_t3 -1 x_r3_g55 <= 0 ;
1 p_r3_g55_h52_t3 -1 x_r3_g52 <= 0 ;
1 p_r3_g55_h52_t3 -1 x_r3_g55 -1 x_r3_g52 >= -1 ;
1 p_r3_g56_h53_t3 -1 x_r3_g56 <= 0 ;
1 p_r3_g56_h53_t3 -1 x_r3_g53 <= 0 ;
1 p_r3_g56_h53_t3 -1 x_r3_g56 -1 x_r3_g53 >= -1 ;
1 p_r3_g66_h63_t3 -1 x_r3_g66 <= 0 ;
1 p_r3_g66_h63_t3 -1 x_r3_g63 <= 0 ;
1 p_r3_g66_h63_t3 -1 x_r3_g66 -1 x_r3_g63 >= -1 ;
1 p_r3_g80_h77_t3 -1 x_r3_g80 <= 0 ;
1 p_r3_g80_h77_t3 -1 x_r3_g77 <= 0 ;
1 p_r3_g80_h77_t3 -1 x_r3_g80 -1 x_r3_g77 >= -1 ;
1 p_r3_g83_h80_t3 -1 x_r3_g83 <= 0 ;
1 p_r3_g83_h80_t3 -1 x_r3_g80 <= 0 ;
1 p_r3_g83_h80_t3 -1 x_r3_g83 -1 x_r3_g80 >= -1 ;
1 p_r3_g115_h112_t3 -1 x_r3_g115 <= 0 ;
1 p_r3_g115_h112_t3 -1 x_r3_g112 <= 0 ;
1 p_r3_g115_h112_t3 -1 x_r3_g115 -1 x_r3_g112 >= -1 ;
1 p_r3_g125_h122_t3 -1 x_r3_g125 <= 0 ;
1 p_r3_g125_h122_t3 -1 x_r3_g122 <= 0 ;
1 p_r3_g125_h122_t3 -1 x_r3_g125 -1 x_r3_g122 >= -1 ;
1 p_r3_g136_h133_t3 -1 x_r3_g136 <= 0 ;
1 p_r3_g136_h133_t3 -1 x_r3_g133 <= 0 ;
1 p_r3_g136_h133_t3 -1 x_r3_g136 -1 x_r3_g133 >= -1 ;
1 p_r3_g139_h136_t3 -1 x_r3_g139 <= 0 ;
1 p_r3_g139_h136_t3 -1 x_r3_g136 <= 0 ;
1 p_r3_g139_h136_t3 -1 x_r3_g139 -1 x_r3_g136 >= -1 ;
1 p_r3_g149_h146_t3 -1 x_r3_g149 <= 0 ;
1 p_r3_g149_h146_t3 -1 x_r3_g146 <= 0 ;
1 p_r3_g149_h146_t3 -1 x_r3_g149 -1 x_r3_g146 >= -1 ;
1 d_3 -1 x_r0_g6 -1 x_r0_g16 -1 x_r0_g23 -1 x_r0_g35 -2 x_r0_g39 -2 x_r0_g40 -1 x_r0_g41 -1 x_r0_g46 -1 x_r0_g49 -1 x_r0_g54 -1 x_r0_g66 -1 x_r0_g73 -1 x_r0_g95 -1 x_r0_g99 -1 x_r0_g101 -1 x_r0_g116 -1 x_r0_g117 -2 x_r0_g128 -1 x_r0_g139 -2 x_r0_g152 -1 x_r0_g156 -1 x_r0_g163 -1 x_r1_g0 -1 x_r1_g28 -2 x_r1_g29 -1 x_r1_g35 -1 x_r1_g36 -1 x_r1_g42 -1 x_r1_g43 -1 x_r1_g46 -1 x_r1_g71 -1 x_r1_g76 -1 x_r1_g77 -1 x_r1_g78 -1 x_r1_g82 -1 x_r1_g85 -1 x_r1_g91 -1 x_r1_g92 -1 x_r1_g98 -1 x_r1_g99 -2 x_r1_g116 -1 x_r1_g120 -1 x_r1_g130 -1 x_r1_g135 -2 x_r1_g157 -1 x_r2_g7 -1 x_r2_g17 -1 x_r2_g22 -1 x_r2_g29 -1 x_r2_g34 -1 x_r2_g42 -1 x_r2_g51 -1 x_r2_g63 -1 x_r2_g75 -1 x_r2_g80 -1 x_r2_g85 -1 x_r2_g87 -1 x_r2_g93 -1 x_r2_g112 -1 x_r2_g116 -2 x_r2_g118 -1 x_r2_g119 -2 x_r2_g125 -1 x_r2_g127 -1 x_r2_g132 -2 x_r2_g133 -1 x_r2_g139 -1 x_r2_g145 -1 x_r2_g151 -1 x_r2_g161 -1 x_r3_g4 -1 x_r3_g6 -1 x_r3_g12 -1 x_r3_g21 -2 x_r3_g29 -1 x_r3_g31 -1 x_r3_g52 -1 x_r3_g56 -1 x_r3_g68 -1 x_r3_g77 -2 x_r3_g78 -1 x_r3_g83 -1 x_r3_g84 -1 x_r3_g89 -1 x_r3_g97 -1 x_r3_g107 -1 x_r3_g108 -1 x_r3_g115 -2 x_r3_g121 -1 x_r3_g122 -1 x_r3_g125 -1 x_r3_g132 -1 x_r3_g139 -2 x_r3_g141 -1 x_r3_g146 -1 x_r3_g160 -1 p_r0_g16_h13_t3 -1 p_r0_g44_h41_t3 -1 p_r0_g47_h44_t3 -1 p_r0_g49_h46_t3 -1 p_r0_g50_h47_t3 -1 p_r0_g77_h74_t3 -1 p_r0_g113_h110_t3 -1 p_r0_g116_h113_t3 -1 p_r0_g135_h132_t3 -1 p_r0_g139_h136_t3 -1 p_r1_g0_h164_t3 -1 p_r1_g19_h16_t3 -1 p_r1_g36_h33_t3 -1 p_r1_g38_h35_t3 -1 p_r1_g45_h42_t3 -1 p_r1_g46_h43_t3 -1 p_r1_g85_h82_t3 -1 p_r1_g92_h89_t3 -1 p_r1_g94_h91_t3 -1 p_r1_g101_h98_t3 -1 p_r1_g131_h128_t3 -1 p_r1_g135_h132_t3 -1 p_r2_g17_h14_t3 -1 p_r2_g114_h111_t3 -1 p_r2_g119_h116_t3 -1 p_r2_g141_h138_t3 -1 p_r3_g55_h52_t3 -1 p_r3_g56_h53_t3 -1 p_r3_g66_h63_t3 -1 p_r3_g80_h77_t3 -1 p_r3_g83_h80_t3 -1 p_r3_g115_h112_t3 -1 p_r3_g125_h122_t3 -1 p_r3_g136_h133_t3 -1 p_r3_g139_h136_t3 -1 p_r3_g149_h146_t3 = -59 ;
1 d_3 -1 u_3 <= 0 ;
-1 d_3 -1 u_3 <= 0 ;
1 u_3 -1 M <= 0 ;
1 u_3 <= 1 ;
1 p_r0_g39_h35_t4 -1 x_r0_g39 <= 0 ;
1 p_r0_g39_h35_t4 -1 x_r0_g35 <= 0 ;
1 p_r0_g39_h35_t4 -1 x_r0_g39 -1 x_r0_g35 >= -1 ;
1 p_r0_g44_h40_t4 -1 x_r0_g44 <= 0 ;
1 p_r0_g44_h40_t4 -1 x_r0_g40 <= 0 ;
1 p_r0_g44_h40_t4 -1 x_r0_g44 -1 x_r0_g40 >= -1 ;
1 p_r0_g50_h46_t4 -1 x_r0_g50 <= 0 ;
1 p_r0_g50_h46_t4 -1 x_r0_g46 <= 0 ;
1 p_r0_g50_h46_t4 -1 x_r0_g50 -1 x_r0_g46 >= -1 ;
1 p_r0_g54_h50_t4 -1 x_r0_g54 <= 0 ;
1 p_r0_g54_h50_t4 -1 x_r0_g50 <= 0 ;
1 p_r0_g54_h50_t4 -1 x_r0_g54 -1 x_r0_g50 >= -1 ;
1 p_r0_g77_h73_t4 -1 x_r0_g77 <= 0 ;
1 p_r0_g77_h73_t4 -1 x_r0_g73 <= 0 ;
1 p_r0_g77_h73_t4 -1 x_r0_g77 -1 x_r0_g73 >= -1 ;
1 p_r0_g99_h95_t4 -1 x_r0_g99 <= 0 ;
1 p_r0_g99_h95_t4 -1 x_r0_g95 <= 0 ;
1 p_r0_g99_h95_t4 -1 x_r0_g99 -1 x_r0_g95 >= -1 ;
1 p_r0_g116_h112_t4 -1 x_r0_g116 <= 0 ;
1 p_r0_g116_h112_t4 -1 x_r0_g112 <= 0 ;
1 p_r0_g116_h112_t4 -1 x_r0_g116 -1 x_r0_g112 >= -1 ;
1 p_r0_g117_h113_t4 -1 x_r0_g117 <= 0 ;
1 p_r0_g117_h113_t4 -1 x_r0_g113 <= 0 ;
1 p_r0_g117_h113_t4 -1 x_r0_g117 -1 x_r0_g113 >= -1 ;
1 p_r0_g132_h128_t4 -1 x_r0_g132 <= 0 ;
1 p_r0_g132_h128_t4 -1 x_r0_g128 <= 0 ;
1 p_r0_g132_h128_t4 -1 x_r0_g132 -1 x_r0_g128 >= -1 ;
1 p_r0_g136_h132_t4 -1 x_r0_g136 <= 0 ;
1 p_r0_g136_h132_t4 -1 x_r0_g132 <= 0 ;
1 p_r0_g136_h132_t4 -1 x_r0_g136 -1 x_r0_g132 >= -1 ;
1 p_r0_g139_h135_t4 -1 x_r0_g139 <= 0 ;
1 p_r0_g139_h135_t4 -1 x_r0_g135 <= 0 ;
1 p_r0_g139_h135_t4 -1 x_r0_g139 -1 x_r0_g135 >= -1 ;
1 p_r0_g156_h152_t4 -1 x_r0_g156 <= 0 ;
1 p_r0_g156_h152_t4 -1 x_r0_g152 <= 0 ;
1 p_r0_g156_h152_t4 -1 x_r0_g156 -1 x_r0_g152 >= -1 ;
1 p_r1_g20_h16_t4 -1 x_r1_g20 <= 0 ;
1 p_r1_g20_h16_t4 -1 x_r1_g16 <= 0 ;
1 p_r1_g20_h16_t4 -1 x_r1_g20 -1 x_r1_g16 >= -1 ;
1 p_r1_g33_h29_t4 -1 x_r1_g33 <= 0 ;
1 p_r1_g33_h29_t4 -1 x_r1_g29 <= 0 ;
1 p_r1_g33_h29_t4 -1 x_r1_g33 -1 x_r1_g29 >= -1 ;
1 p_r1_g42_h38_t4 -1 x_r1_g42 <= 0 ;
1 p_r1_g42_h38_t4 -1 x_r1_g38 <= 0 ;
1 p_r1_g42_h38_t4 -1 x_r1_g42 -1 x_r1_g38 >= -1 ;
1 p_r1_g46_h42_t4 -1 x_r1_g46 <= 0 ;
1 p_r1_g46_h42_t4 -1 x_r1_g42 <= 0 ;
1 p_r1_g46_h42_t4 -1 x_r1_g46 -1 x_r1_g42 >= -1 ;
1 p_r1_g82_h78_t4 -1 x_r1_g82 <= 0 ;
1 p_r1_g82_h78_t4 -1 x_r1_g78 <= 0 ;
1 p_r1_g82_h78_t4 -1 x_r1_g82 -1 x_r1_g78 >= -1 ;
1 p_r1_g89_h85_t4 -1 x_r1_g89 <= 0 ;
1 p_r1_g89_h85_t4 -1 x_r1_g85 <= 0 ;
1 p_r1_g89_h85_t4 -1 x_r1_g89 -1 x_r1_g85 >= -1 ;
1 p_r1_g98_h94_t4 -1 x_r1_g98 <= 0 ;
1 p_r1_g98_h94_t4 -1 x_r1_g94 <= 0 ;
1 p_r1_g98_h94_t4 -1 x_r1_g98 -1 x_r1_g94 >= -1 ;
1 p_r1_g120_h116_t4 -1 x_r1_g120 <= 0 ;
1 p_r1_g120_h116_t4 -1 x_r1_g116 <= 0 ;
1 p_r1_g120_h116_t4 -1 x_r1_g120 -1 x_r1_g116 >= -1 ;
1 p_r1_g132_h128_t4 -1 x_r1_g132 <= 0 ;
1 p_r1_g132_h128_t4 -1 x_r1_g128 <= 0 ;
1 p_r1_g132_h128_t4 -1 x_r1_g132 -1 x_r1_g128 >= -1 ;
1 p_r1_g135_h131_t4 -1 x_r1_g135 <= 0 ;
1 p_r1_g135_h131_t4 -1 x_r1_g131 <= 0 ;
1 p_r1_g135_h131_t4 -1 x_r1_g135 -1 x_r1_g131 >= -1 ;
1 p_r2_g17_h13_t4 -1 x_r2_g17 <= 0 ;
1 p_r2_g17_h13_t4 -1 x_r2_g13 <= 0 ;
1 p_r2_g17_h13_t4 -1 x_r2_g17 -1 x_r2_g13 >= -1 ;
1 p_r2_g51_h47_t4 -1 x_r2_g51 <= 0 ;
1 p_r2_g51_h47_t4 -1 x_r2_g47 <= 0 ;
1 p_r2_g51_h47_t4 -1 x_r2_g51 -1 x_r2_g47 >= -1 ;
1 p_r2_g80_h76_t4 -1 x_r2_g80 <= 0 ;
1 p_r2_g80_h76_t4 -1 x_r2_g76 <= 0 ;
1 p_r2_g80_h76_t4 -1 x_r2_g80 -1 x_r2_g76 >= -1 ;
1 p_r2_g116_h112_t4 -1 x_r2_g116 <= 0 ;
1 p_r2_g116_h112_t4 -1 x_r2_g112 <= 0 ;
1 p_r2_g116_h112_t4 -1 x_r2_g116 -1 x_r2_g112 >= -1 ;
1 p_r2_g118_h114_t4 -1 x_r2_g118 <= 0 ;
1 p_r2_g118_h114_t4 -1 x_r2_g114 <= 0 ;
1 p_r2_g118_h114_t4 -1 x_r2_g118 -1 x_r2_g114 >= -1 ;
1 p_r2_g145_h141_t4 -1 x_r2_g145 <= 0 ;
1 p_r2_g145_h141_t4 -1 x_r2_g141 <= 0 ;
1 p_r2_g145_h141_t4 -1 x_r2_g145 -1 x_r2_g141 >= -1 ;
1 p_r3_g4_h0_t4 -1 x_r3_g4 <= 0 ;
1 p_r3_g4_h0_t4 -1 x_r3_g0 <= 0 ;
1 p_r3_g4_h0_t4 -1 x_r3_g4 -1 x_r3_g0 >= -1 ;
1 p_r3_g56_h52_t4 -1 x_r3_g56 <= 0 ;
1 p_r3_g56_h52_t4 -1 x_r3_g52 <= 0 ;
1 p_r3_g56_h52_t4 -1 x_r3_g56 -1 x_r3_g52 >= -1 ;
1 p_r3_g82_h78_t4 -1 x_r3_g82 <= 0 ;
1 p_r3_g82_h78_t4 -1 x_r3_g78 <= 0 ;
1 p_r3_g82_h78_t4 -1 x_r3_g82 -1 x_r3_g78 >= -1 ;
1 p_r3_g84_h80_t4 -1 x_r3_g84 <= 0 ;
1 p_r3_g84_h80_t4 -1 x_r3_g80 <= 0 ;
1 p_r3_g84_h80_t4 -1 x_r3_g84 -1 x_r3_g80 >= -1 ;
1 p_r3_g112_h108_t4 -1 x_r3_g112 <= 0 ;
1 p_r3_g112_h108_t4 -1 x_r3_g108 <= 0 ;
1 p_r3_g112_h108_t4 -1 x_r3_g112 -1 x_r3_g108 >= -1 ;
1 p_r3_g125_h121_t4 -1 x_r3_g125 <= 0 ;
1 p_r3_g125_h121_t4 -1 x_r3_g121 <= 0 ;
1 p_r3_g125_h121_t4 -1 x_r3_g125 -1 x_r3_g121 >= -1 ;
1 p_r3_g136_h132_t4 -1 x_r3_g136 <= 0 ;
1 p_r3_g136_h132_t4 -1 x_r3_g132 <= 0 ;
1 p_r3_g136_h132_t4 -1 x_r3_g136 -1 x_r3_g132 >= -1 ;
1 p_r3_g150_h146_t4 -1 x_r3_g150 <= 0 ;
1 p_r3_g150_h146_t4 -1 x_r3_g146 <= 0 ;
1 p_r3_g150_h146_t4 -1 x_r3_g150 -1 x_r3_g146 >= -1 ;
1 d_4 -2 x_r0_g16 -1 x_r0_g23 -1 x_r0_g39 -1 x_r0_g40 -2 x_r0_g41 -1 x_r0_g44 -1 x_r0_g46 -2 x_r0_g47 -1 x_r0_g49 -1 x_r0_g54 -2 x_r0_g66 -1 x_r0_g74 -1 x_r0_g99 -1 x_r0_g110 -1 x_r0_g116 -1 x_r0_g135 -1 x_r0_g139 -1 x_r0_g150 -1 x_r0_g156 -1 x_r0_g163 -1 x_r1_g0 -1 x_r1_g19 -1 x_r1_g27 -1 x_r1_g28 -1 x_r1_g33 -2 x_r1_g35 -2 x_r1_g36 -1 x_r1_g43 -1 x_r1_g45 -1 x_r1_g58 -1 x_r1_g64 -1 x_r1_g76 -1 x_r1_g77 -1 x_r1_g85 -2 x_r1_g91 -2 x_r1_g92 -1 x_r1_g94 -2 x_r1_g99 -1 x_r1_g116 -1 x_r1_g120 -1 x_r1_g128 -1 x_r1_g131 -2 x_r1_g164 -1 x_r2_g5 -1 x_r2_g14 -1 x_r2_g17 -2 x_r2_g22 -2 x_r2_g29 -1 x_r2_g34 -2 x_r2_g35 -1 x_r2_g42 -1 x_r2_g47 -1 x_r2_g56 -1 x_r2_g87 -2 x_r2_g106 -1 x_r2_g111 -1 x_r2_g114 -1 x_r2_g116 -1 x_r2_g118 -1 x_r2_g119 -2 x_r2_g125 -2 x_r2_g132 -2 x_r2_g133 -1 x_r2_g138 -1 x_r2_g141 -1 x_r2_g146 -2 x_r2_g161 -1 x_r3_g0 -1 x_r3_g4 -1 x_r3_g6 -1 x_r3_g12 -1 x_r3_g21 -1 x_r3_g31 -1 x_r3_g53 -1 x_r3_g55 -1 x_r3_g61 -1 x_r3_g63 -1 x_r3_g66 -1 x_r3_g77 -1 x_r3_g78 -1 x_r3_g80 -1 x_r3_g82 -1 x_r3_g107 -2 x_r3_g115 -1 x_r3_g122 -1 x_r3_g125 -1 x_r3_g132 -2 x_r3_g133 -1 x_r3_g136 -1 x_r3_g139 -2 x_r3_g141 -1 x_r3_g146 -1 x_r3_g149 -1 x_r3_g150 -1 p_r0_g39_h35_t4 -1 p_r0_g44_h40_t4 -1 p_r0_g50_h46_t4 -1 p_r0_g54_h50_t4 -1 p_r0_g77_h73_t4 -1 p_r0_g99_h95_t4 -1 p_r0_g116_h112_t4 -1 p_r0_g117_h113_t4 -1 p_r0_g132_h128_t4 -1 p_r0_g136_h132_t4 -1 p_r0_g139_h135_t4 -1 p_r0_g156_h152_t4 -1 p_r1_g20_h16_t4 -1 p_r1_g33_h29_t4 -1 p_r1_g42_h38_t4 -1 p_r1_g46_h42_t4 -1 p_r1_g82_h78_t4 -1 p_r1_g89_h85_t4 -1 p_r1_g98_h94_t4 -1 p_r1_g120_h116_t4 -1 p_r1_g132_h128_t4 -1 p_r1_g135_h131_t4 -1 p_r2_g17_h13_t4 -1 p_r2_g51_h47_t4 -1 p_r2_g80_h76_t4 -1 p_r2_g116_h112_t4 -1 p_r2_g118_h114_t4 -1 p_r2_g145_h141_t4 -1 p_r3_g4_h0_t4 -1 p_r3_g56_h52_t4 -1 p_r3_g82_h78_t4 -1 p_r3_g84_h80_t4 -1 p_r3_g112_h108_t4 -1 p_r3_g125_h121_t4 -1 p_r3_g136_h132_t4 -1 p_r3_g150_h146_t4 = -53 ;
1 d_4 -1 u_4 <= 0 ;
-1 d_4 -1 u_4 <= 0 ;
1 u_4 -1 M <= 0 ;
1 u_4 <= 1 ;
1 p_r0_g41_h35_t6 -1 x_r0_g41 <= 0 ;
1 p_r0_g41_h35_t6 -1 x_r0_g35 <= 0 ;
1 p_r0_g41_h35_t6 -1 x_r0_g41 -1 x_r0_g35 >= -1 ;
1 p_r0_g46_h40_t6 -1 x_r0_g46 <= 0 ;
1 p_r0_g46_h40_t6 -1 x_r0_g40 <= 0 ;
1 p_r0_g46_h40_t6 -1 x_r0_g46 -1 x_r0_g40 >= -1 ;
1 p_r0_g47_h41_t6 -1 x_r0_g47 <= 0 ;
1 p_r0_g47_h41_t6 -1 x_r0_g41 <= 0 ;
1 p_r0_g47_h41_t6 -1 x_r0_g47 -1 x_r0_g41 >= -1 ;
1 p_r0_g50_h44_t6 -1 x_r0_g50 <= 0 ;
1 p_r0_g50_h44_t6 -1 x_r0_g44 <= 0 ;
1 p_r0_g50_h44_t6 -1 x_r0_g50 -1 x_r0_g44 >= -1 ;
1 p_r0_g101_h95_t6 -1 x_r0_g101 <= 0 ;
1 p_r0_g101_h95_t6 -1 x_r0_g95 <= 0 ;
1 p_r0_g101_h95_t6 -1 x_r0_g101 -1 x_r0_g95 >= -1 ;
1 p_r0_g116_h110_t6 -1 x_r0_g116 <= 0 ;
1 p_r0_g116_h110_t6 -1 x_r0_g110 <= 0 ;
1 p_r0_g116_h110_t6 -1 x_r0_g116 -1 x_r0_g110 >= -1 ;
1 p_r0_g117_h111_t6 -1 x_r0_g117 <= 0 ;
1 p_r0_g117_h111_t6 -1 x_r0_g111 <= 0 ;
1 p_r0_g117_h111_t6 -1 x_r0_g117 -1 x_r0_g111 >= -1 ;
1 p_r0_g150_h144_t6 -1 x_r0_g150 <= 0 ;
1 p_r0_g150_h144_t6 -1 x_r0_g144 <= 0 ;
1 p_r0_g150_h144_t6 -1 x_r0_g150 -1 x_r0_g144 >= -1 ;
1 p_r0_g156_h150_t6 -1 x_r0_g156 <= 0 ;
1 p_r0_g156_h150_t6 -1 x_r0_g150 <= 0 ;
1 p_r0_g156_h150_t6 -1 x_r0_g156 -1 x_r0_g150 >= -1 ;
1 p_r1_g33_h27_t6 -1 x_r1_g33 <= 0 ;
1 p_r1_g33_h27_t6 -1 x_r1_g27 <= 0 ;
1 p_r1_g33_h27_t6 -1 x_r1_g33 -1 x_r1_g27 >= -1 ;
1 p_r1_g35_h29_t6 -1 x_r1_g35 <= 0 ;
1 p_r1_g35_h29_t6 -1 x_r1_g29 <= 0 ;
1 p_r1_g35_h29_t6 -1 x_r1_g35 -1 x_r1_g29 >= -1 ;
1 p_r1_g42_h36_t6 -1 x_r1_g42 <= 0 ;
1 p_r1_g42_h36_t6 -1 x_r1_g36 <= 0 ;
1 p_r1_g42_h36_t6 -1 x_r1_g42 -1 x_r1_g36 >= -1 ;
1 p_r1_g64_h58_t6 -1 x_r1_g64 <= 0 ;
1 p_r1_g64_h58_t6 -1 x_r1_g58 <= 0 ;
1 p_r1_g64_h58_t6 -1 x_r1_g64 -1 x_r1_g58 >= -1 ;
1 p_r1_g77_h71_t6 -1 x_r1_g77 <= 0 ;
1 p_r1_g77_h71_t6 -1 x_r1_g71 <= 0 ;
1 p_r1_g77_h71_t6 -1 x_r1_g77 -1 x_r1_g71 >= -1 ;
1 p_r1_g82_h76_t6 -1 x_r1_g82 <= 0 ;
1 p_r1_g82_h76_t6 -1 x_r1_g76 <= 0 ;
1 p_r1_g82_h76_t6 -1 x_r1_g82 -1 x_r1_g76 >= -1 ;
1 p_r1_g91_h85_t6 -1 x_r1_g91 <= 0 ;
1 p_r1_g91_h85_t6 -1 x_r1_g85 <= 0 ;
1 p_r1_g91_h85_t6 -1 x_r1_g91 -1 x_r1_g85 >= -1 ;
1 p_r1_g98_h92_t6 -1 x_r1_g98 <= 0 ;
1 p_r1_g98_h92_t6 -1 x_r1_g92 <= 0 ;
1 p_r1_g98_h92_t6 -1 x_r1_g98 -1 x_r1_g92 >= -1 ;
1 p_r1_g120_h114_t6 -1 x_r1_g120 <= 0 ;
1 p_r1_g120_h114_t6 -1 x_r1_g114 <= 0 ;
1 p_r1_g120_h114_t6 -1 x_r1_g120 -1 x_r1_g114 >= -1 ;
1 p_r2_g13_h7_t6 -1 x_r2_g13 <= 0 ;
1 p_r2_g13_h7_t6 -1 x_r2_g7 <= 0 ;
1 p_r2_g13_h7_t6 -1 x_r2_g13 -1 x_r2_g7 >= -1 ;
1 p_r2_g35_h29_t6 -1 x_r2_g35 <= 0 ;
1 p_r2_g35_h29_t6 -1 x_r2_g29 <= 0 ;
1 p_r2_g35_h29_t6 -1 x_r2_g35 -1 x_r2_g29 >= -1 ;
1 p_r2_g41_h35_t6 -1 x_r2_g41 <= 0 ;
1 p_r2_g41_h35_t6 -1 x_r2_g35 <= 0 ;
1 p_r2_g41_h35_t6 -1 x_r2_g41 -1 x_r2_g35 >= -1 ;
1 p_r2_g47_h41_t6 -1 x_r2_g47 <= 0 ;
1 p_r2_g47_h41_t6 -1 x_r2_g41 <= 0 ;
1 p_r2_g47_h41_t6 -1 x_r2_g47 -1 x_r2_g41 >= -1 ;
1 p_r2_g93_h87_t6 -1 x_r2_g93 <= 0 ;
1 p_r2_g93_h87_t6 -1 x_r2_g87 <= 0 ;
1 p_r2_g93_h87_t6 -1 x_r2_g93 -1 x_r2_g87 >= -1 ;
1 p_r2_g112_h106_t6 -1 x_r2_g112 <= 0 ;
1 p_r2_g112_h106_t6 -1 x_r2_g106 <= 0 ;
1 p_r2_g112_h106_t6 -1 x_r2_g112 -1 x_r2_g106 >= -1 ;
1 p_r2_g118_h112_t6 -1 x_r2_g118 <= 0 ;
1 p_r2_g118_h112_t6 -1 x_r2_g112 <= 0 ;
1 p_r2_g118_h112_t6 -1 x_r2_g118 -1 x_r2_g112 >= -1 ;
1 p_r2_g125_h119_t6 -1 x_r2_g125 <= 0 ;
1 p_r2_g125_h119_t6 -1 x_r2_g119 <= 0 ;
1 p_r2_g125_h119_t6 -1 x_r2_g125 -1 x_r2_g119 >= -1 ;
1 p_r2_g133_h127_t6 -1 x_r2_g133 <= 0 ;
1 p_r2_g133_h127_t6 -1 x_r2_g127 <= 0 ;
1 p_r2_g133_h127_t6 -1 x_r2_g133 -1 x_r2_g127 >= -1 ;
1 p_r2_g138_h132_t6 -1 x_r2_g138 <= 0 ;
1 p_r2_g138_h132_t6 -1 x_r2_g132 <= 0 ;
1 p_r2_g138_h132_t6 -1 x_r2_g138 -1 x_r2_g132 >= -1 ;
1 p_r2_g139_h133_t6 -1 x_r2_g139 <= 0 ;
1 p_r2_g139_h133_t6 -1 x_r2_g133 <= 0 ;
1 p_r2_g139_h133_t6 -1 x_r2_g139 -1 x_r2_g133 >= -1 ;
1 p_r2_g145_h139_t6 -1 x_r2_g145 <= 0 ;
1 p_r2_g145_h139_t6 -1 x_r2_g139 <= 0 ;
1 p_r2_g145_h139_t6 -1 x_r2_g145 -1 x_r2_g139 >= -1 ;
1 p_r2_g151_h145_t6 -1 x_r2_g151 <= 0 ;
1 p_r2_g151_h145_t6 -1 x_r2_g145 <= 0 ;
1 p_r2_g151_h145_t6 -1 x_r2_g151 -1 x_r2_g145 >= -1 ;
1 p_r3_g6_h0_t6 -1 x_r3_g6 <= 0 ;
1 p_r3_g6_h0_t6 -1 x_r3_g0 <= 0 ;
1 p_r3_g6_h0_t6 -1 x_r3_g6 -1 x_r3_g0 >= -1 ;
1 p_r3_g12_h6_t6 -1 x_r3_g12 <= 0 ;
1 p_r3_g12_h6_t6 -1 x_r3_g6 <= 0 ;
1 p_r3_g12_h6_t6 -1 x_r3_g12 -1 x_r3_g6 >= -1 ;
1 p_r3_g61_h55_t6 -1 x_r3_g61 <= 0 ;
1 p_r3_g61_h55_t6 -1 x_r3_g55 <= 0 ;
1 p_r3_g61_h55_t6 -1 x_r3_g61 -1 x_r3_g55 >= -1 ;
1 p_r3_g83_h77_t6 -1 x_r3_g83 <= 0 ;
1 p_r3_g83_h77_t6 -1 x_r3_g77 <= 0 ;
1 p_r3_g83_h77_t6 -1 x_r3_g83 -1 x_r3_g77 >= -1 ;
1 p_r3_g84_h78_t6 -1 x_r3_g84 <= 0 ;
1 p_r3_g84_h78_t6 -1 x_r3_g78 <= 0 ;
1 p_r3_g84_h78_t6 -1 x_r3_g84 -1 x_r3_g78 >= -1 ;
1 p_r3_g89_h83_t6 -1 x_r3_g89 <= 0 ;
1 p_r3_g89_h83_t6 -1 x_r3_g83 <= 0 ;
1 p_r3_g89_h83_t6 -1 x_r3_g89 -1 x_r3_g83 >= -1 ;
1 p_r3_g121_h115_t6 -1 x_r3_g121 <= 0 ;
1 p_r3_g121_h115_t6 -1 x_r3_g115 <= 0 ;
1 p_r3_g121_h115_t6 -1 x_r3_g121 -1 x_r3_g115 >= -1 ;
1 p_r3_g139_h133_t6 -1 x_r3_g139 <= 0 ;
1 p_r3_g139_h133_t6 -1 x_r3_g133 <= 0 ;
1 p_r3_g139_h133_t6 -1 x_r3_g139 -1 x_r3_g133 >= -1 ;
1 d_6 -1 x_r0_g6 -2 x_r0_g13 -1 x_r0_g25 -1 x_r0_g39 -1 x_r0_g40 -1 x_r0_g44 -1 x_r0_g46 -2 x_r0_g49 -1 x_r0_g54 -1 x_r0_g73 -1 x_r0_g74 -2 x_r0_g112 -1 x_r0_g113 -1 x_r0_g116 -1 x_r0_g117 -1 x_r0_g128 -1 x_r0_g132 -1 x_r0_g136 -2 x_r0_g137 -2 x_r0_g152 -1 x_r0_g163 -1 x_r1_g16 -1 x_r1_g20 -1 x_r1_g33 -2 x_r1_g38 -2 x_r1_g43 -1 x_r1_g45 -1 x_r1_g46 -1 x_r1_g64 -1 x_r1_g71 -1 x_r1_g76 -1 x_r1_g78 -1 x_r1_g82 -1 x_r1_g85 -1 x_r1_g89 -2 x_r1_g94 -2 x_r1_g101 -1 x_r1_g114 -1 x_r1_g130 -1 x_r1_g132 -1 x_r1_g135 -1 x_r1_g157 -1 x_r1_g164 -1 x_r2_g6 -1 x_r2_g7 -1 x_r2_g14 -1 x_r2_g22 -1 x_r2_g34 -1 x_r2_g42 -1 x_r2_g76 -2 x_r2_g80 -1 x_r2_g111 -1 x_r2_g114 -2 x_r2_g116 -1 x_r2_g119 -1 x_r2_g127 -1 x_r2_g132 -2 x_r2_g146 -1 x_r2_g151 -1 x_r2_g161 -1 x_r3_g12 -1 x_r3_g21 -1 x_r3_g31 -1 x_r3_g52 -2 x_r3_g53 -1 x_r3_g55 -1 x_r3_g56 -2 x_r3_g68 -2 x_r3_g80 -1 x_r3_g82 -2 x_r3_g112 -1 x_r3_g121 -1 x_r3_g122 -1 x_r3_g125 -1 x_r3_g132 -1 x_r3_g133 -1 x_r3_g136 -1 x_r3_g139 -1 x_r3_g146 -1 x_r3_g149 -1 x_r3_g150 -2 x_r3_g160 -1 p_r0_g41_h35_t6 -1 p_r0_g46_h40_t6 -1 p_r0_g47_h41_t6 -1 p_r0_g50_h44_t6 -1 p_r0_g101_h95_t6 -1 p_r0_g116_h110_t6 -1 p_r0_g117_h111_t6 -1 p_r0_g150_h144_t6 -1 p_r0_g156_h150_t6 -1 p_r1_g33_h27_t6 -1 p_r1_g35_h29_t6 -1 p_r1_g42_h36_t6 -1 p_r1_g64_h58_t6 -1 p_r1_g77_h71_t6 -1 p_r1_g82_h76_t6 -1 p_r1_g91_h85_t6 -1 p_r1_g98_h92_t6 -1 p_r1_g120_h114_t6 -1 p_r2_g13_h7_t6 -1 p_r2_g35_h29_t6 -1 p_r2_g41_h35_t6 -1 p_r2_g47_h41_t6 -1 p_r2_g93_h87_t6 -1 p_r2_g112_h106_t6 -1 p_r2_g118_h112_t6 -1 p_r2_g125_h119_t6 -1 p_r2_g133_h127_t6 -1 p_r2_g138_h132_t6 -1 p_r2_g139_h133_t6 -1 p_r2_g145_h139_t6 -1 p_r2_g151_h145_t6 -1 p_r3_g6_h0_t6 -1 p_r3_g12_h6_t6 -1 p_r3_g61_h55_t6 -1 p_r3_g83_h77_t6 -1 p_r3_g84_h78_t6 -1 p_r3_g89_h83_t6 -1 p_r3_g121_h115_t6 -1 p_r3_g139_h133_t6 = -67 ;
1 d_6 -1 u_6 <= 0 ;
-1 d_6 -1 u_6 <= 0 ;
1 u_6 -1 M <= 0 ;
1 u_6 <= 1 ;
1 p_r0_g47_h39_t8 -1 x_r0_g47 <= 0 ;
1 p_r0_g47_h39_t8 -1 x_r0_g39 <= 0 ;
1 p_r0_g47_h39_t8 -1 x_r0_g47 -1 x_r0_g39 >= -1 ;
1 p_r0_g49_h41_t8 -1 x_r0_g49 <= 0 ;
1 p_r0_g49_h41_t8 -1 x_r0_g41 <= 0 ;
1 p_r0_g49_h41_t8 -1 x_r0_g49 -1 x_r0_g41 >= -1 ;
1 p_r0_g54_h46_t8 -1 x_r0_g54 <= 0 ;
1 p_r0_g54_h46_t8 -1 x_r0_g46 <= 0 ;
1 p_r0_g54_h46_t8 -1 x_r0_g54 -1 x_r0_g46 >= -1 ;
1 p_r0_g74_h66_t8 -1 x_r0_g74 <= 0 ;
1 p_r0_g74_h66_t8 -1 x_r0_g66 <= 0 ;
1 p_r0_g74_h66_t8 -1 x_r0_g74 -1 x_r0_g66 >= -1 ;
1 p_r0_g136_h128_t8 -1 x_r0_g136 <= 0 ;
1 p_r0_g136_h128_t8 -1 x_r0_g128 <= 0 ;
1 p_r0_g136_h128_t8 -1 x_r0_g136 -1 x_r0_g128 >= -1 ;
1 p_r0_g144_h136_t8 -1 x_r0_g144 <= 0 ;
1 p_r0_g144_h136_t8 -1 x_r0_g136 <= 0 ;
1 p_r0_g144_h136_t8 -1 x_r0_g144 -1 x_r0_g136 >= -1 ;
1 p_r0_g152_h144_t8 -1 x_r0_g152 <= 0 ;
1 p_r0_g152_h144_t8 -1 x_r0_g144 <= 0 ;
1 p_r0_g152_h144_t8 -1 x_r0_g152 -1 x_r0_g144 >= -1 ;
1 p_r1_g27_h19_t8 -1 x_r1_g27 <= 0 ;
1 p_r1_g27_h19_t8 -1 x_r1_g19 <= 0 ;
1 p_r1_g27_h19_t8 -1 x_r1_g27 -1 x_r1_g19 >= -1 ;
1 p_r1_g28_h20_t8 -1 x_r1_g28 <= 0 ;
1 p_r1_g28_h20_t8 -1 x_r1_g20 <= 0 ;
1 p_r1_g28_h20_t8 -1 x_r1_g28 -1 x_r1_g20 >= -1 ;
1 p_r1_g35_h27_t8 -1 x_r1_g35 <= 0 ;
1 p_r1_g35_h27_t8 -1 x_r1_g27 <= 0 ;
1 p_r1_g35_h27_t8 -1 x_r1_g35 -1 x_r1_g27 >= -1 ;
1 p_r1_g36_h28_t8 -1 x_r1_g36 <= 0 ;
1 p_r1_g36_h28_t8 -1 x_r1_g28 <= 0 ;
1 p_r1_g36_h28_t8 -1 x_r1_g36 -1 x_r1_g28 >= -1 ;
1 p_r1_g43_h35_t8 -1 x_r1_g43 <= 0 ;
1 p_r1_g43_h35_t8 -1 x_r1_g35 <= 0 ;
1 p_r1_g43_h35_t8 -1 x_r1_g43 -1 x_r1_g35 >= -1 ;
1 p_r1_g46_h38_t8 -1 x_r1_g46 <= 0 ;
1 p_r1_g46_h38_t8 -1 x_r1_g38 <= 0 ;
1 p_r1_g46_h38_t8 -1 x_r1_g46 -1 x_r1_g38 >= -1 ;
1 p_r1_g85_h77_t8 -1 x_r1_g85 <= 0 ;
1 p_r1_g85_h77_t8 -1 x_r1_g77 <= 0 ;
1 p_r1_g85_h77_t8 -1 x_r1_g85 -1 x_r1_g77 >= -1 ;
1 p_r1_g99_h91_t8 -1 x_r1_g99 <= 0 ;
1 p_r1_g99_h91_t8 -1 x_r1_g91 <= 0 ;
1 p_r1_g99_h91_t8 -1 x_r1_g99 -1 x_r1_g91 >= -1 ;
1 p_r1_g128_h120_t8 -1 x_r1_g128 <= 0 ;
1 p_r1_g128_h120_t8 -1 x_r1_g120 <= 0 ;
1 p_r1_g128_h120_t8 -1 x_r1_g128 -1 x_r1_g120 >= -1 ;
1 p_r2_g13_h5_t8 -1 x_r2_g13 <= 0 ;
1 p_r2_g13_h5_t8 -1 x_r2_g5 <= 0 ;
1 p_r2_g13_h5_t8 -1 x_r2_g13 -1 x_r2_g5 >= -1 ;
1 p_r2_g14_h6_t8 -1 x_r2_g14 <= 0 ;
1 p_r2_g14_h6_t8 -1 x_r2_g6 <= 0 ;
1 p_r2_g14_h6_t8 -1 x_r2_g14 -1 x_r2_g6 >= -1 ;
1 p_r2_g22_h14_t8 -1 x_r2_g22 <= 0 ;
1 p_r2_g22_h14_t8 -1 x_r2_g14 <= 0 ;
1 p_r2_g22_h14_t8 -1 x_r2_g22 -1 x_r2_g14 >= -1 ;
1 p_r2_g42_h34_t8 -1 x_r2_g42 <= 0 ;
1 p_r2_g42_h34_t8 -1 x_r2_g34 <= 0 ;
1 p_r2_g42_h34_t8 -1 x_r2_g42 -1 x_r2_g34 >= -1 ;
1 p_r2_g93_h85_t8 -1 x_r2_g93 <= 0 ;
1 p_r2_g93_h85_t8 -1 x_r2_g85 <= 0 ;
1 p_r2_g93_h85_t8 -1 x_r2_g93 -1 x_r2_g85 >= -1 ;
1 p_r2_g114_h106_t8 -1 x_r2_g114 <= 0 ;
1 p_r2_g114_h106_t8 -1 x_r2_g106 <= 0 ;
1 p_r2_g114_h106_t8 -1 x_r2_g114 -1 x_r2_g106 >= -1 ;
1 p_r2_g119_h111_t8 -1 x_r2_g119 <= 0 ;
1 p_r2_g119_h111_t8 -1 x_r2_g111 <= 0 ;
1 p_r2_g119_h111_t8 -1 x_r2_g119 -1 x_r2_g111 >= -1 ;
1 p_r2_g127_h119_t8 -1 x_r2_g127 <= 0 ;
1 p_r2_g127_h119_t8 -1 x_r2_g119 <= 0 ;
1 p_r2_g127_h119_t8 -1 x_r2_g127 -1 x_r2_g119 >= -1 ;
1 p_r2_g133_h125_t8 -1 x_r2_g133 <= 0 ;
1 p_r2_g133_h125_t8 -1 x_r2_g125 <= 0 ;
1 p_r2_g133_h125_t8 -1 x_r2_g133 -1 x_r2_g125 >= -1 ;
1 p_r2_g141_h133_t8 -1 x_r2_g141 <= 0 ;
1 p_r2_g141_h133_t8 -1 x_r2_g133 <= 0 ;
1 p_r2_g141_h133_t8 -1 x_r2_g141 -1 x_r2_g133 >= -1 ;
1 p_r2_g146_h138_t8 -1 x_r2_g146 <= 0 ;
1 p_r2_g146_h138_t8 -1 x_r2_g138 <= 0 ;
1 p_r2_g146_h138_t8 -1 x_r2_g146 -1 x_r2_g138 >= -1 ;
1 p_r3_g12_h4_t8 -1 x_r3_g12 <= 0 ;
1 p_r3_g12_h4_t8 -1 x_r3_g4 <= 0 ;
1 p_r3_g12_h4_t8 -1 x_r3_g12 -1 x_r3_g4 >= -1 ;
1 p_r3_g29_h21_t8 -1 x_r3_g29 <= 0 ;
1 p_r3_g29_h21_t8 -1 x_r3_g21 <= 0 ;
1 p_r3_g29_h21_t8 -1 x_r3_g29 -1 x_r3_g21 >= -1 ;
1 p_r3_g61_h53_t8 -1 x_r3_g61 <= 0 ;
1 p_r3_g61_h53_t8 -1 x_r3_g53 <= 0 ;
1 p_r3_g61_h53_t8 -1 x_r3_g61 -1 x_r3_g53 >= -1 ;
1 p_r3_g63_h55_t8 -1 x_r3_g63 <= 0 ;
1 p_r3_g63_h55_t8 -1 x_r3_g55 <= 0 ;
1 p_r3_g63_h55_t8 -1 x_r3_g63 -1 x_r3_g55 >= -1 ;
1 p_r3_g97_h89_t8 -1 x_r3_g97 <= 0 ;
1 p_r3_g97_h89_t8 -1 x_r3_g89 <= 0 ;
1 p_r3_g97_h89_t8 -1 x_r3_g97 -1 x_r3_g89 >= -1 ;
1 p_r3_g115_h107_t8 -1 x_r3_g115 <= 0 ;
1 p_r3_g115_h107_t8 -1 x_r3_g107 <= 0 ;
1 p_r3_g115_h107_t8 -1 x_r3_g115 -1 x_r3_g107 >= -1 ;
1 p_r3_g133_h125_t8 -1 x_r3_g133 <= 0 ;
1 p_r3_g133_h125_t8 -1 x_r3_g125 <= 0 ;
1 p_r3_g133_h125_t8 -1 x_r3_g133 -1 x_r3_g125 >= -1 ;
1 p_r3_g141_h133_t8 -1 x_r3_g141 <= 0 ;
1 p_r3_g141_h133_t8 -1 x_r3_g133 <= 0 ;
1 p_r3_g141_h133_t8 -1 x_r3_g141 -1 x_r3_g133 >= -1 ;
1 p_r3_g149_h141_t8 -1 x_r3_g149 <= 0 ;
1 p_r3_g149_h141_t8 -1 x_r3_g141 <= 0 ;
1 p_r3_g149_h141_t8 -1 x_r3_g149 -1 x_r3_g141 >= -1 ;
1 d_8 -2 x_r0_g6 -1 x_r0_g13 -1 x_r0_g23 -1 x_r0_g35 -1 x_r0_g40 -2 x_r0_g44 -1 x_r0_g46 -1 x_r0_g47 -2 x_r0_g50 -1 x_r0_g54 -1 x_r0_g66 -1 x_r0_g73 -1 x_r0_g95 -2 x_r0_g110 -2 x_r0_g111 -1 x_r0_g112 -1 x_r0_g117 -1 x_r0_g128 -2 x_r0_g135 -1 x_r0_g139 -2 x_r0_g150 -1 x_r0_g152 -1 x_r0_g163 -1 x_r1_g0 -1 x_r1_g19 -1 x_r1_g29 -1 x_r1_g36 -2 x_r1_g45 -1 x_r1_g58 -1 x_r1_g64 -1 x_r1_g71 -2 x_r1_g76 -1 x_r1_g77 -1 x_r1_g78 -1 x_r1_g82 -1 x_r1_g89 -2 x_r1_g92 -1 x_r1_g98 -1 x_r1_g99 -1 x_r1_g101 -2 x_r1_g116 -1 x_r1_g120 -1 x_r1_g130 -1 x_r1_g131 -2 x_r1_g132 -1 x_r1_g135 -1 x_r1_g164 -1 x_r2_g6 -1 x_r2_g13 -1 x_r2_g17 -1 x_r2_g22 -1 x_r2_g29 -1 x_r2_g34 -2 x_r2_g35 -2 x_r2_g41 -1 x_r2_g47 -1 x_r2_g51 -2 x_r2_g56 -1 x_r2_g75 -1 x_r2_g76 -1 x_r2_g93 -1 x_r2_g106 -2 x_r2_g112 -1 x_r2_g114 -2 x_r2_g118 -1 x_r2_g132 -1 x_r2_g138 -2 x_r2_g145 -1 x_r2_g161 -1 x_r3_g0 -1 x_r3_g4 -1 x_r3_g12 -1 x_r3_g21 -1 x_r3_g29 -1 x_r3_g31 -1 x_r3_g53 -2 x_r3_g54 -1 x_r3_g55 -1 x_r3_g66 -1 x_r3_g68 -1 x_r3_g78 -1 x_r3_g82 -1 x_r3_g83 -1 x_r3_g84 -1 x_r3_g89 -1 x_r3_g107 -1 x_r3_g115 -1 x_r3_g121 -2 x_r3_g132 -2 x_r3_g136 -2 x_r3_g146 -1 x_r3_g150 -1 x_r3_g160 -1 p_r0_g47_h39_t8 -1 p_r0_g49_h41_t8 -1 p_r0_g54_h46_t8 -1 p_r0_g74_h66_t8 -1 p_r0_g136_h128_t8 -1 p_r0_g144_h136_t8 -1 p_r0_g152_h144_t8 -1 p_r1_g27_h19_t8 -1 p_r1_g28_h20_t8 -1 p_r1_g35_h27_t8 -1 p_r1_g36_h28_t8 -1 p_r1_g43_h35_t8 -1 p_r1_g46_h38_t8 -1 p_r1_g85_h77_t8 -1 p_r1_g99_h91_t8 -1 p_r1_g128_h120_t8 -1 p_r2_g13_h5_t8 -1 p_r2_g14_h6_t8 -1 p_r2_g22_h14_t8 -1 p_r2_g42_h34_t8 -1 p_r2_g93_h85_t8 -1 p_r2_g114_h106_t8 -1 p_r2_g119_h111_t8 -1 p_r2_g127_h119_t8 -1 p_r2_g133_h125_t8 -1 p_r2_g141_h133_t8 -1 p_r2_g146_h138_t8 -1 p_r3_g12_h4_t8 -1 p_r3_g29_h21_t8 -1 p_r3_g61_h53_t8 -1 p_r3_g63_h55_t8 -1 p_r3_g97_h89_t8 -1 p_r3_g115_h107_t8 -1 p_r3_g133_h125_t8 -1 p_r3_g141_h133_t8 -1 p_r3_g149_h141_t8 = -51 ;
1 d_8 -1 u_8 <= 0 ;
-1 d_8 -1 u_8 <= 0 ;
1 u_8 -1 M <= 0 ;
1 u_8 <= 2 ;
1 p_r0_g35_h13_t22 -1 x_r0_g35 <= 0 ;
1 p_r0_g35_h13_t22 -1 x_r0_g13 <= 0 ;
1 p_r0_g35_h13_t22 -1 x_r0_g35 -1 x_r0_g13 >= -1 ;
1 p_r0_g47_h25_t22 -1 x_r0_g47 <= 0 ;
1 p_r0_g47_h25_t22 -1 x_r0_g25 <= 0 ;
1 p_r0_g47_h25_t22 -1 x_r0_g47 -1 x_r0_g25 >= -1 ;
1 p_r0_g66_h44_t22 -1 x_r0_g66 <= 0 ;
1 p_r0_g66_h44_t22 -1 x_r0_g44 <= 0 ;
1 p_r0_g66_h44_t22 -1 x_r0_g66 -1 x_r0_g44 >= -1 ;
1 p_r0_g88_h66_t22 -1 x_r0_g88 <= 0 ;
1 p_r0_g88_h66_t22 -1 x_r0_g66 <= 0 ;
1 p_r0_g88_h66_t22 -1 x_r0_g88 -1 x_r0_g66 >= -1 ;
1 p_r0_g95_h73_t22 -1 x_r0_g95 <= 0 ;
1 p_r0_g95_h73_t22 -1 x_r0_g73 <= 0 ;
1 p_r0_g95_h73_t22 -1 x_r0_g95 -1 x_r0_g73 >= -1 ;
1 p_r0_g99_h77_t22 -1 x_r0_g99 <= 0 ;
1 p_r0_g99_h77_t22 -1 x_r0_g77 <= 0 ;
1 p_r0_g99_h77_t22 -1 x_r0_g99 -1 x_r0_g77 >= -1 ;
1 p_r0_g110_h88_t22 -1 x_r0_g110 <= 0 ;
1 p_r0_g110_h88_t22 -1 x_r0_g88 <= 0 ;
1 p_r0_g110_h88_t22 -1 x_r0_g110 -1 x_r0_g88 >= -1 ;
1 p_r0_g117_h95_t22 -1 x_r0_g117 <= 0 ;
1 p_r0_g117_h95_t22 -1 x_r0_g95 <= 0 ;
1 p_r0_g117_h95_t22 -1 x_r0_g117 -1 x_r0_g95 >= -1 ;
1 p_r0_g132_h110_t22 -1 x_r0_g132 <= 0 ;
1 p_r0_g132_h110_t22 -1 x_r0_g110 <= 0 ;
1 p_r0_g132_h110_t22 -1 x_r0_g132 -1 x_r0_g110 >= -1 ;
1 p_r0_g135_h113_t22 -1 x_r0_g135 <= 0 ;
1 p_r0_g135_h113_t22 -1 x_r0_g113 <= 0 ;
1 p_r0_g135_h113_t22 -1 x_r0_g135 -1 x_r0_g113 >= -1 ;
1 p_r0_g139_h117_t22 -1 x_r0_g139 <= 0 ;
1 p_r0_g139_h117_t22 -1 x_r0_g117 <= 0 ;
1 p_r0_g139_h117_t22 -1 x_r0_g139 -1 x_r0_g117 >= -1 ;
1 p_r0_g150_h128_t22 -1 x_r0_g150 <= 0 ;
1 p_r0_g150_h128_t22 -1 x_r0_g128 <= 0 ;
1 p_r0_g150_h128_t22 -1 x_r0_g150 -1 x_r0_g128 >= -1 ;
1 p_r1_g19_h164_t22 -1 x_r1_g19 <= 0 ;
1 p_r1_g19_h164_t22 -1 x_r1_g164 <= 0 ;
1 p_r1_g19_h164_t22 -1 x_r1_g19 -1 x_r1_g164 >= -1 ;
1 p_r1_g38_h16_t22 -1 x_r1_g38 <= 0 ;
1 p_r1_g38_h16_t22 -1 x_r1_g16 <= 0 ;
1 p_r1_g38_h16_t22 -1 x_r1_g38 -1 x_r1_g16 >= -1 ;
1 p_r1_g42_h20_t22 -1 x_r1_g42 <= 0 ;
1 p_r1_g42_h20_t22 -1 x_r1_g20 <= 0 ;
1 p_r1_g42_h20_t22 -1 x_r1_g42 -1 x_r1_g20 >= -1 ;
1 p_r1_g58_h36_t22 -1 x_r1_g58 <= 0 ;
1 p_r1_g58_h36_t22 -1 x_r1_g36 <= 0 ;
1 p_r1_g58_h36_t22 -1 x_r1_g58 -1 x_r1_g36 >= -1 ;
1 p_r1_g64_h42_t22 -1 x_r1_g64 <= 0 ;
1 p_r1_g64_h42_t22 -1 x_r1_g42 <= 0 ;
1 p_r1_g64_h42_t22 -1 x_r1_g64 -1 x_r1_g42 >= -1 ;
1 p_r1_g98_h76_t22 -1 x_r1_g98 <= 0 ;
1 p_r1_g98_h76_t22 -1 x_r1_g76 <= 0 ;
1 p_r1_g98_h76_t22 -1 x_r1_g98 -1 x_r1_g76 >= -1 ;
1 p_r1_g99_h77_t22 -1 x_r1_g99 <= 0 ;
1 p_r1_g99_h77_t22 -1 x_r1_g77 <= 0 ;
1 p_r1_g99_h77_t22 -1 x_r1_g99 -1 x_r1_g77 >= -1 ;
1 p_r1_g114_h92_t22 -1 x_r1_g114 <= 0 ;
1 p_r1_g114_h92_t22 -1 x_r1_g92 <= 0 ;
1 p_r1_g114_h92_t22 -1 x_r1_g114 -1 x_r1_g92 >= -1 ;
1 p_r1_g116_h94_t22 -1 x_r1_g116 <= 0 ;
1 p_r1_g116_h94_t22 -1 x_r1_g94 <= 0 ;
1 p_r1_g116_h94_t22 -1 x_r1_g116 -1 x_r1_g94 >= -1 ;
1 p_r1_g120_h98_t22 -1 x_r1_g120 <= 0 ;
1 p_r1_g120_h98_t22 -1 x_r1_g98 <= 0 ;
1 p_r1_g120_h98_t22 -1 x_r1_g120 -1 x_r1_g98 >= -1 ;
1 p_r1_g157_h135_t22 -1 x_r1_g157 <= 0 ;
1 p_r1_g157_h135_t22 -1 x_r1_g135 <= 0 ;
1 p_r1_g157_h135_t22 -1 x_r1_g157 -1 x_r1_g135 >= -1 ;
1 p_r2_g6_h151_t22 -1 x_r2_g6 <= 0 ;
1 p_r2_g6_h151_t22 -1 x_r2_g151 <= 0 ;
1 p_r2_g6_h151_t22 -1 x_r2_g6 -1 x_r2_g151 >= -1 ;
1 p_r2_g29_h7_t22 -1 x_r2_g29 <= 0 ;
1 p_r2_g29_h7_t22 -1 x_r2_g7 <= 0 ;
1 p_r2_g29_h7_t22 -1 x_r2_g29 -1 x_r2_g7 >= -1 ;
1 p_r2_g35_h13_t22 -1 x_r2_g35 <= 0 ;
1 p_r2_g35_h13_t22 -1 x_r2_g13 <= 0 ;
1 p_r2_g35_h13_t22 -1 x_r2_g35 -1 x_r2_g13 >= -1 ;
1 p_r2_g51_h29_t22 -1 x_r2_g51 <= 0 ;
1 p_r2_g51_h29_t22 -1 x_r2_g29 <= 0 ;
1 p_r2_g51_h29_t22 -1 x_r2_g51 -1 x_r2_g29 >= -1 ;
1 p_r2_g56_h34_t22 -1 x_r2_g56 <= 0 ;
1 p_r2_g56_h34_t22 -1 x_r2_g34 <= 0 ;
1 p_r2_g56_h34_t22 -1 x_r2_g56 -1 x_r2_g34 >= -1 ;
1 p_r2_g63_h41_t22 -1 x_r2_g63 <= 0 ;
1 p_r2_g63_h41_t22 -1 x_r2_g41 <= 0 ;
1 p_r2_g63_h41_t22 -1 x_r2_g63 -1 x_r2_g41 >= -1 ;
1 p_r2_g85_h63_t22 -1 x_r2_g85 <= 0 ;
1 p_r2_g85_h63_t22 -1 x_r2_g63 <= 0 ;
1 p_r2_g85_h63_t22 -1 x_r2_g85 -1 x_r2_g63 >= -1 ;
1 p_r2_g133_h111_t22 -1 x_r2_g133 <= 0 ;
1 p_r2_g133_h111_t22 -1 x_r2_g111 <= 0 ;
1 p_r2_g133_h111_t22 -1 x_r2_g133 -1 x_r2_g111 >= -1 ;
1 p_r2_g138_h116_t22 -1 x_r2_g138 <= 0 ;
1 p_r2_g138_h116_t22 -1 x_r2_g116 <= 0 ;
1 p_r2_g138_h116_t22 -1 x_r2_g138 -1 x_r2_g116 >= -1 ;
1 p_r2_g141_h119_t22 -1 x_r2_g141 <= 0 ;
1 p_r2_g141_h119_t22 -1 x_r2_g119 <= 0 ;
1 p_r2_g141_h119_t22 -1 x_r2_g141 -1 x_r2_g119 >= -1 ;
1 p_r2_g161_h139_t22 -1 x_r2_g161 <= 0 ;
1 p_r2_g161_h139_t22 -1 x_r2_g139 <= 0 ;
1 p_r2_g161_h139_t22 -1 x_r2_g161 -1 x_r2_g139 >= -1 ;
1 p_r3_g4_h149_t22 -1 x_r3_g4 <= 0 ;
1 p_r3_g4_h149_t22 -1 x_r3_g149 <= 0 ;
1 p_r3_g4_h149_t22 -1 x_r3_g4 -1 x_r3_g149 >= -1 ;
1 p_r3_g53_h31_t22 -1 x_r3_g53 <= 0 ;
1 p_r3_g53_h31_t22 -1 x_r3_g31 <= 0 ;
1 p_r3_g53_h31_t22 -1 x_r3_g53 -1 x_r3_g31 >= -1 ;
1 p_r3_g77_h55_t22 -1 x_r3_g77 <= 0 ;
1 p_r3_g77_h55_t22 -1 x_r3_g55 <= 0 ;
1 p_r3_g77_h55_t22 -1 x_r3_g77 -1 x_r3_g55 >= -1 ;
1 p_r3_g78_h56_t22 -1 x_r3_g78 <= 0 ;
1 p_r3_g78_h56_t22 -1 x_r3_g56 <= 0 ;
1 p_r3_g78_h56_t22 -1 x_r3_g78 -1 x_r3_g56 >= -1 ;
1 p_r3_g83_h61_t22 -1 x_r3_g83 <= 0 ;
1 p_r3_g83_h61_t22 -1 x_r3_g61 <= 0 ;
1 p_r3_g83_h61_t22 -1 x_r3_g83 -1 x_r3_g61 >= -1 ;
1 d_22 -1 x_r0_g6 -1 x_r0_g13 -1 x_r0_g16 -1 x_r0_g23 -1 x_r0_g25 -1 x_r0_g40 -2 x_r0_g41 -1 x_r0_g46 -1 x_r0_g73 -1 x_r0_g74 -1 x_r0_g77 -1 x_r0_g101 -1 x_r0_g112 -1 x_r0_g128 -1 x_r0_g135 -1 x_r0_g136 -1 x_r0_g137 -1 x_r0_g144 -1 x_r0_g150 -1 x_r0_g152 -1 x_r0_g156 -1 x_r1_g27 -1 x_r1_g33 -1 x_r1_g35 -1 x_r1_g43 -1 x_r1_g46 -1 x_r1_g58 -1 x_r1_g71 -2 x_r1_g78 -1 x_r1_g85 -2 x_r1_g91 -1 x_r1_g92 -2 x_r1_g101 -1 x_r1_g116 -1 x_r1_g130 -1 x_r1_g131 -1 x_r1_g132 -1 x_r1_g135 -2 x_r2_g5 -1 x_r2_g6 -1 x_r2_g7 -1 x_r2_g13 -1 x_r2_g17 -1 x_r2_g22 -2 x_r2_g42 -1 x_r2_g47 -1 x_r2_g56 -1 x_r2_g76 -2 x_r2_g80 -1 x_r2_g87 -1 x_r2_g93 -1 x_r2_g106 -2 x_r2_g112 -1 x_r2_g114 -1 x_r2_g116 -1 x_r2_g118 -1 x_r2_g127 -1 x_r2_g132 -1 x_r2_g138 -1 x_r2_g141 -1 x_r2_g145 -1 x_r2_g146 -1 x_r2_g151 -2 x_r3_g0 -1 x_r3_g4 -2 x_r3_g6 -2 x_r3_g21 -1 x_r3_g31 -2 x_r3_g52 -1 x_r3_g53 -2 x_r3_g54 -1 x_r3_g61 -1 x_r3_g63 -1 x_r3_g68 -1 x_r3_g77 -2 x_r3_g84 -1 x_r3_g89 -2 x_r3_g97 -1 x_r3_g107 -1 x_r3_g108 -1 x_r3_g112 -1 x_r3_g115 -2 x_r3_g121 -1 x_r3_g122 -2 x_r3_g132 -1 x_r3_g133 -2 x_r3_g141 -2 x_r3_g146 -1 x_r3_g149 -2 x_r3_g150 -1 x_r3_g160 -1 p_r0_g35_h13_t22 -1 p_r0_g47_h25_t22 -1 p_r0_g66_h44_t22 -1 p_r0_g88_h66_t22 -1 p_r0_g95_h73_t22 -1 p_r0_g99_h77_t22 -1 p_r0_g110_h88_t22 -1 p_r0_g117_h95_t22 -1 p_r0_g132_h110_t22 -1 p_r0_g135_h113_t22 -1 p_r0_g139_h117_t22 -1 p_r0_g150_h128_t22 -1 p_r1_g19_h164_t22 -1 p_r1_g38_h16_t22 -1 p_r1_g42_h20_t22 -1 p_r1_g58_h36_t22 -1 p_r1_g64_h42_t22 -1 p_r1_g98_h76_t22 -1 p_r1_g99_h77_t22 -1 p_r1_g114_h92_t22 -1 p_r1_g116_h94_t22 -1 p_r1_g120_h98_t22 -1 p_r1_g157_h135_t22 -1 p_r2_g6_h151_t22 -1 p_r2_g29_h7_t22 -1 p_r2_g35_h13_t22 -1 p_r2_g51_h29_t22 -1 p_r2_g56_h34_t22 -1 p_r2_g63_h41_t22 -1 p_r2_g85_h63_t22 -1 p_r2_g133_h111_t22 -1 p_r2_g138_h116_t22 -1 p_r2_g141_h119_t22 -1 p_r2_g161_h139_t22 -1 p_r3_g4_h149_t22 -1 p_r3_g53_h31_t22 -1 p_r3_g77_h55_t22 -1 p_r3_g78_h56_t22 -1 p_r3_g83_h61_t22 = -58 ;
1 d_22 -1 u_22 <= 0 ;
-1 d_22 -1 u_22 <= 0 ;
1 u_22 -1 M <= 0 ;
1 u_22 <= 1 ;
1 p_r0_g6_h139_t34 -1 x_r0_g6 <= 0 ;
1 p_r0_g6_h139_t34 -1 x_r0_g139 <= 0 ;
1 p_r0_g6_h139_t34 -1 x_r0_g6 -1 x_r0_g139 >= -1 ;
1 p_r0_g23_h156_t34 -1 x_r0_g23 <= 0 ;
1 p_r0_g23_h156_t34 -1 x_r0_g156 <= 0 ;
1 p_r0_g23_h156_t34 -1 x_r0_g23 -1 x_r0_g156 >= -1 ;
1 p_r0_g40_h6_t34 -1 x_r0_g40 <= 0 ;
1 p_r0_g40_h6_t34 -1 x_r0_g6 <= 0 ;
1 p_r0_g40_h6_t34 -1 x_r0_g40 -1 x_r0_g6 >= -1 ;
1 p_r0_g47_h13_t34 -1 x_r0_g47 <= 0 ;
1 p_r0_g47_h13_t34 -1 x_r0_g13 <= 0 ;
1 p_r0_g47_h13_t34 -1 x_r0_g47 -1 x_r0_g13 >= -1 ;
1 p_r0_g50_h16_t34 -1 x_r0_g50 <= 0 ;
1 p_r0_g50_h16_t34 -1 x_r0_g16 <= 0 ;
1 p_r0_g50_h16_t34 -1 x_r0_g50 -1 x_r0_g16 >= -1 ;
1 p_r0_g73_h39_t34 -1 x_r0_g73 <= 0 ;
1 p_r0_g73_h39_t34 -1 x_r0_g39 <= 0 ;
1 p_r0_g73_h39_t34 -1 x_r0_g73 -1 x_r0_g39 >= -1 ;
1 p_r0_g74_h40_t34 -1 x_r0_g74 <= 0 ;
1 p_r0_g74_h40_t34 -1 x_r0_g40 <= 0 ;
1 p_r0_g74_h40_t34 -1 x_r0_g74 -1 x_r0_g40 >= -1 ;
1 p_r0_g88_h54_t34 -1 x_r0_g88 <= 0 ;
1 p_r0_g88_h54_t34 -1 x_r0_g54 <= 0 ;
1 p_r0_g88_h54_t34 -1 x_r0_g88 -1 x_r0_g54 >= -1 ;
1 p_r0_g111_h77_t34 -1 x_r0_g111 <= 0 ;
1 p_r0_g111_h77_t34 -1 x_r0_g77 <= 0 ;
1 p_r0_g111_h77_t34 -1 x_r0_g111 -1 x_r0_g77 >= -1 ;
1 p_r0_g135_h101_t34 -1 x_r0_g135 <= 0 ;
1 p_r0_g135_h101_t34 -1 x_r0_g101 <= 0 ;
1 p_r0_g135_h101_t34 -1 x_r0_g135 -1 x_r0_g101 >= -1 ;
1 p_r0_g144_h110_t34 -1 x_r0_g144 <= 0 ;
1 p_r0_g144_h110_t34 -1 x_r0_g110 <= 0 ;
1 p_r0_g144_h110_t34 -1 x_r0_g144 -1 x_r0_g110 >= -1 ;
1 p_r0_g150_h116_t34 -1 x_r0_g150 <= 0 ;
1 p_r0_g150_h116_t34 -1 x_r0_g116 <= 0 ;
1 p_r0_g150_h116_t34 -1 x_r0_g150 -1 x_r0_g116 >= -1 ;
1 p_r1_g76_h42_t34 -1 x_r1_g76 <= 0 ;
1 p_r1_g76_h42_t34 -1 x_r1_g42 <= 0 ;
1 p_r1_g76_h42_t34 -1 x_r1_g76 -1 x_r1_g42 >= -1 ;
1 p_r1_g77_h43_t34 -1 x_r1_g77 <= 0 ;
1 p_r1_g77_h43_t34 -1 x_r1_g43 <= 0 ;
1 p_r1_g77_h43_t34 -1 x_r1_g77 -1 x_r1_g43 >= -1 ;
1 p_r1_g92_h58_t34 -1 x_r1_g92 <= 0 ;
1 p_r1_g92_h58_t34 -1 x_r1_g58 <= 0 ;
1 p_r1_g92_h58_t34 -1 x_r1_g92 -1 x_r1_g58 >= -1 ;
1 p_r1_g98_h64_t34 -1 x_r1_g98 <= 0 ;
1 p_r1_g98_h64_t34 -1 x_r1_g64 <= 0 ;
1 p_r1_g98_h64_t34 -1 x_r1_g98 -1 x_r1_g64 >= -1 ;
1 p_r1_g116_h82_t34 -1 x_r1_g116 <= 0 ;
1 p_r1_g116_h82_t34 -1 x_r1_g82 <= 0 ;
1 p_r1_g116_h82_t34 -1 x_r1_g116 -1 x_r1_g82 >= -1 ;
1 p_r1_g128_h94_t34 -1 x_r1_g128 <= 0 ;
1 p_r1_g128_h94_t34 -1 x_r1_g94 <= 0 ;
1 p_r1_g128_h94_t34 -1 x_r1_g128 -1 x_r1_g94 >= -1 ;
1 p_r1_g132_h98_t34 -1 x_r1_g132 <= 0 ;
1 p_r1_g132_h98_t34 -1 x_r1_g98 <= 0 ;
1 p_r1_g132_h98_t34 -1 x_r1_g132 -1 x_r1_g98 >= -1 ;
1 p_r1_g135_h101_t34 -1 x_r1_g135 <= 0 ;
1 p_r1_g135_h101_t34 -1 x_r1_g101 <= 0 ;
1 p_r1_g135_h101_t34 -1 x_r1_g135 -1 x_r1_g101 >= -1 ;
1 p_r1_g164_h130_t34 -1 x_r1_g164 <= 0 ;
1 p_r1_g164_h130_t34 -1 x_r1_g130 <= 0 ;
1 p_r1_g164_h130_t34 -1 x_r1_g164 -1 x_r1_g130 >= -1 ;
1 p_r2_g5_h138_t34 -1 x_r2_g5 <= 0 ;
1 p_r2_g5_h138_t34 -1 x_r2_g138 <= 0 ;
1 p_r2_g5_h138_t34 -1 x_r2_g5 -1 x_r2_g138 >= -1 ;
1 p_r2_g6_h139_t34 -1 x_r2_g6 <= 0 ;
1 p_r2_g6_h139_t34 -1 x_r2_g139 <= 0 ;
1 p_r2_g6_h139_t34 -1 x_r2_g6 -1 x_r2_g139 >= -1 ;
1 p_r2_g13_h146_t34 -1 x_r2_g13 <= 0 ;
1 p_r2_g13_h146_t34 -1 x_r2_g146 <= 0 ;
1 p_r2_g13_h146_t34 -1 x_r2_g13 -1 x_r2_g146 >= -1 ;
1 p_r2_g41_h7_t34 -1 x_r2_g41 <= 0 ;
1 p_r2_g41_h7_t34 -1 x_r2_g7 <= 0 ;
1 p_r2_g41_h7_t34 -1 x_r2_g41 -1 x_r2_g7 >= -1 ;
1 p_r2_g47_h13_t34 -1 x_r2_g47 <= 0 ;
1 p_r2_g47_h13_t34 -1 x_r2_g13 <= 0 ;
1 p_r2_g47_h13_t34 -1 x_r2_g47 -1 x_r2_g13 >= -1 ;
1 p_r2_g51_h17_t34 -1 x_r2_g51 <= 0 ;
1 p_r2_g51_h17_t34 -1 x_r2_g17 <= 0 ;
1 p_r2_g51_h17_t34 -1 x_r2_g51 -1 x_r2_g17 >= -1 ;
1 p_r2_g56_h22_t34 -1 x_r2_g56 <= 0 ;
1 p_r2_g56_h22_t34 -1 x_r2_g22 <= 0 ;
1 p_r2_g56_h22_t34 -1 x_r2_g56 -1 x_r2_g22 >= -1 ;
1 p_r2_g63_h29_t34 -1 x_r2_g63 <= 0 ;
1 p_r2_g63_h29_t34 -1 x_r2_g29 <= 0 ;
1 p_r2_g63_h29_t34 -1 x_r2_g63 -1 x_r2_g29 >= -1 ;
1 p_r2_g75_h41_t34 -1 x_r2_g75 <= 0 ;
1 p_r2_g75_h41_t34 -1 x_r2_g41 <= 0 ;
1 p_r2_g75_h41_t34 -1 x_r2_g75 -1 x_r2_g41 >= -1 ;
1 p_r2_g76_h42_t34 -1 x_r2_g76 <= 0 ;
1 p_r2_g76_h42_t34 -1 x_r2_g42 <= 0 ;
1 p_r2_g76_h42_t34 -1 x_r2_g76 -1 x_r2_g42 >= -1 ;
1 p_r2_g85_h51_t34 -1 x_r2_g85 <= 0 ;
1 p_r2_g85_h51_t34 -1 x_r2_g51 <= 0 ;
1 p_r2_g85_h51_t34 -1 x_r2_g85 -1 x_r2_g51 >= -1 ;
1 p_r2_g114_h80_t34 -1 x_r2_g114 <= 0 ;
1 p_r2_g114_h80_t34 -1 x_r2_g80 <= 0 ;
1 p_r2_g114_h80_t34 -1 x_r2_g114 -1 x_r2_g80 >= -1 ;
1 p_r2_g119_h85_t34 -1 x_r2_g119 <= 0 ;
1 p_r2_g119_h85_t34 -1 x_r2_g85 <= 0 ;
1 p_r2_g119_h85_t34 -1 x_r2_g119 -1 x_r2_g85 >= -1 ;
1 p_r2_g127_h93_t34 -1 x_r2_g127 <= 0 ;
1 p_r2_g127_h93_t34 -1 x_r2_g93 <= 0 ;
1 p_r2_g127_h93_t34 -1 x_r2_g127 -1 x_r2_g93 >= -1 ;
1 p_r2_g145_h111_t34 -1 x_r2_g145 <= 0 ;
1 p_r2_g145_h111_t34 -1 x_r2_g111 <= 0 ;
1 p_r2_g145_h111_t34 -1 x_r2_g145 -1 x_r2_g111 >= -1 ;
1 p_r2_g146_h112_t34 -1 x_r2_g146 <= 0 ;
1 p_r2_g146_h112_t34 -1 x_r2_g112 <= 0 ;
1 p_r2_g146_h112_t34 -1 x_r2_g146 -1 x_r2_g112 >= -1 ;
1 p_r2_g161_h127_t34 -1 x_r2_g161 <= 0 ;
1 p_r2_g161_h127_t34 -1 x_r2_g127 <= 0 ;
1 p_r2_g161_h127_t34 -1 x_r2_g161 -1 x_r2_g127 >= -1 ;
1 p_r3_g0_h133_t34 -1 x_r3_g0 <= 0 ;
1 p_r3_g0_h133_t34 -1 x_r3_g133 <= 0 ;
1 p_r3_g0_h133_t34 -1 x_r3_g0 -1 x_r3_g133 >= -1 ;
1 p_r3_g6_h139_t34 -1 x_r3_g6 <= 0 ;
1 p_r3_g6_h139_t34 -1 x_r3_g139 <= 0 ;
1 p_r3_g6_h139_t34 -1 x_r3_g6 -1 x_r3_g139 >= -1 ;
1 p_r3_g55_h21_t34 -1 x_r3_g55 <= 0 ;
1 p_r3_g55_h21_t34 -1 x_r3_g21 <= 0 ;
1 p_r3_g55_h21_t34 -1 x_r3_g55 -1 x_r3_g21 >= -1 ;
1 p_r3_g63_h29_t34 -1 x_r3_g63 <= 0 ;
1 p_r3_g63_h29_t34 -1 x_r3_g29 <= 0 ;
1 p_r3_g63_h29_t34 -1 x_r3_g63 -1 x_r3_g29 >= -1 ;
1 p_r3_g89_h55_t34 -1 x_r3_g89 <= 0 ;
1 p_r3_g89_h55_t34 -1 x_r3_g55 <= 0 ;
1 p_r3_g89_h55_t34 -1 x_r3_g89 -1 x_r3_g55 >= -1 ;
1 p_r3_g97_h63_t34 -1 x_r3_g97 <= 0 ;
1 p_r3_g97_h63_t34 -1 x_r3_g63 <= 0 ;
1 p_r3_g97_h63_t34 -1 x_r3_g97 -1 x_r3_g63 >= -1 ;
1 p_r3_g112_h78_t34 -1 x_r3_g112 <= 0 ;
1 p_r3_g112_h78_t34 -1 x_r3_g78 <= 0 ;
1 p_r3_g112_h78_t34 -1 x_r3_g112 -1 x_r3_g78 >= -1 ;
1 p_r3_g141_h107_t34 -1 x_r3_g141 <= 0 ;
1 p_r3_g141_h107_t34 -1 x_r3_g107 <= 0 ;
1 p_r3_g141_h107_t34 -1 x_r3_g141 -1 x_r3_g107 >= -1 ;
1 p_r3_g146_h112_t34 -1 x_r3_g146 <= 0 ;
1 p_r3_g146_h112_t34 -1 x_r3_g112 <= 0 ;
1 p_r3_g146_h112_t34 -1 x_r3_g146 -1 x_r3_g112 >= -1 ;
1 p_r3_g149_h115_t34 -1 x_r3_g149 <= 0 ;
1 p_r3_g149_h115_t34 -1 x_r3_g115 <= 0 ;
1 p_r3_g149_h115_t34 -1 x_r3_g149 -1 x_r3_g115 >= -1 ;
1 d_34 -1 x_r0_g13 -1 x_r0_g16 -2 x_r0_g25 -1 x_r0_g39 -1 x_r0_g41 -1 x_r0_g46 -1 x_r0_g49 -1 x_r0_g54 -1 x_r0_g66 -1 x_r0_g77 -1 x_r0_g88 -1 x_r0_g99 -1 x_r0_g101 -1 x_r0_g112 -1 x_r0_g117 -1 x_r0_g132 -2 x_r0_g136 -1 x_r0_g137 -1 x_r0_g144 -2 x_r0_g152 -1 x_r0_g156 -1 x_r0_g163 -1 x_r1_g19 -1 x_r1_g27 -1 x_r1_g28 -1 x_r1_g33 -2 x_r1_g35 -1 x_r1_g36 -2 x_r1_g45 -1 x_r1_g46 -1 x_r1_g71 -2 x_r1_g78 -1 x_r1_g85 -1 x_r1_g89 -1 x_r1_g91 -1 x_r1_g99 -1 x_r1_g114 -1 x_r1_g120 -1 x_r1_g130 -1 x_r1_g132 -1 x_r1_g157 -1 x_r1_g164 -1 x_r2_g5 -1 x_r2_g7 -1 x_r2_g14 -1 x_r2_g17 -2 x_r2_g34 -1 x_r2_g35 -1 x_r2_g56 -1 x_r2_g76 -1 x_r2_g80 -1 x_r2_g87 -1 x_r2_g106 -1 x_r2_g112 -1 x_r2_g114 -2 x_r2_g116 -1 x_r2_g118 -1 x_r2_g119 -1 x_r2_g132 -1 x_r2_g133 -1 x_r2_g138 -1 x_r2_g139 -1 x_r2_g151 -1 x_r2_g161 -2 x_r3_g4 -1 x_r3_g6 -2 x_r3_g12 -1 x_r3_g21 -1 x_r3_g29 -1 x_r3_g31 -2 x_r3_g52 -1 x_r3_g53 -1 x_r3_g54 -1 x_r3_g56 -1 x_r3_g61 -1 x_r3_g66 -2 x_r3_g77 -1 x_r3_g80 -1 x_r3_g83 -1 x_r3_g84 -1 x_r3_g89 -2 x_r3_g108 -1 x_r3_g115 -2 x_r3_g132 -1 x_r3_g133 -1 x_r3_g141 -1 x_r3_g146 -1 x_r3_g150 -1 x_r3_g160 -1 p_r0_g6_h139_t34 -1 p_r0_g23_h156_t34 -1 p_r0_g40_h6_t34 -1 p_r0_g47_h13_t34 -1 p_r0_g50_h16_t34 -1 p_r0_g73_h39_t34 -1 p_r0_g74_h40_t34 -1 p_r0_g88_h54_t34 -1 p_r0_g111_h77_t34 -1 p_r0_g135_h101_t34 -1 p_r0_g144_h110_t34 -1 p_r0_g150_h116_t34 -1 p_r1_g76_h42_t34 -1 p_r1_g77_h43_t34 -1 p_r1_g92_h58_t34 -1 p_r1_g98_h64_t34 -1 p_r1_g116_h82_t34 -1 p_r1_g128_h94_t34 -1 p_r1_g132_h98_t34 -1 p_r1_g135_h101_t34 -1 p_r1_g164_h130_t34 -1 p_r2_g5_h138_t34 -1 p_r2_g6_h139_t34 -1 p_r2_g13_h146_t34 -1 p_r2_g41_h7_t34 -1 p_r2_g47_h13_t34 -1 p_r2_g51_h17_t34 -1 p_r2_g56_h22_t34 -1 p_r2_g63_h29_t34 -1 p_r2_g75_h41_t34 -1 p_r2_g76_h42_t34 -1 p_r2_g85_h51_t34 -1 p_r2_g114_h80_t34 -1 p_r2_g119_h85_t34 -1 p_r2_g127_h93_t34 -1 p_r2_g145_h111_t34 -1 p_r2_g146_h112_t34 -1 p_r2_g161_h127_t34 -1 p_r3_g0_h133_t34 -1 p_r3_g6_h139_t34 -1 p_r3_g55_h21_t34 -1 p_r3_g63_h29_t34 -1 p_r3_g89_h55_t34 -1 p_r3_g97_h63_t34 -1 p_r3_g112_h78_t34 -1 p_r3_g141_h107_t34 -1 p_r3_g146_h112_t34 -1 p_r3_g149_h115_t34 = -77 ;
1 d_34 -1 u_34 <= 0 ;
-1 d_34 -1 u_34 <= 0 ;
1 u_34 -1 M <= 0 ;
1 u_34 <= 2 ;
1 p_r0_g6_h132_t41 -1 x_r0_g6 <= 0 ;
1 p_r0_g6_h132_t41 -1 x_r0_g132 <= 0 ;
1 p_r0_g6_h132_t41 -1 x_r0_g6 -1 x_r0_g132 >= -1 ;
1 p_r0_g13_h139_t41 -1 x_r0_g13 <= 0 ;
1 p_r0_g13_h139_t41 -1 x_r0_g139 <= 0 ;
1 p_r0_g13_h139_t41 -1 x_r0_g13 -1 x_r0_g139 >= -1 ;
1 p_r0_g47_h6_t41 -1 x_r0_g47 <= 0 ;
1 p_r0_g47_h6_t41 -1 x_r0_g6 <= 0 ;
1 p_r0_g47_h6_t41 -1 x_r0_g47 -1 x_r0_g6 >= -1 ;
1 p_r0_g54_h13_t41 -1 x_r0_g54 <= 0 ;
1 p_r0_g54_h13_t41 -1 x_r0_g13 <= 0 ;
1 p_r0_g54_h13_t41 -1 x_r0_g54 -1 x_r0_g13 >= -1 ;
1 p_r0_g66_h25_t41 -1 x_r0_g66 <= 0 ;
1 p_r0_g66_h25_t41 -1 x_r0_g25 <= 0 ;
1 p_r0_g66_h25_t41 -1 x_r0_g66 -1 x_r0_g25 >= -1 ;
1 p_r0_g88_h47_t41 -1 x_r0_g88 <= 0 ;
1 p_r0_g88_h47_t41 -1 x_r0_g47 <= 0 ;
1 p_r0_g88_h47_t41 -1 x_r0_g88 -1 x_r0_g47 >= -1 ;
1 p_r0_g95_h54_t41 -1 x_r0_g95 <= 0 ;
1 p_r0_g95_h54_t41 -1 x_r0_g54 <= 0 ;
1 p_r0_g95_h54_t41 -1 x_r0_g95 -1 x_r0_g54 >= -1 ;
1 p_r0_g136_h95_t41 -1 x_r0_g136 <= 0 ;
1 p_r0_g136_h95_t41 -1 x_r0_g95 <= 0 ;
1 p_r0_g136_h95_t41 -1 x_r0_g136 -1 x_r0_g95 >= -1 ;
1 p_r0_g152_h111_t41 -1 x_r0_g152 <= 0 ;
1 p_r0_g152_h111_t41 -1 x_r0_g111 <= 0 ;
1 p_r0_g152_h111_t41 -1 x_r0_g152 -1 x_r0_g111 >= -1 ;
1 p_r1_g38_h164_t41 -1 x_r1_g38 <= 0 ;
1 p_r1_g38_h164_t41 -1 x_r1_g164 <= 0 ;
1 p_r1_g38_h164_t41 -1 x_r1_g38 -1 x_r1_g164 >= -1 ;
1 p_r1_g76_h35_t41 -1 x_r1_g76 <= 0 ;
1 p_r1_g76_h35_t41 -1 x_r1_g35 <= 0 ;
1 p_r1_g76_h35_t41 -1 x_r1_g76 -1 x_r1_g35 >= -1 ;
1 p_r1_g77_h36_t41 -1 x_r1_g77 <= 0 ;
1 p_r1_g77_h36_t41 -1 x_r1_g36 <= 0 ;
1 p_r1_g77_h36_t41 -1 x_r1_g77 -1 x_r1_g36 >= -1 ;
1 p_r1_g99_h58_t41 -1 x_r1_g99 <= 0 ;
1 p_r1_g99_h58_t41 -1 x_r1_g58 <= 0 ;
1 p_r1_g99_h58_t41 -1 x_r1_g99 -1 x_r1_g58 >= -1 ;
1 p_r1_g130_h89_t41 -1 x_r1_g130 <= 0 ;
1 p_r1_g130_h89_t41 -1 x_r1_g89 <= 0 ;
1 p_r1_g130_h89_t41 -1 x_r1_g130 -1 x_r1_g89 >= -1 ;
1 p_r1_g132_h91_t41 -1 x_r1_g132 <= 0 ;
1 p_r1_g132_h91_t41 -1 x_r1_g91 <= 0 ;
1 p_r1_g132_h91_t41 -1 x_r1_g132 -1 x_r1_g91 >= -1 ;
1 p_r1_g135_h94_t41 -1 x_r1_g135 <= 0 ;
1 p_r1_g135_h94_t41 -1 x_r1_g94 <= 0 ;
1 p_r1_g135_h94_t41 -1 x_r1_g135 -1 x_r1_g94 >= -1 ;
1 p_r1_g157_h116_t41 -1 x_r1_g157 <= 0 ;
1 p_r1_g157_h116_t41 -1 x_r1_g116 <= 0 ;
1 p_r1_g157_h116_t41 -1 x_r1_g157 -1 x_r1_g116 >= -1 ;
1 p_r2_g6_h132_t41 -1 x_r2_g6 <= 0 ;
1 p_r2_g6_h132_t41 -1 x_r2_g132 <= 0 ;
1 p_r2_g6_h132_t41 -1 x_r2_g6 -1 x_r2_g132 >= -1 ;
1 p_r2_g7_h133_t41 -1 x_r2_g7 <= 0 ;
1 p_r2_g7_h133_t41 -1 x_r2_g133 <= 0 ;
1 p_r2_g7_h133_t41 -1 x_r2_g7 -1 x_r2_g133 >= -1 ;
1 p_r2_g13_h139_t41 -1 x_r2_g13 <= 0 ;
1 p_r2_g13_h139_t41 -1 x_r2_g139 <= 0 ;
1 p_r2_g13_h139_t41 -1 x_r2_g13 -1 x_r2_g139 >= -1 ;
1 p_r2_g35_h161_t41 -1 x_r2_g35 <= 0 ;
1 p_r2_g35_h161_t41 -1 x_r2_g161 <= 0 ;
1 p_r2_g35_h161_t41 -1 x_r2_g35 -1 x_r2_g161 >= -1 ;
1 p_r2_g47_h6_t41 -1 x_r2_g47 <= 0 ;
1 p_r2_g47_h6_t41 -1 x_r2_g6 <= 0 ;
1 p_r2_g47_h6_t41 -1 x_r2_g47 -1 x_r2_g6 >= -1 ;
1 p_r2_g63_h22_t41 -1 x_r2_g63 <= 0 ;
1 p_r2_g63_h22_t41 -1 x_r2_g22 <= 0 ;
1 p_r2_g63_h22_t41 -1 x_r2_g63 -1 x_r2_g22 >= -1 ;
1 p_r2_g75_h34_t41 -1 x_r2_g75 <= 0 ;
1 p_r2_g75_h34_t41 -1 x_r2_g34 <= 0 ;
1 p_r2_g75_h34_t41 -1 x_r2_g75 -1 x_r2_g34 >= -1 ;
1 p_r2_g76_h35_t41 -1 x_r2_g76 <= 0 ;
1 p_r2_g76_h35_t41 -1 x_r2_g35 <= 0 ;
1 p_r2_g76_h35_t41 -1 x_r2_g76 -1 x_r2_g35 >= -1 ;
1 p_r2_g116_h75_t41 -1 x_r2_g116 <= 0 ;
1 p_r2_g116_h75_t41 -1 x_r2_g75 <= 0 ;
1 p_r2_g116_h75_t41 -1 x_r2_g116 -1 x_r2_g75 >= -1 ;
1 p_r3_g6_h132_t41 -1 x_r3_g6 <= 0 ;
1 p_r3_g6_h132_t41 -1 x_r3_g132 <= 0 ;
1 p_r3_g6_h132_t41 -1 x_r3_g6 -1 x_r3_g132 >= -1 ;
1 p_r3_g53_h12_t41 -1 x_r3_g53 <= 0 ;
1 p_r3_g53_h12_t41 -1 x_r3_g12 <= 0 ;
1 p_r3_g53_h12_t41 -1 x_r3_g53 -1 x_r3_g12 >= -1 ;
1 p_r3_g97_h56_t41 -1 x_r3_g97 <= 0 ;
1 p_r3_g97_h56_t41 -1 x_r3_g56 <= 0 ;
1 p_r3_g97_h56_t41 -1 x_r3_g97 -1 x_r3_g56 >= -1 ;
1 p_r3_g107_h66_t41 -1 x_r3_g107 <= 0 ;
1 p_r3_g107_h66_t41 -1 x_r3_g66 <= 0 ;
1 p_r3_g107_h66_t41 -1 x_r3_g107 -1 x_r3_g66 >= -1 ;
1 p_r3_g121_h80_t41 -1 x_r3_g121 <= 0 ;
1 p_r3_g121_h80_t41 -1 x_r3_g80 <= 0 ;
1 p_r3_g121_h80_t41 -1 x_r3_g121 -1 x_r3_g80 >= -1 ;
1 p_r3_g125_h84_t41 -1 x_r3_g125 <= 0 ;
1 p_r3_g125_h84_t41 -1 x_r3_g84 <= 0 ;
1 p_r3_g125_h84_t41 -1 x_r3_g125 -1 x_r3_g84 >= -1 ;
1 p_r3_g149_h108_t41 -1 x_r3_g149 <= 0 ;
1 p_r3_g149_h108_t41 -1 x_r3_g108 <= 0 ;
1 p_r3_g149_h108_t41 -1 x_r3_g149 -1 x_r3_g108 >= -1 ;
1 d_41 -1 x_r0_g16 -1 x_r0_g23 -1 x_r0_g25 -1 x_r0_g39 -1 x_r0_g44 -1 x_r0_g46 -1 x_r0_g49 -2 x_r0_g77 -1 x_r0_g99 -1 x_r0_g101 -1 x_r0_g110 -1 x_r0_g111 -1 x_r0_g116 -1 x_r0_g117 -1 x_r0_g137 -1 x_r0_g139 -1 x_r0_g144 -1 x_r0_g156 -2 x_r0_g163 -1 x_r1_g16 -1 x_r1_g20 -1 x_r1_g27 -2 x_r1_g28 -2 x_r1_g29 -1 x_r1_g33 -1 x_r1_g38 -1 x_r1_g42 -1 x_r1_g43 -1 x_r1_g46 -1 x_r1_g71 -2 x_r1_g78 -1 x_r1_g82 -1 x_r1_g85 -1 x_r1_g94 -1 x_r1_g98 -1 x_r1_g99 -1 x_r1_g114 -1 x_r1_g120 -1 x_r1_g128 -1 x_r1_g131 -1 x_r1_g157 -1 x_r1_g164 -1 x_r2_g5 -1 x_r2_g7 -1 x_r2_g14 -1 x_r2_g17 -1 x_r2_g22 -1 x_r2_g34 -2 x_r2_g41 -2 x_r2_g42 -1 x_r2_g63 -2 x_r2_g80 -1 x_r2_g85 -2 x_r2_g87 -1 x_r2_g93 -1 x_r2_g106 -1 x_r2_g111 -1 x_r2_g112 -1 x_r2_g116 -2 x_r2_g119 -2 x_r2_g127 -1 x_r2_g139 -1 x_r2_g145 -2 x_r2_g146 -2 x_r2_g151 -1 x_r2_g161 -1 x_r3_g0 -1 x_r3_g4 -1 x_r3_g6 -1 x_r3_g12 -1 x_r3_g21 -1 x_r3_g53 -1 x_r3_g54 -1 x_r3_g61 -1 x_r3_g63 -1 x_r3_g68 -2 x_r3_g77 -2 x_r3_g78 -1 x_r3_g80 -2 x_r3_g82 -1 x_r3_g83 -1 x_r3_g84 -1 x_r3_g97 -1 x_r3_g107 -1 x_r3_g115 -1 x_r3_g121 -2 x_r3_g122 -1 x_r3_g125 -2 x_r3_g139 -1 x_r3_g146 -1 x_r3_g160 -1 p_r0_g6_h132_t41 -1 p_r0_g13_h139_t41 -1 p_r0_g47_h6_t41 -1 p_r0_g54_h13_t41 -1 p_r0_g66_h25_t41 -1 p_r0_g88_h47_t41 -1 p_r0_g95_h54_t41 -1 p_r0_g136_h95_t41 -1 p_r0_g152_h111_t41 -1 p_r1_g38_h164_t41 -1 p_r1_g76_h35_t41 -1 p_r1_g77_h36_t41 -1 p_r1_g99_h58_t41 -1 p_r1_g130_h89_t41 -1 p_r1_g132_h91_t41 -1 p_r1_g135_h94_t41 -1 p_r1_g157_h116_t41 -1 p_r2_g6_h132_t41 -1 p_r2_g7_h133_t41 -1 p_r2_g13_h139_t41 -1 p_r2_g35_h161_t41 -1 p_r2_g47_h6_t41 -1 p_r2_g63_h22_t41 -1 p_r2_g75_h34_t41 -1 p_r2_g76_h35_t41 -1 p_r2_g116_h75_t41 -1 p_r3_g6_h132_t41 -1 p_r3_g53_h12_t41 -1 p_r3_g97_h56_t41 -1 p_r3_g107_h66_t41 -1 p_r3_g121_h80_t41 -1 p_r3_g125_h84_t41 -1 p_r3_g149_h108_t41 = -79 ;
1 d_41 -1 u_41 <= 0 ;
-1 d_41 -1 u_41 <= 0 ;
1 u_41 -1 M <= 0 ;
1 u_41 <= 2 ;
1 p_r0_g25_h150_t42 -1 x_r0_g25 <= 0 ;
1 p_r0_g25_h150_t42 -1 x_r0_g150 <= 0 ;
1 p_r0_g25_h150_t42 -1 x_r0_g25 -1 x_r0_g150 >= -1 ;
1 p_r0_g77_h35_t42 -1 x_r0_g77 <= 0 ;
1 p_r0_g77_h35_t42 -1 x_r0_g35 <= 0 ;
1 p_r0_g77_h35_t42 -1 x_r0_g77 -1 x_r0_g35 >= -1 ;
1 p_r0_g88_h46_t42 -1 x_r0_g88 <= 0 ;
1 p_r0_g88_h46_t42 -1 x_r0_g46 <= 0 ;
1 p_r0_g88_h46_t42 -1 x_r0_g88 -1 x_r0_g46 >= -1 ;
1 p_r0_g116_h74_t42 -1 x_r0_g116 <= 0 ;
1 p_r0_g116_h74_t42 -1 x_r0_g74 <= 0 ;
1 p_r0_g116_h74_t42 -1 x_r0_g116 -1 x_r0_g74 >= -1 ;
1 p_r0_g137_h95_t42 -1 x_r0_g137 <= 0 ;
1 p_r0_g137_h95_t42 -1 x_r0_g95 <= 0 ;
1 p_r0_g137_h95_t42 -1 x_r0_g137 -1 x_r0_g95 >= -1 ;
1 p_r0_g152_h110_t42 -1 x_r0_g152 <= 0 ;
1 p_r0_g152_h110_t42 -1 x_r0_g110 <= 0 ;
1 p_r0_g152_h110_t42 -1 x_r0_g152 -1 x_r0_g110 >= -1 ;
1 p_r1_g42_h0_t42 -1 x_r1_g42 <= 0 ;
1 p_r1_g42_h0_t42 -1 x_r1_g0 <= 0 ;
1 p_r1_g42_h0_t42 -1 x_r1_g42 -1 x_r1_g0 >= -1 ;
1 p_r1_g58_h16_t42 -1 x_r1_g58 <= 0 ;
1 p_r1_g58_h16_t42 -1 x_r1_g16 <= 0 ;
1 p_r1_g58_h16_t42 -1 x_r1_g58 -1 x_r1_g16 >= -1 ;
1 p_r1_g71_h29_t42 -1 x_r1_g71 <= 0 ;
1 p_r1_g71_h29_t42 -1 x_r1_g29 <= 0 ;
1 p_r1_g71_h29_t42 -1 x_r1_g71 -1 x_r1_g29 >= -1 ;
1 p_r1_g77_h35_t42 -1 x_r1_g77 <= 0 ;
1 p_r1_g77_h35_t42 -1 x_r1_g35 <= 0 ;
1 p_r1_g77_h35_t42 -1 x_r1_g77 -1 x_r1_g35 >= -1 ;
1 p_r1_g78_h36_t42 -1 x_r1_g78 <= 0 ;
1 p_r1_g78_h36_t42 -1 x_r1_g36 <= 0 ;
1 p_r1_g78_h36_t42 -1 x_r1_g78 -1 x_r1_g36 >= -1 ;
1 p_r1_g85_h43_t42 -1 x_r1_g85 <= 0 ;
1 p_r1_g85_h43_t42 -1 x_r1_g43 <= 0 ;
1 p_r1_g85_h43_t42 -1 x_r1_g85 -1 x_r1_g43 >= -1 ;
1 p_r1_g120_h78_t42 -1 x_r1_g120 <= 0 ;
1 p_r1_g120_h78_t42 -1 x_r1_g78 <= 0 ;
1 p_r1_g120_h78_t42 -1 x_r1_g120 -1 x_r1_g78 >= -1 ;
1 p_r1_g131_h89_t42 -1 x_r1_g131 <= 0 ;
1 p_r1_g131_h89_t42 -1 x_r1_g89 <= 0 ;
1 p_r1_g131_h89_t42 -1 x_r1_g131 -1 x_r1_g89 >= -1 ;
1 p_r2_g7_h132_t42 -1 x_r2_g7 <= 0 ;
1 p_r2_g7_h132_t42 -1 x_r2_g132 <= 0 ;
1 p_r2_g7_h132_t42 -1 x_r2_g7 -1 x_r2_g132 >= -1 ;
1 p_r2_g13_h138_t42 -1 x_r2_g13 <= 0 ;
1 p_r2_g13_h138_t42 -1 x_r2_g138 <= 0 ;
1 p_r2_g13_h138_t42 -1 x_r2_g13 -1 x_r2_g138 >= -1 ;
1 p_r2_g14_h139_t42 -1 x_r2_g14 <= 0 ;
1 p_r2_g14_h139_t42 -1 x_r2_g139 <= 0 ;
1 p_r2_g14_h139_t42 -1 x_r2_g14 -1 x_r2_g139 >= -1 ;
1 p_r2_g47_h5_t42 -1 x_r2_g47 <= 0 ;
1 p_r2_g47_h5_t42 -1 x_r2_g5 <= 0 ;
1 p_r2_g47_h5_t42 -1 x_r2_g47 -1 x_r2_g5 >= -1 ;
1 p_r2_g56_h14_t42 -1 x_r2_g56 <= 0 ;
1 p_r2_g56_h14_t42 -1 x_r2_g14 <= 0 ;
1 p_r2_g56_h14_t42 -1 x_r2_g56 -1 x_r2_g14 >= -1 ;
1 p_r2_g76_h34_t42 -1 x_r2_g76 <= 0 ;
1 p_r2_g76_h34_t42 -1 x_r2_g34 <= 0 ;
1 p_r2_g76_h34_t42 -1 x_r2_g76 -1 x_r2_g34 >= -1 ;
1 p_r2_g93_h51_t42 -1 x_r2_g93 <= 0 ;
1 p_r2_g93_h51_t42 -1 x_r2_g51 <= 0 ;
1 p_r2_g93_h51_t42 -1 x_r2_g93 -1 x_r2_g51 >= -1 ;
1 p_r2_g118_h76_t42 -1 x_r2_g118 <= 0 ;
1 p_r2_g118_h76_t42 -1 x_r2_g76 <= 0 ;
1 p_r2_g118_h76_t42 -1 x_r2_g118 -1 x_r2_g76 >= -1 ;
1 p_r2_g127_h85_t42 -1 x_r2_g127 <= 0 ;
1 p_r2_g127_h85_t42 -1 x_r2_g85 <= 0 ;
1 p_r2_g127_h85_t42 -1 x_r2_g127 -1 x_r2_g85 >= -1 ;
1 p_r2_g161_h119_t42 -1 x_r2_g161 <= 0 ;
1 p_r2_g161_h119_t42 -1 x_r2_g119 <= 0 ;
1 p_r2_g161_h119_t42 -1 x_r2_g161 -1 x_r2_g119 >= -1 ;
1 p_r3_g0_h125_t42 -1 x_r3_g0 <= 0 ;
1 p_r3_g0_h125_t42 -1 x_r3_g125 <= 0 ;
1 p_r3_g0_h125_t42 -1 x_r3_g0 -1 x_r3_g125 >= -1 ;
1 p_r3_g21_h146_t42 -1 x_r3_g21 <= 0 ;
1 p_r3_g21_h146_t42 -1 x_r3_g146 <= 0 ;
1 p_r3_g21_h146_t42 -1 x_r3_g21 -1 x_r3_g146 >= -1 ;
1 p_r3_g54_h12_t42 -1 x_r3_g54 <= 0 ;
1 p_r3_g54_h12_t42 -1 x_r3_g12 <= 0 ;
1 p_r3_g54_h12_t42 -1 x_r3_g54 -1 x_r3_g12 >= -1 ;
1 p_r3_g63_h21_t42 -1 x_r3_g63 <= 0 ;
1 p_r3_g63_h21_t42 -1 x_r3_g21 <= 0 ;
1 p_r3_g63_h21_t42 -1 x_r3_g63 -1 x_r3_g21 >= -1 ;
1 p_r3_g97_h55_t42 -1 x_r3_g97 <= 0 ;
1 p_r3_g97_h55_t42 -1 x_r3_g55 <= 0 ;
1 p_r3_g97_h55_t42 -1 x_r3_g97 -1 x_r3_g55 >= -1 ;
1 p_r3_g108_h66_t42 -1 x_r3_g108 <= 0 ;
1 p_r3_g108_h66_t42 -1 x_r3_g66 <= 0 ;
1 p_r3_g108_h66_t42 -1 x_r3_g108 -1 x_r3_g66 >= -1 ;
1 p_r3_g122_h80_t42 -1 x_r3_g122 <= 0 ;
1 p_r3_g122_h80_t42 -1 x_r3_g80 <= 0 ;
1 p_r3_g122_h80_t42 -1 x_r3_g122 -1 x_r3_g80 >= -1 ;
1 p_r3_g125_h83_t42 -1 x_r3_g125 <= 0 ;
1 p_r3_g125_h83_t42 -1 x_r3_g83 <= 0 ;
1 p_r3_g125_h83_t42 -1 x_r3_g125 -1 x_r3_g83 >= -1 ;
1 p_r3_g139_h97_t42 -1 x_r3_g139 <= 0 ;
1 p_r3_g139_h97_t42 -1 x_r3_g97 <= 0 ;
1 p_r3_g139_h97_t42 -1 x_r3_g139 -1 x_r3_g97 >= -1 ;
1 p_r3_g149_h107_t42 -1 x_r3_g149 <= 0 ;
1 p_r3_g149_h107_t42 -1 x_r3_g107 <= 0 ;
1 p_r3_g149_h107_t42 -1 x_r3_g149 -1 x_r3_g107 >= -1 ;
1 p_r3_g150_h108_t42 -1 x_r3_g150 <= 0 ;
1 p_r3_g150_h108_t42 -1 x_r3_g108 <= 0 ;
1 p_r3_g150_h108_t42 -1 x_r3_g150 -1 x_r3_g108 >= -1 ;
1 d_42 -2 x_r0_g6 -1 x_r0_g13 -1 x_r0_g16 -1 x_r0_g23 -1 x_r0_g25 -1 x_r0_g35 -1 x_r0_g40 -1 x_r0_g47 -1 x_r0_g49 -1 x_r0_g54 -1 x_r0_g77 -2 x_r0_g101 -1 x_r0_g110 -1 x_r0_g112 -1 x_r0_g113 -1 x_r0_g116 -1 x_r0_g117 -1 x_r0_g128 -2 x_r0_g132 -1 x_r0_g136 -1 x_r0_g137 -1 x_r0_g139 -2 x_r0_g144 -1 x_r0_g163 -1 x_r1_g16 -1 x_r1_g20 -1 x_r1_g27 -1 x_r1_g28 -1 x_r1_g29 -1 x_r1_g35 -2 x_r1_g38 -1 x_r1_g42 -1 x_r1_g43 -2 x_r1_g45 -1 x_r1_g46 -1 x_r1_g58 -1 x_r1_g71 -1 x_r1_g77 -2 x_r1_g82 -1 x_r1_g85 -1 x_r1_g91 -2 x_r1_g98 -2 x_r1_g99 -1 x_r1_g114 -1 x_r1_g128 -1 x_r1_g130 -1 x_r1_g132 -1 x_r1_g135 -2 x_r1_g157 -1 x_r1_g164 -1 x_r2_g5 -1 x_r2_g6 -1 x_r2_g7 -1 x_r2_g22 -1 x_r2_g35 -1 x_r2_g41 -1 x_r2_g42 -1 x_r2_g56 -2 x_r2_g63 -1 x_r2_g75 -1 x_r2_g80 -1 x_r2_g85 -1 x_r2_g87 -2 x_r2_g106 -1 x_r2_g111 -2 x_r2_g116 -1 x_r2_g118 -2 x_r2_g125 -1 x_r2_g132 -1 x_r2_g145 -2 x_r2_g146 -1 x_r2_g151 -2 x_r3_g4 -1 x_r3_g12 -1 x_r3_g29 -1 x_r3_g52 -1 x_r3_g55 -1 x_r3_g56 -1 x_r3_g61 -2 x_r3_g68 -1 x_r3_g77 -1 x_r3_g78 -1 x_r3_g80 -2 x_r3_g82 -1 x_r3_g83 -1 x_r3_g89 -1 x_r3_g107 -1 x_r3_g112 -1 x_r3_g121 -1 x_r3_g133 -1 x_r3_g136 -1 x_r3_g141 -1 x_r3_g160 -1 p_r0_g25_h150_t42 -1 p_r0_g77_h35_t42 -1 p_r0_g88_h46_t42 -1 p_r0_g116_h74_t42 -1 p_r0_g137_h95_t42 -1 p_r0_g152_h110_t42 -1 p_r1_g42_h0_t42 -1 p_r1_g58_h16_t42 -1 p_r1_g71_h29_t42 -1 p_r1_g77_h35_t42 -1 p_r1_g78_h36_t42 -1 p_r1_g85_h43_t42 -1 p_r1_g120_h78_t42 -1 p_r1_g131_h89_t42 -1 p_r2_g7_h132_t42 -1 p_r2_g13_h138_t42 -1 p_r2_g14_h139_t42 -1 p_r2_g47_h5_t42 -1 p_r2_g56_h14_t42 -1 p_r2_g76_h34_t42 -1 p_r2_g93_h51_t42 -1 p_r2_g118_h76_t42 -1 p_r2_g127_h85_t42 -1 p_r2_g161_h119_t42 -1 p_r3_g0_h125_t42 -1 p_r3_g21_h146_t42 -1 p_r3_g54_h12_t42 -1 p_r3_g63_h21_t42 -1 p_r3_g97_h55_t42 -1 p_r3_g108_h66_t42 -1 p_r3_g122_h80_t42 -1 p_r3_g125_h83_t42 -1 p_r3_g139_h97_t42 -1 p_r3_g149_h107_t42 -1 p_r3_g150_h108_t42 = -76 ;
1 d_42 -1 u_42 <= 0 ;
-1 d_42 -1 u_42 <= 0 ;
1 u_42 -1 M <= 0 ;
1 u_42 <= 1 ;
1 p_r0_g13_h137_t43 -1 x_r0_g13 <= 0 ;
1 p_r0_g13_h137_t43 -1 x_r0_g137 <= 0 ;
1 p_r0_g13_h137_t43 -1 x_r0_g13 -1 x_r0_g137 >= -1 ;
1 p_r0_g39_h163_t43 -1 x_r0_g39 <= 0 ;
1 p_r0_g39_h163_t43 -1 x_r0_g163 <= 0 ;
1 p_r0_g39_h163_t43 -1 x_r0_g39 -1 x_r0_g163 >= -1 ;
1 p_r0_g49_h6_t43 -1 x_r0_g49 <= 0 ;
1 p_r0_g49_h6_t43 -1 x_r0_g6 <= 0 ;
1 p_r0_g49_h6_t43 -1 x_r0_g49 -1 x_r0_g6 >= -1 ;
1 p_r0_g66_h23_t43 -1 x_r0_g66 <= 0 ;
1 p_r0_g66_h23_t43 -1 x_r0_g23 <= 0 ;
1 p_r0_g66_h23_t43 -1 x_r0_g66 -1 x_r0_g23 >= -1 ;
1 p_r0_g116_h73_t43 -1 x_r0_g116 <= 0 ;
1 p_r0_g116_h73_t43 -1 x_r0_g73 <= 0 ;
1 p_r0_g116_h73_t43 -1 x_r0_g116 -1 x_r0_g73 >= -1 ;
1 p_r0_g117_h74_t43 -1 x_r0_g117 <= 0 ;
1 p_r0_g117_h74_t43 -1 x_r0_g74 <= 0 ;
1 p_r0_g117_h74_t43 -1 x_r0_g117 -1 x_r0_g74 >= -1 ;
1 p_r0_g144_h101_t43 -1 x_r0_g144 <= 0 ;
1 p_r0_g144_h101_t43 -1 x_r0_g101 <= 0 ;
1 p_r0_g144_h101_t43 -1 x_r0_g144 -1 x_r0_g101 >= -1 ;
1 p_r0_g156_h113_t43 -1 x_r0_g156 <= 0 ;
1 p_r0_g156_h113_t43 -1 x_r0_g113 <= 0 ;
1 p_r0_g156_h113_t43 -1 x_r0_g156 -1 x_r0_g113 >= -1 ;
1 p_r1_g33_h157_t43 -1 x_r1_g33 <= 0 ;
1 p_r1_g33_h157_t43 -1 x_r1_g157 <= 0 ;
1 p_r1_g33_h157_t43 -1 x_r1_g33 -1 x_r1_g157 >= -1 ;
1 p_r1_g43_h0_t43 -1 x_r1_g43 <= 0 ;
1 p_r1_g43_h0_t43 -1 x_r1_g0 <= 0 ;
1 p_r1_g43_h0_t43 -1 x_r1_g43 -1 x_r1_g0 >= -1 ;
1 p_r1_g71_h28_t43 -1 x_r1_g71 <= 0 ;
1 p_r1_g71_h28_t43 -1 x_r1_g28 <= 0 ;
1 p_r1_g71_h28_t43 -1 x_r1_g71 -1 x_r1_g28 >= -1 ;
1 p_r1_g76_h33_t43 -1 x_r1_g76 <= 0 ;
1 p_r1_g76_h33_t43 -1 x_r1_g33 <= 0 ;
1 p_r1_g76_h33_t43 -1 x_r1_g76 -1 x_r1_g33 >= -1 ;
1 p_r1_g78_h35_t43 -1 x_r1_g78 <= 0 ;
1 p_r1_g78_h35_t43 -1 x_r1_g35 <= 0 ;
1 p_r1_g78_h35_t43 -1 x_r1_g78 -1 x_r1_g35 >= -1 ;
1 p_r1_g85_h42_t43 -1 x_r1_g85 <= 0 ;
1 p_r1_g85_h42_t43 -1 x_r1_g42 <= 0 ;
1 p_r1_g85_h42_t43 -1 x_r1_g85 -1 x_r1_g42 >= -1 ;
1 p_r1_g89_h46_t43 -1 x_r1_g89 <= 0 ;
1 p_r1_g89_h46_t43 -1 x_r1_g46 <= 0 ;
1 p_r1_g89_h46_t43 -1 x_r1_g89 -1 x_r1_g46 >= -1 ;
1 p_r1_g101_h58_t43 -1 x_r1_g101 <= 0 ;
1 p_r1_g101_h58_t43 -1 x_r1_g58 <= 0 ;
1 p_r1_g101_h58_t43 -1 x_r1_g101 -1 x_r1_g58 >= -1 ;
1 p_r1_g114_h71_t43 -1 x_r1_g114 <= 0 ;
1 p_r1_g114_h71_t43 -1 x_r1_g71 <= 0 ;
1 p_r1_g114_h71_t43 -1 x_r1_g114 -1 x_r1_g71 >= -1 ;
1 p_r1_g120_h77_t43 -1 x_r1_g120 <= 0 ;
1 p_r1_g120_h77_t43 -1 x_r1_g77 <= 0 ;
1 p_r1_g120_h77_t43 -1 x_r1_g120 -1 x_r1_g77 >= -1 ;
1 p_r1_g128_h85_t43 -1 x_r1_g128 <= 0 ;
1 p_r1_g128_h85_t43 -1 x_r1_g85 <= 0 ;
1 p_r1_g128_h85_t43 -1 x_r1_g128 -1 x_r1_g85 >= -1 ;
1 p_r1_g132_h89_t43 -1 x_r1_g132 <= 0 ;
1 p_r1_g132_h89_t43 -1 x_r1_g89 <= 0 ;
1 p_r1_g132_h89_t43 -1 x_r1_g132 -1 x_r1_g89 >= -1 ;
1 p_r1_g135_h92_t43 -1 x_r1_g135 <= 0 ;
1 p_r1_g135_h92_t43 -1 x_r1_g92 <= 0 ;
1 p_r1_g135_h92_t43 -1 x_r1_g135 -1 x_r1_g92 >= -1 ;
1 p_r1_g157_h114_t43 -1 x_r1_g157 <= 0 ;
1 p_r1_g157_h114_t43 -1 x_r1_g114 <= 0 ;
1 p_r1_g157_h114_t43 -1 x_r1_g157 -1 x_r1_g114 >= -1 ;
1 p_r2_g14_h138_t43 -1 x_r2_g14 <= 0 ;
1 p_r2_g14_h138_t43 -1 x_r2_g138 <= 0 ;
1 p_r2_g14_h138_t43 -1 x_r2_g14 -1 x_r2_g138 >= -1 ;
1 p_r2_g17_h141_t43 -1 x_r2_g17 <= 0 ;
1 p_r2_g17_h141_t43 -1 x_r2_g141 <= 0 ;
1 p_r2_g17_h141_t43 -1 x_r2_g17 -1 x_r2_g141 >= -1 ;
1 p_r2_g22_h146_t43 -1 x_r2_g22 <= 0 ;
1 p_r2_g22_h146_t43 -1 x_r2_g146 <= 0 ;
1 p_r2_g22_h146_t43 -1 x_r2_g22 -1 x_r2_g146 >= -1 ;
1 p_r2_g56_h13_t43 -1 x_r2_g56 <= 0 ;
1 p_r2_g56_h13_t43 -1 x_r2_g13 <= 0 ;
1 p_r2_g56_h13_t43 -1 x_r2_g56 -1 x_r2_g13 >= -1 ;
1 p_r2_g85_h42_t43 -1 x_r2_g85 <= 0 ;
1 p_r2_g85_h42_t43 -1 x_r2_g42 <= 0 ;
1 p_r2_g85_h42_t43 -1 x_r2_g85 -1 x_r2_g42 >= -1 ;
1 p_r2_g106_h63_t43 -1 x_r2_g106 <= 0 ;
1 p_r2_g106_h63_t43 -1 x_r2_g63 <= 0 ;
1 p_r2_g106_h63_t43 -1 x_r2_g106 -1 x_r2_g63 >= -1 ;
1 p_r2_g118_h75_t43 -1 x_r2_g118 <= 0 ;
1 p_r2_g118_h75_t43 -1 x_r2_g75 <= 0 ;
1 p_r2_g118_h75_t43 -1 x_r2_g118 -1 x_r2_g75 >= -1 ;
1 p_r2_g119_h76_t43 -1 x_r2_g119 <= 0 ;
1 p_r2_g119_h76_t43 -1 x_r2_g76 <= 0 ;
1 p_r2_g119_h76_t43 -1 x_r2_g119 -1 x_r2_g76 >= -1 ;
1 p_r2_g161_h118_t43 -1 x_r2_g161 <= 0 ;
1 p_r2_g161_h118_t43 -1 x_r2_g118 <= 0 ;
1 p_r2_g161_h118_t43 -1 x_r2_g161 -1 x_r2_g118 >= -1 ;
1 p_r3_g12_h136_t43 -1 x_r3_g12 <= 0 ;
1 p_r3_g12_h136_t43 -1 x_r3_g136 <= 0 ;
1 p_r3_g12_h136_t43 -1 x_r3_g12 -1 x_r3_g136 >= -1 ;
1 p_r3_g55_h12_t43 -1 x_r3_g55 <= 0 ;
1 p_r3_g55_h12_t43 -1 x_r3_g12 <= 0 ;
1 p_r3_g55_h12_t43 -1 x_r3_g55 -1 x_r3_g12 >= -1 ;
1 p_r3_g97_h54_t43 -1 x_r3_g97 <= 0 ;
1 p_r3_g97_h54_t43 -1 x_r3_g54 <= 0 ;
1 p_r3_g97_h54_t43 -1 x_r3_g97 -1 x_r3_g54 >= -1 ;
1 p_r3_g121_h78_t43 -1 x_r3_g121 <= 0 ;
1 p_r3_g121_h78_t43 -1 x_r3_g78 <= 0 ;
1 p_r3_g121_h78_t43 -1 x_r3_g121 -1 x_r3_g78 >= -1 ;
1 p_r3_g125_h82_t43 -1 x_r3_g125 <= 0 ;
1 p_r3_g125_h82_t43 -1 x_r3_g82 <= 0 ;
1 p_r3_g125_h82_t43 -1 x_r3_g125 -1 x_r3_g82 >= -1 ;
1 p_r3_g132_h89_t43 -1 x_r3_g132 <= 0 ;
1 p_r3_g132_h89_t43 -1 x_r3_g89 <= 0 ;
1 p_r3_g132_h89_t43 -1 x_r3_g132 -1 x_r3_g89 >= -1 ;
1 p_r3_g150_h107_t43 -1 x_r3_g150 <= 0 ;
1 p_r3_g150_h107_t43 -1 x_r3_g107 <= 0 ;
1 p_r3_g150_h107_t43 -1 x_r3_g150 -1 x_r3_g107 >= -1 ;
1 d_43 -1 x_r0_g16 -2 x_r0_g25 -1 x_r0_g35 -1 x_r0_g41 -1 x_r0_g46 -1 x_r0_g47 -1 x_r0_g50 -1 x_r0_g54 -1 x_r0_g73 -2 x_r0_g77 -2 x_r0_g88 -1 x_r0_g95 -1 x_r0_g99 -1 x_r0_g101 -1 x_r0_g110 -1 x_r0_g111 -1 x_r0_g112 -1 x_r0_g113 -1 x_r0_g116 -1 x_r0_g117 -1 x_r0_g135 -1 x_r0_g136 -1 x_r0_g139 -1 x_r0_g144 -1 x_r0_g163 -1 x_r1_g0 -1 x_r1_g16 -1 x_r1_g19 -1 x_r1_g27 -1 x_r1_g35 -2 x_r1_g36 -1 x_r1_g38 -1 x_r1_g42 -1 x_r1_g45 -1 x_r1_g46 -1 x_r1_g58 -1 x_r1_g64 -1 x_r1_g76 -1 x_r1_g82 -1 x_r1_g92 -1 x_r1_g98 -1 x_r1_g99 -1 x_r1_g116 -1 x_r1_g120 -1 x_r1_g130 -1 x_r1_g131 -1 x_r1_g135 -1 x_r1_g164 -2 x_r2_g5 -2 x_r2_g6 -1 x_r2_g13 -1 x_r2_g17 -1 x_r2_g22 -1 x_r2_g29 -1 x_r2_g34 -1 x_r2_g35 -1 x_r2_g41 -2 x_r2_g47 -1 x_r2_g51 -1 x_r2_g63 -1 x_r2_g76 -1 x_r2_g85 -1 x_r2_g87 -1 x_r2_g93 -1 x_r2_g111 -1 x_r2_g114 -2 x_r2_g125 -1 x_r2_g133 -1 x_r2_g141 -2 x_r2_g145 -1 x_r2_g151 -2 x_r3_g0 -2 x_r3_g4 -1 x_r3_g6 -1 x_r3_g21 -1 x_r3_g31 -1 x_r3_g52 -1 x_r3_g55 -2 x_r3_g56 -1 x_r3_g61 -2 x_r3_g63 -1 x_r3_g68 -2 x_r3_g80 -1 x_r3_g82 -1 x_r3_g83 -2 x_r3_g84 -1 x_r3_g89 -1 x_r3_g97 -2 x_r3_g108 -1 x_r3_g125 -1 x_r3_g132 -1 x_r3_g133 -2 x_r3_g141 -1 x_r3_g146 -1 x_r3_g149 -1 x_r3_g150 -1 x_r3_g160 -1 p_r0_g13_h137_t43 -1 p_r0_g39_h163_t43 -1 p_r0_g49_h6_t43 -1 p_r0_g66_h23_t43 -1 p_r0_g116_h73_t43 -1 p_r0_g117_h74_t43 -1 p_r0_g144_h101_t43 -1 p_r0_g156_h113_t43 -1 p_r1_g33_h157_t43 -1 p_r1_g43_h0_t43 -1 p_r1_g71_h28_t43 -1 p_r1_g76_h33_t43 -1 p_r1_g78_h35_t43 -1 p_r1_g85_h42_t43 -1 p_r1_g89_h46_t43 -1 p_r1_g101_h58_t43 -1 p_r1_g114_h71_t43 -1 p_r1_g120_h77_t43 -1 p_r1_g128_h85_t43 -1 p_r1_g132_h89_t43 -1 p_r1_g135_h92_t43 -1 p_r1_g157_h114_t43 -1 p_r2_g14_h138_t43 -1 p_r2_g17_h141_t43 -1 p_r2_g22_h146_t43 -1 p_r2_g56_h13_t43 -1 p_r2_g85_h42_t43 -1 p_r2_g106_h63_t43 -1 p_r2_g118_h75_t43 -1 p_r2_g119_h76_t43 -1 p_r2_g161_h118_t43 -1 p_r3_g12_h136_t43 -1 p_r3_g55_h12_t43 -1 p_r3_g97_h54_t43 -1 p_r3_g121_h78_t43 -1 p_r3_g125_h82_t43 -1 p_r3_g132_h89_t43 -1 p_r3_g150_h107_t43 = -57 ;
1 d_43 -1 u_43 <= 0 ;
-1 d_43 -1 u_43 <= 0 ;
1 u_43 -1 M <= 0 ;
1 u_43 <= 1 ;
1 p_r0_g16_h137_t46 -1 x_r0_g16 <= 0 ;
1 p_r0_g16_h137_t46 -1 x_r0_g137 <= 0 ;
1 p_r0_g16_h137_t46 -1 x_r0_g16 -1 x_r0_g137 >= -1 ;
1 p_r0_g23_h144_t46 -1 x_r0_g23 <= 0 ;
1 p_r0_g23_h144_t46 -1 x_r0_g144 <= 0 ;
1 p_r0_g23_h144_t46 -1 x_r0_g23 -1 x_r0_g144 >= -1 ;
1 p_r0_g35_h156_t46 -1 x_r0_g35 <= 0 ;
1 p_r0_g35_h156_t46 -1 x_r0_g156 <= 0 ;
1 p_r0_g35_h156_t46 -1 x_r0_g35 -1 x_r0_g156 >= -1 ;
1 p_r0_g95_h49_t46 -1 x_r0_g95 <= 0 ;
1 p_r0_g95_h49_t46 -1 x_r0_g49 <= 0 ;
1 p_r0_g95_h49_t46 -1 x_r0_g95 -1 x_r0_g49 >= -1 ;
1 p_r0_g112_h66_t46 -1 x_r0_g112 <= 0 ;
1 p_r0_g112_h66_t46 -1 x_r0_g66 <= 0 ;
1 p_r0_g112_h66_t46 -1 x_r0_g112 -1 x_r0_g66 >= -1 ;
1 p_r0_g156_h110_t46 -1 x_r0_g156 <= 0 ;
1 p_r0_g156_h110_t46 -1 x_r0_g110 <= 0 ;
1 p_r0_g156_h110_t46 -1 x_r0_g156 -1 x_r0_g110 >= -1 ;
1 p_r0_g163_h117_t46 -1 x_r0_g163 <= 0 ;
1 p_r0_g163_h117_t46 -1 x_r0_g117 <= 0 ;
1 p_r0_g163_h117_t46 -1 x_r0_g163 -1 x_r0_g117 >= -1 ;
1 p_r1_g36_h157_t46 -1 x_r1_g36 <= 0 ;
1 p_r1_g36_h157_t46 -1 x_r1_g157 <= 0 ;
1 p_r1_g36_h157_t46 -1 x_r1_g36 -1 x_r1_g157 >= -1 ;
1 p_r1_g43_h164_t46 -1 x_r1_g43 <= 0 ;
1 p_r1_g43_h164_t46 -1 x_r1_g164 <= 0 ;
1 p_r1_g43_h164_t46 -1 x_r1_g43 -1 x_r1_g164 >= -1 ;
1 p_r1_g46_h0_t46 -1 x_r1_g46 <= 0 ;
1 p_r1_g46_h0_t46 -1 x_r1_g0 <= 0 ;
1 p_r1_g46_h0_t46 -1 x_r1_g46 -1 x_r1_g0 >= -1 ;
1 p_r1_g82_h36_t46 -1 x_r1_g82 <= 0 ;
1 p_r1_g82_h36_t46 -1 x_r1_g36 <= 0 ;
1 p_r1_g82_h36_t46 -1 x_r1_g82 -1 x_r1_g36 >= -1 ;
1 p_r1_g89_h43_t46 -1 x_r1_g89 <= 0 ;
1 p_r1_g89_h43_t46 -1 x_r1_g43 <= 0 ;
1 p_r1_g89_h43_t46 -1 x_r1_g89 -1 x_r1_g43 >= -1 ;
1 p_r1_g91_h45_t46 -1 x_r1_g91 <= 0 ;
1 p_r1_g91_h45_t46 -1 x_r1_g45 <= 0 ;
1 p_r1_g91_h45_t46 -1 x_r1_g91 -1 x_r1_g45 >= -1 ;
1 p_r1_g92_h46_t46 -1 x_r1_g92 <= 0 ;
1 p_r1_g92_h46_t46 -1 x_r1_g46 <= 0 ;
1 p_r1_g92_h46_t46 -1 x_r1_g92 -1 x_r1_g46 >= -1 ;
1 p_r1_g128_h82_t46 -1 x_r1_g128 <= 0 ;
1 p_r1_g128_h82_t46 -1 x_r1_g82 <= 0 ;
1 p_r1_g128_h82_t46 -1 x_r1_g128 -1 x_r1_g82 >= -1 ;
1 p_r1_g131_h85_t46 -1 x_r1_g131 <= 0 ;
1 p_r1_g131_h85_t46 -1 x_r1_g85 <= 0 ;
1 p_r1_g131_h85_t46 -1 x_r1_g131 -1 x_r1_g85 >= -1 ;
1 p_r1_g135_h89_t46 -1 x_r1_g135 <= 0 ;
1 p_r1_g135_h89_t46 -1 x_r1_g89 <= 0 ;
1 p_r1_g135_h89_t46 -1 x_r1_g135 -1 x_r1_g89 >= -1 ;
1 p_r2_g6_h127_t46 -1 x_r2_g6 <= 0 ;
1 p_r2_g6_h127_t46 -1 x_r2_g127 <= 0 ;
1 p_r2_g6_h127_t46 -1 x_r2_g6 -1 x_r2_g127 >= -1 ;
1 p_r2_g17_h138_t46 -1 x_r2_g17 <= 0 ;
1 p_r2_g17_h138_t46 -1 x_r2_g138 <= 0 ;
1 p_r2_g17_h138_t46 -1 x_r2_g17 -1 x_r2_g138 >= -1 ;
1 p_r2_g51_h5_t46 -1 x_r2_g51 <= 0 ;
1 p_r2_g51_h5_t46 -1 x_r2_g5 <= 0 ;
1 p_r2_g51_h5_t46 -1 x_r2_g51 -1 x_r2_g5 >= -1 ;
1 p_r2_g63_h17_t46 -1 x_r2_g63 <= 0 ;
1 p_r2_g63_h17_t46 -1 x_r2_g17 <= 0 ;
1 p_r2_g63_h17_t46 -1 x_r2_g63 -1 x_r2_g17 >= -1 ;
1 p_r2_g75_h29_t46 -1 x_r2_g75 <= 0 ;
1 p_r2_g75_h29_t46 -1 x_r2_g29 <= 0 ;
1 p_r2_g75_h29_t46 -1 x_r2_g75 -1 x_r2_g29 >= -1 ;
1 p_r2_g80_h34_t46 -1 x_r2_g80 <= 0 ;
1 p_r2_g80_h34_t46 -1 x_r2_g34 <= 0 ;
1 p_r2_g80_h34_t46 -1 x_r2_g80 -1 x_r2_g34 >= -1 ;
1 p_r2_g87_h41_t46 -1 x_r2_g87 <= 0 ;
1 p_r2_g87_h41_t46 -1 x_r2_g41 <= 0 ;
1 p_r2_g87_h41_t46 -1 x_r2_g87 -1 x_r2_g41 >= -1 ;
1 p_r2_g93_h47_t46 -1 x_r2_g93 <= 0 ;
1 p_r2_g93_h47_t46 -1 x_r2_g47 <= 0 ;
1 p_r2_g93_h47_t46 -1 x_r2_g93 -1 x_r2_g47 >= -1 ;
1 p_r2_g133_h87_t46 -1 x_r2_g133 <= 0 ;
1 p_r2_g133_h87_t46 -1 x_r2_g87 <= 0 ;
1 p_r2_g133_h87_t46 -1 x_r2_g133 -1 x_r2_g87 >= -1 ;
1 p_r2_g139_h93_t46 -1 x_r2_g139 <= 0 ;
1 p_r2_g139_h93_t46 -1 x_r2_g93 <= 0 ;
1 p_r2_g139_h93_t46 -1 x_r2_g139 -1 x_r2_g93 >= -1 ;
1 p_r3_g0_h121_t46 -1 x_r3_g0 <= 0 ;
1 p_r3_g0_h121_t46 -1 x_r3_g121 <= 0 ;
1 p_r3_g0_h121_t46 -1 x_r3_g0 -1 x_r3_g121 >= -1 ;
1 p_r3_g4_h125_t46 -1 x_r3_g4 <= 0 ;
1 p_r3_g4_h125_t46 -1 x_r3_g125 <= 0 ;
1 p_r3_g4_h125_t46 -1 x_r3_g4 -1 x_r3_g125 >= -1 ;
1 p_r3_g12_h133_t46 -1 x_r3_g12 <= 0 ;
1 p_r3_g12_h133_t46 -1 x_r3_g133 <= 0 ;
1 p_r3_g12_h133_t46 -1 x_r3_g12 -1 x_r3_g133 >= -1 ;
1 p_r3_g29_h150_t46 -1 x_r3_g29 <= 0 ;
1 p_r3_g29_h150_t46 -1 x_r3_g150 <= 0 ;
1 p_r3_g29_h150_t46 -1 x_r3_g29 -1 x_r3_g150 >= -1 ;
1 p_r3_g52_h6_t46 -1 x_r3_g52 <= 0 ;
1 p_r3_g52_h6_t46 -1 x_r3_g6 <= 0 ;
1 p_r3_g52_h6_t46 -1 x_r3_g52 -1 x_r3_g6 >= -1 ;
1 p_r3_g77_h31_t46 -1 x_r3_g77 <= 0 ;
1 p_r3_g77_h31_t46 -1 x_r3_g31 <= 0 ;
1 p_r3_g77_h31_t46 -1 x_r3_g77 -1 x_r3_g31 >= -1 ;
1 p_r3_g107_h61_t46 -1 x_r3_g107 <= 0 ;
1 p_r3_g107_h61_t46 -1 x_r3_g61 <= 0 ;
1 p_r3_g107_h61_t46 -1 x_r3_g107 -1 x_r3_g61 >= -1 ;
1 p_r3_g112_h66_t46 -1 x_r3_g112 <= 0 ;
1 p_r3_g112_h66_t46 -1 x_r3_g66 <= 0 ;
1 p_r3_g112_h66_t46 -1 x_r3_g112 -1 x_r3_g66 >= -1 ;
1 d_46 -2 x_r0_g6 -1 x_r0_g13 -1 x_r0_g16 -1 x_r0_g25 -1 x_r0_g39 -2 x_r0_g44 -1 x_r0_g49 -1 x_r0_g54 -1 x_r0_g66 -1 x_r0_g73 -1 x_r0_g74 -1 x_r0_g77 -1 x_r0_g88 -1 x_r0_g101 -2 x_r0_g111 -1 x_r0_g112 -2 x_r0_g113 -1 x_r0_g116 -1 x_r0_g128 -1 x_r0_g132 -1 x_r0_g135 -2 x_r0_g136 -1 x_r0_g144 -1 x_r0_g152 -1 x_r0_g163 -1 x_r1_g16 -2 x_r1_g19 -2 x_r1_g20 -2 x_r1_g33 -2 x_r1_g35 -2 x_r1_g38 -2 x_r1_g42 -1 x_r1_g45 -1 x_r1_g64 -2 x_r1_g77 -2 x_r1_g78 -1 x_r1_g85 -1 x_r1_g92 -1 x_r1_g94 -1 x_r1_g99 -2 x_r1_g114 -1 x_r1_g116 -1 x_r1_g120 -1 x_r1_g130 -1 x_r1_g131 -1 x_r1_g132 -1 x_r2_g5 -1 x_r2_g7 -1 x_r2_g13 -1 x_r2_g14 -1 x_r2_g22 -1 x_r2_g29 -1 x_r2_g42 -1 x_r2_g47 -1 x_r2_g56 -1 x_r2_g75 -2 x_r2_g76 -1 x_r2_g80 -1 x_r2_g85 -2 x_r2_g106 -2 x_r2_g111 -1 x_r2_g112 -2 x_r2_g114 -1 x_r2_g119 -1 x_r2_g125 -1 x_r2_g132 -1 x_r2_g139 -1 x_r2_g141 -1 x_r2_g146 -2 x_r2_g151 -1 x_r2_g161 -1 x_r3_g0 -1 x_r3_g6 -1 x_r3_g21 -1 x_r3_g29 -1 x_r3_g52 -1 x_r3_g53 -1 x_r3_g54 -1 x_r3_g55 -1 x_r3_g63 -1 x_r3_g66 -1 x_r3_g68 -1 x_r3_g77 -2 x_r3_g78 -2 x_r3_g82 -2 x_r3_g83 -1 x_r3_g84 -1 x_r3_g89 -1 x_r3_g97 -2 x_r3_g108 -1 x_r3_g121 -2 x_r3_g122 -1 x_r3_g132 -1 x_r3_g139 -1 x_r3_g141 -1 x_r3_g149 -1 x_r3_g160 -1 p_r0_g16_h137_t46 -1 p_r0_g23_h144_t46 -1 p_r0_g35_h156_t46 -1 p_r0_g95_h49_t46 -1 p_r0_g112_h66_t46 -1 p_r0_g156_h110_t46 -1 p_r0_g163_h117_t46 -1 p_r1_g36_h157_t46 -1 p_r1_g43_h164_t46 -1 p_r1_g46_h0_t46 -1 p_r1_g82_h36_t46 -1 p_r1_g89_h43_t46 -1 p_r1_g91_h45_t46 -1 p_r1_g92_h46_t46 -1 p_r1_g128_h82_t46 -1 p_r1_g131_h85_t46 -1 p_r1_g135_h89_t46 -1 p_r2_g6_h127_t46 -1 p_r2_g17_h138_t46 -1 p_r2_g51_h5_t46 -1 p_r2_g63_h17_t46 -1 p_r2_g75_h29_t46 -1 p_r2_g80_h34_t46 -1 p_r2_g87_h41_t46 -1 p_r2_g93_h47_t46 -1 p_r2_g133_h87_t46 -1 p_r2_g139_h93_t46 -1 p_r3_g0_h121_t46 -1 p_r3_g4_h125_t46 -1 p_r3_g12_h133_t46 -1 p_r3_g29_h150_t46 -1 p_r3_g52_h6_t46 -1 p_r3_g77_h31_t46 -1 p_r3_g107_h61_t46 -1 p_r3_g112_h66_t46 = -75 ;
1 d_46 -1 u_46 <= 0 ;
-1 d_46 -1 u_46 <= 0 ;
1 u_46 -1 M <= 0 ;
1 u_46 <= 0 ;
1 p_r0_g16_h136_t47 -1 x_r0_g16 <= 0 ;
1 p_r0_g16_h136_t47 -1 x_r0_g136 <= 0 ;
1 p_r0_g16_h136_t47 -1 x_r0_g16 -1 x_r0_g136 >= -1 ;
1 p_r0_g88_h41_t47 -1 x_r0_g88 <= 0 ;
1 p_r0_g88_h41_t47 -1 x_r0_g41 <= 0 ;
1 p_r0_g88_h41_t47 -1 x_r0_g88 -1 x_r0_g41 >= -1 ;
1 p_r0_g101_h54_t47 -1 x_r0_g101 <= 0 ;
1 p_r0_g101_h54_t47 -1 x_r0_g54 <= 0 ;
1 p_r0_g101_h54_t47 -1 x_r0_g101 -1 x_r0_g54 >= -1 ;
1 p_r0_g113_h66_t47 -1 x_r0_g113 <= 0 ;
1 p_r0_g113_h66_t47 -1 x_r0_g66 <= 0 ;
1 p_r0_g113_h66_t47 -1 x_r0_g113 -1 x_r0_g66 >= -1 ;
1 p_r0_g135_h88_t47 -1 x_r0_g135 <= 0 ;
1 p_r0_g135_h88_t47 -1 x_r0_g88 <= 0 ;
1 p_r0_g135_h88_t47 -1 x_r0_g135 -1 x_r0_g88 >= -1 ;
1 p_r0_g163_h116_t47 -1 x_r0_g163 <= 0 ;
1 p_r0_g163_h116_t47 -1 x_r0_g116 <= 0 ;
1 p_r0_g163_h116_t47 -1 x_r0_g163 -1 x_r0_g116 >= -1 ;
1 p_r1_g0_h120_t47 -1 x_r1_g0 <= 0 ;
1 p_r1_g0_h120_t47 -1 x_r1_g120 <= 0 ;
1 p_r1_g0_h120_t47 -1 x_r1_g0 -1 x_r1_g120 >= -1 ;
1 p_r1_g76_h29_t47 -1 x_r1_g76 <= 0 ;
1 p_r1_g76_h29_t47 -1 x_r1_g29 <= 0 ;
1 p_r1_g76_h29_t47 -1 x_r1_g76 -1 x_r1_g29 >= -1 ;
1 p_r1_g82_h35_t47 -1 x_r1_g82 <= 0 ;
1 p_r1_g82_h35_t47 -1 x_r1_g35 <= 0 ;
1 p_r1_g82_h35_t47 -1 x_r1_g82 -1 x_r1_g35 >= -1 ;
1 p_r1_g85_h38_t47 -1 x_r1_g85 <= 0 ;
1 p_r1_g85_h38_t47 -1 x_r1_g38 <= 0 ;
1 p_r1_g85_h38_t47 -1 x_r1_g85 -1 x_r1_g38 >= -1 ;
1 p_r1_g89_h42_t47 -1 x_r1_g89 <= 0 ;
1 p_r1_g89_h42_t47 -1 x_r1_g42 <= 0 ;
1 p_r1_g89_h42_t47 -1 x_r1_g89 -1 x_r1_g42 >= -1 ;
1 p_r1_g92_h45_t47 -1 x_r1_g92 <= 0 ;
1 p_r1_g92_h45_t47 -1 x_r1_g45 <= 0 ;
1 p_r1_g92_h45_t47 -1 x_r1_g92 -1 x_r1_g45 >= -1 ;
1 p_r1_g132_h85_t47 -1 x_r1_g132 <= 0 ;
1 p_r1_g132_h85_t47 -1 x_r1_g85 <= 0 ;
1 p_r1_g132_h85_t47 -1 x_r1_g132 -1 x_r1_g85 >= -1 ;
1 p_r2_g5_h125_t47 -1 x_r2_g5 <= 0 ;
1 p_r2_g5_h125_t47 -1 x_r2_g125 <= 0 ;
1 p_r2_g5_h125_t47 -1 x_r2_g5 -1 x_r2_g125 >= -1 ;
1 p_r2_g7_h127_t47 -1 x_r2_g7 <= 0 ;
1 p_r2_g7_h127_t47 -1 x_r2_g127 <= 0 ;
1 p_r2_g7_h127_t47 -1 x_r2_g7 -1 x_r2_g127 >= -1 ;
1 p_r2_g13_h133_t47 -1 x_r2_g13 <= 0 ;
1 p_r2_g13_h133_t47 -1 x_r2_g133 <= 0 ;
1 p_r2_g13_h133_t47 -1 x_r2_g13 -1 x_r2_g133 >= -1 ;
1 p_r2_g41_h161_t47 -1 x_r2_g41 <= 0 ;
1 p_r2_g41_h161_t47 -1 x_r2_g161 <= 0 ;
1 p_r2_g41_h161_t47 -1 x_r2_g41 -1 x_r2_g161 >= -1 ;
1 p_r2_g76_h29_t47 -1 x_r2_g76 <= 0 ;
1 p_r2_g76_h29_t47 -1 x_r2_g29 <= 0 ;
1 p_r2_g76_h29_t47 -1 x_r2_g76 -1 x_r2_g29 >= -1 ;
1 p_r2_g127_h80_t47 -1 x_r2_g127 <= 0 ;
1 p_r2_g127_h80_t47 -1 x_r2_g80 <= 0 ;
1 p_r2_g127_h80_t47 -1 x_r2_g127 -1 x_r2_g80 >= -1 ;
1 p_r2_g132_h85_t47 -1 x_r2_g132 <= 0 ;
1 p_r2_g132_h85_t47 -1 x_r2_g85 <= 0 ;
1 p_r2_g132_h85_t47 -1 x_r2_g132 -1 x_r2_g85 >= -1 ;
1 p_r2_g161_h114_t47 -1 x_r2_g161 <= 0 ;
1 p_r2_g161_h114_t47 -1 x_r2_g114 <= 0 ;
1 p_r2_g161_h114_t47 -1 x_r2_g161 -1 x_r2_g114 >= -1 ;
1 p_r3_g12_h132_t47 -1 x_r3_g12 <= 0 ;
1 p_r3_g12_h132_t47 -1 x_r3_g132 <= 0 ;
1 p_r3_g12_h132_t47 -1 x_r3_g12 -1 x_r3_g132 >= -1 ;
1 p_r3_g21_h141_t47 -1 x_r3_g21 <= 0 ;
1 p_r3_g21_h141_t47 -1 x_r3_g141 <= 0 ;
1 p_r3_g21_h141_t47 -1 x_r3_g21 -1 x_r3_g141 >= -1 ;
1 p_r3_g29_h149_t47 -1 x_r3_g29 <= 0 ;
1 p_r3_g29_h149_t47 -1 x_r3_g149 <= 0 ;
1 p_r3_g29_h149_t47 -1 x_r3_g29 -1 x_r3_g149 >= -1 ;
1 p_r3_g53_h6_t47 -1 x_r3_g53 <= 0 ;
1 p_r3_g53_h6_t47 -1 x_r3_g6 <= 0 ;
1 p_r3_g53_h6_t47 -1 x_r3_g53 -1 x_r3_g6 >= -1 ;
1 p_r3_g68_h21_t47 -1 x_r3_g68 <= 0 ;
1 p_r3_g68_h21_t47 -1 x_r3_g21 <= 0 ;
1 p_r3_g68_h21_t47 -1 x_r3_g68 -1 x_r3_g21 >= -1 ;
1 p_r3_g78_h31_t47 -1 x_r3_g78 <= 0 ;
1 p_r3_g78_h31_t47 -1 x_r3_g31 <= 0 ;
1 p_r3_g78_h31_t47 -1 x_r3_g78 -1 x_r3_g31 >= -1 ;
1 p_r3_g108_h61_t47 -1 x_r3_g108 <= 0 ;
1 p_r3_g108_h61_t47 -1 x_r3_g61 <= 0 ;
1 p_r3_g108_h61_t47 -1 x_r3_g108 -1 x_r3_g61 >= -1 ;
1 p_r3_g115_h68_t47 -1 x_r3_g115 <= 0 ;
1 p_r3_g115_h68_t47 -1 x_r3_g68 <= 0 ;
1 p_r3_g115_h68_t47 -1 x_r3_g115 -1 x_r3_g68 >= -1 ;
1 p_r3_g125_h78_t47 -1 x_r3_g125 <= 0 ;
1 p_r3_g125_h78_t47 -1 x_r3_g78 <= 0 ;
1 p_r3_g125_h78_t47 -1 x_r3_g125 -1 x_r3_g78 >= -1 ;
1 p_r3_g136_h89_t47 -1 x_r3_g136 <= 0 ;
1 p_r3_g136_h89_t47 -1 x_r3_g89 <= 0 ;
1 p_r3_g136_h89_t47 -1 x_r3_g136 -1 x_r3_g89 >= -1 ;
1 d_47 -1 x_r0_g6 -1 x_r0_g16 -2 x_r0_g23 -1 x_r0_g35 -1 x_r0_g39 -1 x_r0_g40 -1 x_r0_g50 -1 x_r0_g54 -1 x_r0_g66 -1 x_r0_g73 -1 x_r0_g77 -2 x_r0_g95 -2 x_r0_g99 -2 x_r0_g110 -1 x_r0_g111 -2 x_r0_g112 -1 x_r0_g113 -1 x_r0_g117 -1 x_r0_g132 -1 x_r0_g135 -1 x_r0_g137 -1 x_r0_g139 -2 x_r0_g150 -1 x_r0_g156 -1 x_r0_g163 -1 x_r1_g19 -1 x_r1_g20 -1 x_r1_g33 -1 x_r1_g35 -1 x_r1_g36 -2 x_r1_g43 -1 x_r1_g46 -1 x_r1_g58 -1 x_r1_g76 -1 x_r1_g77 -1 x_r1_g78 -2 x_r1_g91 -1 x_r1_g94 -1 x_r1_g99 -2 x_r1_g116 -1 x_r1_g128 -1 x_r1_g130 -2 x_r1_g131 -2 x_r1_g135 -1 x_r1_g157 -1 x_r1_g164 -1 x_r2_g6 -1 x_r2_g13 -2 x_r2_g14 -2 x_r2_g17 -1 x_r2_g35 -2 x_r2_g47 -2 x_r2_g51 -1 x_r2_g63 -2 x_r2_g75 -1 x_r2_g80 -1 x_r2_g87 -2 x_r2_g93 -1 x_r2_g106 -2 x_r2_g111 -1 x_r2_g112 -1 x_r2_g116 -1 x_r2_g118 -1 x_r2_g125 -1 x_r2_g133 -1 x_r2_g138 -2 x_r2_g141 -2 x_r2_g145 -1 x_r2_g146 -2 x_r2_g151 -1 x_r3_g0 -1 x_r3_g4 -1 x_r3_g12 -1 x_r3_g29 -1 x_r3_g31 -2 x_r3_g52 -1 x_r3_g55 -1 x_r3_g56 -1 x_r3_g63 -1 x_r3_g66 -2 x_r3_g77 -1 x_r3_g80 -1 x_r3_g82 -1 x_r3_g83 -1 x_r3_g84 -1 x_r3_g97 -1 x_r3_g107 -1 x_r3_g112 -1 x_r3_g115 -2 x_r3_g121 -2 x_r3_g122 -1 x_r3_g125 -2 x_r3_g133 -1 x_r3_g139 -1 x_r3_g141 -2 x_r3_g146 -1 x_r3_g150 -1 x_r3_g160 -1 p_r0_g16_h136_t47 -1 p_r0_g88_h41_t47 -1 p_r0_g101_h54_t47 -1 p_r0_g113_h66_t47 -1 p_r0_g135_h88_t47 -1 p_r0_g163_h116_t47 -1 p_r1_g0_h120_t47 -1 p_r1_g76_h29_t47 -1 p_r1_g82_h35_t47 -1 p_r1_g85_h38_t47 -1 p_r1_g89_h42_t47 -1 p_r1_g92_h45_t47 -1 p_r1_g132_h85_t47 -1 p_r2_g5_h125_t47 -1 p_r2_g7_h127_t47 -1 p_r2_g13_h133_t47 -1 p_r2_g41_h161_t47 -1 p_r2_g76_h29_t47 -1 p_r2_g127_h80_t47 -1 p_r2_g132_h85_t47 -1 p_r2_g161_h114_t47 -1 p_r3_g12_h132_t47 -1 p_r3_g21_h141_t47 -1 p_r3_g29_h149_t47 -1 p_r3_g53_h6_t47 -1 p_r3_g68_h21_t47 -1 p_r3_g78_h31_t47 -1 p_r3_g108_h61_t47 -1 p_r3_g115_h68_t47 -1 p_r3_g125_h78_t47 -1 p_r3_g136_h89_t47 = -57 ;
1 d_47 -1 u_47 <= 0 ;
-1 d_47 -1 u_47 <= 0 ;
1 u_47 -1 M <= 0 ;
1 u_47 <= 1 ;
1 p_r0_g74_h25_t49 -1 x_r0_g74 <= 0 ;
1 p_r0_g74_h25_t49 -1 x_r0_g25 <= 0 ;
1 p_r0_g74_h25_t49 -1 x_r0_g74 -1 x_r0_g25 >= -1 ;
1 p_r0_g88_h39_t49 -1 x_r0_g88 <= 0 ;
1 p_r0_g88_h39_t49 -1 x_r0_g39 <= 0 ;
1 p_r0_g88_h39_t49 -1 x_r0_g88 -1 x_r0_g39 >= -1 ;
1 p_r0_g95_h46_t49 -1 x_r0_g95 <= 0 ;
1 p_r0_g95_h46_t49 -1 x_r0_g46 <= 0 ;
1 p_r0_g95_h46_t49 -1 x_r0_g95 -1 x_r0_g46 >= -1 ;
1 p_r0_g99_h50_t49 -1 x_r0_g99 <= 0 ;
1 p_r0_g99_h50_t49 -1 x_r0_g50 <= 0 ;
1 p_r0_g99_h50_t49 -1 x_r0_g99 -1 x_r0_g50 >= -1 ;
1 p_r0_g137_h88_t49 -1 x_r0_g137 <= 0 ;
1 p_r0_g137_h88_t49 -1 x_r0_g88 <= 0 ;
1 p_r0_g137_h88_t49 -1 x_r0_g137 -1 x_r0_g88 >= -1 ;
1 p_r0_g144_h95_t49 -1 x_r0_g144 <= 0 ;
1 p_r0_g144_h95_t49 -1 x_r0_g95 <= 0 ;
1 p_r0_g144_h95_t49 -1 x_r0_g144 -1 x_r0_g95 >= -1 ;
1 p_r0_g150_h101_t49 -1 x_r0_g150 <= 0 ;
1 p_r0_g150_h101_t49 -1 x_r0_g101 <= 0 ;
1 p_r0_g150_h101_t49 -1 x_r0_g150 -1 x_r0_g101 >= -1 ;
1 p_r1_g46_h164_t49 -1 x_r1_g46 <= 0 ;
1 p_r1_g46_h164_t49 -1 x_r1_g164 <= 0 ;
1 p_r1_g46_h164_t49 -1 x_r1_g46 -1 x_r1_g164 >= -1 ;
1 p_r1_g76_h27_t49 -1 x_r1_g76 <= 0 ;
1 p_r1_g76_h27_t49 -1 x_r1_g27 <= 0 ;
1 p_r1_g76_h27_t49 -1 x_r1_g76 -1 x_r1_g27 >= -1 ;
1 p_r1_g77_h28_t49 -1 x_r1_g77 <= 0 ;
1 p_r1_g77_h28_t49 -1 x_r1_g28 <= 0 ;
1 p_r1_g77_h28_t49 -1 x_r1_g77 -1 x_r1_g28 >= -1 ;
1 p_r1_g78_h29_t49 -1 x_r1_g78 <= 0 ;
1 p_r1_g78_h29_t49 -1 x_r1_g29 <= 0 ;
1 p_r1_g78_h29_t49 -1 x_r1_g78 -1 x_r1_g29 >= -1 ;
1 p_r1_g82_h33_t49 -1 x_r1_g82 <= 0 ;
1 p_r1_g82_h33_t49 -1 x_r1_g33 <= 0 ;
1 p_r1_g82_h33_t49 -1 x_r1_g82 -1 x_r1_g33 >= -1 ;
1 p_r1_g85_h36_t49 -1 x_r1_g85 <= 0 ;
1 p_r1_g85_h36_t49 -1 x_r1_g36 <= 0 ;
1 p_r1_g85_h36_t49 -1 x_r1_g85 -1 x_r1_g36 >= -1 ;
1 p_r1_g91_h42_t49 -1 x_r1_g91 <= 0 ;
1 p_r1_g91_h42_t49 -1 x_r1_g42 <= 0 ;
1 p_r1_g91_h42_t49 -1 x_r1_g91 -1 x_r1_g42 >= -1 ;
1 p_r1_g92_h43_t49 -1 x_r1_g92 <= 0 ;
1 p_r1_g92_h43_t49 -1 x_r1_g43 <= 0 ;
1 p_r1_g92_h43_t49 -1 x_r1_g92 -1 x_r1_g43 >= -1 ;
1 p_r1_g94_h45_t49 -1 x_r1_g94 <= 0 ;
1 p_r1_g94_h45_t49 -1 x_r1_g45 <= 0 ;
1 p_r1_g94_h45_t49 -1 x_r1_g94 -1 x_r1_g45 >= -1 ;
1 p_r1_g120_h71_t49 -1 x_r1_g120 <= 0 ;
1 p_r1_g120_h71_t49 -1 x_r1_g71 <= 0 ;
1 p_r1_g120_h71_t49 -1 x_r1_g120 -1 x_r1_g71 >= -1 ;
1 p_r1_g131_h82_t49 -1 x_r1_g131 <= 0 ;
1 p_r1_g131_h82_t49 -1 x_r1_g82 <= 0 ;
1 p_r1_g131_h82_t49 -1 x_r1_g131 -1 x_r1_g82 >= -1 ;
1 p_r2_g7_h125_t49 -1 x_r2_g7 <= 0 ;
1 p_r2_g7_h125_t49 -1 x_r2_g125 <= 0 ;
1 p_r2_g7_h125_t49 -1 x_r2_g7 -1 x_r2_g125 >= -1 ;
1 p_r2_g14_h132_t49 -1 x_r2_g14 <= 0 ;
1 p_r2_g14_h132_t49 -1 x_r2_g132 <= 0 ;
1 p_r2_g14_h132_t49 -1 x_r2_g14 -1 x_r2_g132 >= -1 ;
1 p_r2_g56_h7_t49 -1 x_r2_g56 <= 0 ;
1 p_r2_g56_h7_t49 -1 x_r2_g7 <= 0 ;
1 p_r2_g56_h7_t49 -1 x_r2_g56 -1 x_r2_g7 >= -1 ;
1 p_r2_g63_h14_t49 -1 x_r2_g63 <= 0 ;
1 p_r2_g63_h14_t49 -1 x_r2_g14 <= 0 ;
1 p_r2_g63_h14_t49 -1 x_r2_g63 -1 x_r2_g14 >= -1 ;
1 p_r2_g112_h63_t49 -1 x_r2_g112 <= 0 ;
1 p_r2_g112_h63_t49 -1 x_r2_g63 <= 0 ;
1 p_r2_g112_h63_t49 -1 x_r2_g112 -1 x_r2_g63 >= -1 ;
1 p_r2_g125_h76_t49 -1 x_r2_g125 <= 0 ;
1 p_r2_g125_h76_t49 -1 x_r2_g76 <= 0 ;
1 p_r2_g125_h76_t49 -1 x_r2_g125 -1 x_r2_g76 >= -1 ;
1 p_r2_g161_h112_t49 -1 x_r2_g161 <= 0 ;
1 p_r2_g161_h112_t49 -1 x_r2_g112 <= 0 ;
1 p_r2_g161_h112_t49 -1 x_r2_g161 -1 x_r2_g112 >= -1 ;
1 p_r3_g4_h122_t49 -1 x_r3_g4 <= 0 ;
1 p_r3_g4_h122_t49 -1 x_r3_g122 <= 0 ;
1 p_r3_g4_h122_t49 -1 x_r3_g4 -1 x_r3_g122 >= -1 ;
1 p_r3_g21_h139_t49 -1 x_r3_g21 <= 0 ;
1 p_r3_g21_h139_t49 -1 x_r3_g139 <= 0 ;
1 p_r3_g21_h139_t49 -1 x_r3_g21 -1 x_r3_g139 >= -1 ;
1 p_r3_g31_h149_t49 -1 x_r3_g31 <= 0 ;
1 p_r3_g31_h149_t49 -1 x_r3_g149 <= 0 ;
1 p_r3_g31_h149_t49 -1 x_r3_g31 -1 x_r3_g149 >= -1 ;
1 p_r3_g53_h4_t49 -1 x_r3_g53 <= 0 ;
1 p_r3_g53_h4_t49 -1 x_r3_g4 <= 0 ;
1 p_r3_g53_h4_t49 -1 x_r3_g53 -1 x_r3_g4 >= -1 ;
1 p_r3_g55_h6_t49 -1 x_r3_g55 <= 0 ;
1 p_r3_g55_h6_t49 -1 x_r3_g6 <= 0 ;
1 p_r3_g55_h6_t49 -1 x_r3_g55 -1 x_r3_g6 >= -1 ;
1 p_r3_g61_h12_t49 -1 x_r3_g61 <= 0 ;
1 p_r3_g61_h12_t49 -1 x_r3_g12 <= 0 ;
1 p_r3_g61_h12_t49 -1 x_r3_g61 -1 x_r3_g12 >= -1 ;
1 p_r3_g78_h29_t49 -1 x_r3_g78 <= 0 ;
1 p_r3_g78_h29_t49 -1 x_r3_g29 <= 0 ;
1 p_r3_g78_h29_t49 -1 x_r3_g78 -1 x_r3_g29 >= -1 ;
1 p_r3_g80_h31_t49 -1 x_r3_g80 <= 0 ;
1 p_r3_g80_h31_t49 -1 x_r3_g31 <= 0 ;
1 p_r3_g80_h31_t49 -1 x_r3_g80 -1 x_r3_g31 >= -1 ;
1 p_r3_g112_h63_t49 -1 x_r3_g112 <= 0 ;
1 p_r3_g112_h63_t49 -1 x_r3_g63 <= 0 ;
1 p_r3_g112_h63_t49 -1 x_r3_g112 -1 x_r3_g63 >= -1 ;
1 p_r3_g115_h66_t49 -1 x_r3_g115 <= 0 ;
1 p_r3_g115_h66_t49 -1 x_r3_g66 <= 0 ;
1 p_r3_g115_h66_t49 -1 x_r3_g115 -1 x_r3_g66 >= -1 ;
1 p_r3_g132_h83_t49 -1 x_r3_g132 <= 0 ;
1 p_r3_g132_h83_t49 -1 x_r3_g83 <= 0 ;
1 p_r3_g132_h83_t49 -1 x_r3_g132 -1 x_r3_g83 >= -1 ;
1 p_r3_g133_h84_t49 -1 x_r3_g133 <= 0 ;
1 p_r3_g133_h84_t49 -1 x_r3_g84 <= 0 ;
1 p_r3_g133_h84_t49 -1 x_r3_g133 -1 x_r3_g84 >= -1 ;
1 p_r3_g146_h97_t49 -1 x_r3_g146 <= 0 ;
1 p_r3_g146_h97_t49 -1 x_r3_g97 <= 0 ;
1 p_r3_g146_h97_t49 -1 x_r3_g146 -1 x_r3_g97 >= -1 ;
1 d_49 -1 x_r0_g6 -2 x_r0_g13 -1 x_r0_g16 -1 x_r0_g25 -1 x_r0_g39 -1 x_r0_g40 -2 x_r0_g41 -1 x_r0_g47 -1 x_r0_g49 -2 x_r0_g54 -1 x_r0_g73 -1 x_r0_g74 -1 x_r0_g77 -1 x_r0_g101 -1 x_r0_g110 -2 x_r0_g111 -1 x_r0_g112 -2 x_r0_g116 -1 x_r0_g117 -1 x_r0_g132 -1 x_r0_g137 -1 x_r0_g139 -2 x_r0_g152 -1 x_r0_g156 -1 x_r0_g163 -1 x_r1_g0 -1 x_r1_g16 -1 x_r1_g19 -2 x_r1_g20 -1 x_r1_g28 -1 x_r1_g35 -1 x_r1_g36 -2 x_r1_g38 -1 x_r1_g42 -1 x_r1_g45 -1 x_r1_g46 -1 x_r1_g58 -2 x_r1_g64 -1 x_r1_g78 -2 x_r1_g89 -1 x_r1_g91 -1 x_r1_g92 -1 x_r1_g98 -2 x_r1_g114 -2 x_r1_g128 -1 x_r1_g130 -2 x_r1_g157 -1 x_r1_g164 -1 x_r2_g22 -1 x_r2_g29 -2 x_r2_g34 -1 x_r2_g35 -1 x_r2_g41 -1 x_r2_g42 -1 x_r2_g47 -1 x_r2_g56 -1 x_r2_g75 -1 x_r2_g76 -2 x_r2_g80 -1 x_r2_g85 -1 x_r2_g87 -1 x_r2_g111 -2 x_r2_g114 -1 x_r2_g116 -1 x_r2_g118 -1 x_r2_g119 -1 x_r2_g127 -1 x_r2_g132 -1 x_r2_g138 -2 x_r2_g139 -1 x_r2_g145 -1 x_r2_g146 -2 x_r2_g151 -1 x_r2_g161 -2 x_r3_g0 -1 x_r3_g6 -1 x_r3_g54 -1 x_r3_g61 -1 x_r3_g66 -1 x_r3_g68 -1 x_r3_g77 -1 x_r3_g78 -1 x_r3_g80 -2 x_r3_g89 -1 x_r3_g108 -1 x_r3_g125 -1 x_r3_g136 -1 x_r3_g146 -1 x_r3_g150 -1 x_r3_g160 -1 p_r0_g74_h25_t49 -1 p_r0_g88_h39_t49 -1 p_r0_g95_h46_t49 -1 p_r0_g99_h50_t49 -1 p_r0_g137_h88_t49 -1 p_r0_g144_h95_t49 -1 p_r0_g150_h101_t49 -1 p_r1_g46_h164_t49 -1 p_r1_g76_h27_t49 -1 p_r1_g77_h28_t49 -1 p_r1_g78_h29_t49 -1 p_r1_g82_h33_t49 -1 p_r1_g85_h36_t49 -1 p_r1_g91_h42_t49 -1 p_r1_g92_h43_t49 -1 p_r1_g94_h45_t49 -1 p_r1_g120_h71_t49 -1 p_r1_g131_h82_t49 -1 p_r2_g7_h125_t49 -1 p_r2_g14_h132_t49 -1 p_r2_g56_h7_t49 -1 p_r2_g63_h14_t49 -1 p_r2_g112_h63_t49 -1 p_r2_g125_h76_t49 -1 p_r2_g161_h112_t49 -1 p_r3_g4_h122_t49 -1 p_r3_g21_h139_t49 -1 p_r3_g31_h149_t49 -1 p_r3_g53_h4_t49 -1 p_r3_g55_h6_t49 -1 p_r3_g61_h12_t49 -1 p_r3_g78_h29_t49 -1 p_r3_g80_h31_t49 -1 p_r3_g112_h63_t49 -1 p_r3_g115_h66_t49 -1 p_r3_g132_h83_t49 -1 p_r3_g133_h84_t49 -1 p_r3_g146_h97_t49 = -89 ;
1 d_49 -1 u_49 <= 0 ;
-1 d_49 -1 u_49 <= 0 ;
1 u_49 -1 M <= 0 ;
1 u_49 <= 3 ;
1 p_r0_g13_h116_t64 -1 x_r0_g13 <= 0 ;
1 p_r0_g13_h116_t64 -1 x_r0_g116 <= 0 ;
1 p_r0_g13_h116_t64 -1 x_r0_g13 -1 x_r0_g116 >= -1 ;
1 p_r0_g25_h128_t64 -1 x_r0_g25 <= 0 ;
1 p_r0_g25_h128_t64 -1 x_r0_g128 <= 0 ;
1 p_r0_g25_h128_t64 -1 x_r0_g25 -1 x_r0_g128 >= -1 ;
1 p_r0_g41_h144_t64 -1 x_r0_g41 <= 0 ;
1 p_r0_g41_h144_t64 -1 x_r0_g144 <= 0 ;
1 p_r0_g41_h144_t64 -1 x_r0_g41 -1 x_r0_g144 >= -1 ;
1 p_r0_g47_h150_t64 -1 x_r0_g47 <= 0 ;
1 p_r0_g47_h150_t64 -1 x_r0_g150 <= 0 ;
1 p_r0_g47_h150_t64 -1 x_r0_g47 -1 x_r0_g150 >= -1 ;
1 p_r0_g49_h152_t64 -1 x_r0_g49 <= 0 ;
1 p_r0_g49_h152_t64 -1 x_r0_g152 <= 0 ;
1 p_r0_g49_h152_t64 -1 x_r0_g49 -1 x_r0_g152 >= -1 ;
1 p_r0_g77_h13_t64 -1 x_r0_g77 <= 0 ;
1 p_r0_g77_h13_t64 -1 x_r0_g13 <= 0 ;
1 p_r0_g77_h13_t64 -1 x_r0_g77 -1 x_r0_g13 >= -1 ;
1 p_r0_g99_h35_t64 -1 x_r0_g99 <= 0 ;
1 p_r0_g99_h35_t64 -1 x_r0_g35 <= 0 ;
1 p_r0_g99_h35_t64 -1 x_r0_g99 -1 x_r0_g35 >= -1 ;
1 p_r0_g110_h46_t64 -1 x_r0_g110 <= 0 ;
1 p_r0_g110_h46_t64 -1 x_r0_g46 <= 0 ;
1 p_r0_g110_h46_t64 -1 x_r0_g110 -1 x_r0_g46 >= -1 ;
1 p_r0_g111_h47_t64 -1 x_r0_g111 <= 0 ;
1 p_r0_g111_h47_t64 -1 x_r0_g47 <= 0 ;
1 p_r0_g111_h47_t64 -1 x_r0_g111 -1 x_r0_g47 >= -1 ;
1 p_r0_g113_h49_t64 -1 x_r0_g113 <= 0 ;
1 p_r0_g113_h49_t64 -1 x_r0_g49 <= 0 ;
1 p_r0_g113_h49_t64 -1 x_r0_g113 -1 x_r0_g49 >= -1 ;
1 p_r0_g137_h73_t64 -1 x_r0_g137 <= 0 ;
1 p_r0_g137_h73_t64 -1 x_r0_g73 <= 0 ;
1 p_r0_g137_h73_t64 -1 x_r0_g137 -1 x_r0_g73 >= -1 ;
1 p_r0_g152_h88_t64 -1 x_r0_g152 <= 0 ;
1 p_r0_g152_h88_t64 -1 x_r0_g88 <= 0 ;
1 p_r0_g152_h88_t64 -1 x_r0_g152 -1 x_r0_g88 >= -1 ;
1 p_r0_g163_h99_t64 -1 x_r0_g163 <= 0 ;
1 p_r0_g163_h99_t64 -1 x_r0_g99 <= 0 ;
1 p_r0_g163_h99_t64 -1 x_r0_g163 -1 x_r0_g99 >= -1 ;
1 p_r1_g27_h130_t64 -1 x_r1_g27 <= 0 ;
1 p_r1_g27_h130_t64 -1 x_r1_g130 <= 0 ;
1 p_r1_g27_h130_t64 -1 x_r1_g27 -1 x_r1_g130 >= -1 ;
1 p_r1_g28_h131_t64 -1 x_r1_g28 <= 0 ;
1 p_r1_g28_h131_t64 -1 x_r1_g131 <= 0 ;
1 p_r1_g28_h131_t64 -1 x_r1_g28 -1 x_r1_g131 >= -1 ;
1 p_r1_g29_h132_t64 -1 x_r1_g29 <= 0 ;
1 p_r1_g29_h132_t64 -1 x_r1_g132 <= 0 ;
1 p_r1_g29_h132_t64 -1 x_r1_g29 -1 x_r1_g132 >= -1 ;
1 p_r1_g64_h0_t64 -1 x_r1_g64 <= 0 ;
1 p_r1_g64_h0_t64 -1 x_r1_g0 <= 0 ;
1 p_r1_g64_h0_t64 -1 x_r1_g64 -1 x_r1_g0 >= -1 ;
1 p_r1_g91_h27_t64 -1 x_r1_g91 <= 0 ;
1 p_r1_g91_h27_t64 -1 x_r1_g27 <= 0 ;
1 p_r1_g91_h27_t64 -1 x_r1_g91 -1 x_r1_g27 >= -1 ;
1 p_r1_g92_h28_t64 -1 x_r1_g92 <= 0 ;
1 p_r1_g92_h28_t64 -1 x_r1_g28 <= 0 ;
1 p_r1_g92_h28_t64 -1 x_r1_g92 -1 x_r1_g28 >= -1 ;
1 p_r1_g99_h35_t64 -1 x_r1_g99 <= 0 ;
1 p_r1_g99_h35_t64 -1 x_r1_g35 <= 0 ;
1 p_r1_g99_h35_t64 -1 x_r1_g99 -1 x_r1_g35 >= -1 ;
1 p_r1_g128_h64_t64 -1 x_r1_g128 <= 0 ;
1 p_r1_g128_h64_t64 -1 x_r1_g64 <= 0 ;
1 p_r1_g128_h64_t64 -1 x_r1_g128 -1 x_r1_g64 >= -1 ;
1 p_r1_g135_h71_t64 -1 x_r1_g135 <= 0 ;
1 p_r1_g135_h71_t64 -1 x_r1_g71 <= 0 ;
1 p_r1_g135_h71_t64 -1 x_r1_g135 -1 x_r1_g71 >= -1 ;
1 p_r2_g13_h116_t64 -1 x_r2_g13 <= 0 ;
1 p_r2_g13_h116_t64 -1 x_r2_g116 <= 0 ;
1 p_r2_g13_h116_t64 -1 x_r2_g13 -1 x_r2_g116 >= -1 ;
1 p_r2_g22_h125_t64 -1 x_r2_g22 <= 0 ;
1 p_r2_g22_h125_t64 -1 x_r2_g125 <= 0 ;
1 p_r2_g22_h125_t64 -1 x_r2_g22 -1 x_r2_g125 >= -1 ;
1 p_r2_g29_h132_t64 -1 x_r2_g29 <= 0 ;
1 p_r2_g29_h132_t64 -1 x_r2_g132 <= 0 ;
1 p_r2_g29_h132_t64 -1 x_r2_g29 -1 x_r2_g132 >= -1 ;
1 p_r2_g35_h138_t64 -1 x_r2_g35 <= 0 ;
1 p_r2_g35_h138_t64 -1 x_r2_g138 <= 0 ;
1 p_r2_g35_h138_t64 -1 x_r2_g35 -1 x_r2_g138 >= -1 ;
1 p_r2_g42_h145_t64 -1 x_r2_g42 <= 0 ;
1 p_r2_g42_h145_t64 -1 x_r2_g145 <= 0 ;
1 p_r2_g42_h145_t64 -1 x_r2_g42 -1 x_r2_g145 >= -1 ;
1 p_r2_g93_h29_t64 -1 x_r2_g93 <= 0 ;
1 p_r2_g93_h29_t64 -1 x_r2_g29 <= 0 ;
1 p_r2_g93_h29_t64 -1 x_r2_g93 -1 x_r2_g29 >= -1 ;
1 p_r2_g106_h42_t64 -1 x_r2_g106 <= 0 ;
1 p_r2_g106_h42_t64 -1 x_r2_g42 <= 0 ;
1 p_r2_g106_h42_t64 -1 x_r2_g106 -1 x_r2_g42 >= -1 ;
1 p_r2_g111_h47_t64 -1 x_r2_g111 <= 0 ;
1 p_r2_g111_h47_t64 -1 x_r2_g47 <= 0 ;
1 p_r2_g111_h47_t64 -1 x_r2_g111 -1 x_r2_g47 >= -1 ;
1 p_r2_g127_h63_t64 -1 x_r2_g127 <= 0 ;
1 p_r2_g127_h63_t64 -1 x_r2_g63 <= 0 ;
1 p_r2_g127_h63_t64 -1 x_r2_g127 -1 x_r2_g63 >= -1 ;
1 p_r2_g139_h75_t64 -1 x_r2_g139 <= 0 ;
1 p_r2_g139_h75_t64 -1 x_r2_g75 <= 0 ;
1 p_r2_g139_h75_t64 -1 x_r2_g139 -1 x_r2_g75 >= -1 ;
1 p_r2_g151_h87_t64 -1 x_r2_g151 <= 0 ;
1 p_r2_g151_h87_t64 -1 x_r2_g87 <= 0 ;
1 p_r2_g151_h87_t64 -1 x_r2_g151 -1 x_r2_g87 >= -1 ;
1 p_r3_g4_h107_t64 -1 x_r3_g4 <= 0 ;
1 p_r3_g4_h107_t64 -1 x_r3_g107 <= 0 ;
1 p_r3_g4_h107_t64 -1 x_r3_g4 -1 x_r3_g107 >= -1 ;
1 p_r3_g12_h115_t64 -1 x_r3_g12 <= 0 ;
1 p_r3_g12_h115_t64 -1 x_r3_g115 <= 0 ;
1 p_r3_g12_h115_t64 -1 x_r3_g12 -1 x_r3_g115 >= -1 ;
1 p_r3_g29_h132_t64 -1 x_r3_g29 <= 0 ;
1 p_r3_g29_h132_t64 -1 x_r3_g132 <= 0 ;
1 p_r3_g29_h132_t64 -1 x_r3_g29 -1 x_r3_g132 >= -1 ;
1 p_r3_g68_h4_t64 -1 x_r3_g68 <= 0 ;
1 p_r3_g68_h4_t64 -1 x_r3_g4 <= 0 ;
1 p_r3_g68_h4_t64 -1 x_r3_g68 -1 x_r3_g4 >= -1 ;
1 p_r3_g125_h61_t64 -1 x_r3_g125 <= 0 ;
1 p_r3_g125_h61_t64 -1 x_r3_g61 <= 0 ;
1 p_r3_g125_h61_t64 -1 x_r3_g125 -1 x_r3_g61 >= -1 ;
1 p_r3_g132_h68_t64 -1 x_r3_g132 <= 0 ;
1 p_r3_g132_h68_t64 -1 x_r3_g68 <= 0 ;
1 p_r3_g132_h68_t64 -1 x_r3_g132 -1 x_r3_g68 >= -1 ;
1 p_r3_g141_h77_t64 -1 x_r3_g141 <= 0 ;
1 p_r3_g141_h77_t64 -1 x_r3_g77 <= 0 ;
1 p_r3_g141_h77_t64 -1 x_r3_g141 -1 x_r3_g77 >= -1 ;
1 p_r3_g146_h82_t64 -1 x_r3_g146 <= 0 ;
1 p_r3_g146_h82_t64 -1 x_r3_g82 <= 0 ;
1 p_r3_g146_h82_t64 -1 x_r3_g146 -1 x_r3_g82 >= -1 ;
1 d_64 -1 x_r0_g6 -1 x_r0_g16 -1 x_r0_g23 -2 x_r0_g39 -1 x_r0_g40 -1 x_r0_g46 -2 x_r0_g54 -1 x_r0_g95 -2 x_r0_g101 -1 x_r0_g110 -1 x_r0_g112 -1 x_r0_g116 -1 x_r0_g117 -1 x_r0_g132 -1 x_r0_g137 -1 x_r0_g139 -1 x_r1_g0 -2 x_r1_g16 -2 x_r1_g20 -1 x_r1_g35 -1 x_r1_g36 -1 x_r1_g38 -2 x_r1_g43 -1 x_r1_g45 -1 x_r1_g76 -1 x_r1_g77 -2 x_r1_g82 -1 x_r1_g91 -1 x_r1_g92 -1 x_r1_g99 -1 x_r1_g101 -1 x_r1_g114 -1 x_r1_g120 -1 x_r1_g130 -1 x_r1_g132 -1 x_r1_g135 -1 x_r1_g164 -1 x_r2_g7 -1 x_r2_g14 -1 x_r2_g17 -1 x_r2_g22 -2 x_r2_g34 -1 x_r2_g41 -1 x_r2_g47 -1 x_r2_g51 -1 x_r2_g56 -1 x_r2_g76 -1 x_r2_g85 -1 x_r2_g93 -1 x_r2_g112 -1 x_r2_g125 -1 x_r2_g132 -1 x_r2_g133 -1 x_r2_g138 -2 x_r2_g146 -1 x_r2_g151 -1 x_r2_g161 -1 x_r3_g12 -1 x_r3_g21 -1 x_r3_g31 -1 x_r3_g54 -1 x_r3_g55 -2 x_r3_g63 -1 x_r3_g66 -1 x_r3_g77 -1 x_r3_g78 -1 x_r3_g80 -1 x_r3_g82 -1 x_r3_g83 -2 x_r3_g84 -1 x_r3_g107 -1 x_r3_g108 -1 x_r3_g112 -1 x_r3_g121 -1 x_r3_g122 -1 x_r3_g125 -1 x_r3_g133 -2 x_r3_g139 -1 x_r3_g141 -1 x_r3_g146 -1 x_r3_g149 -2 x_r3_g150 -1 p_r0_g13_h116_t64 -1 p_r0_g25_h128_t64 -1 p_r0_g41_h144_t64 -1 p_r0_g47_h150_t64 -1 p_r0_g49_h152_t64 -1 p_r0_g77_h13_t64 -1 p_r0_g99_h35_t64 -1 p_r0_g110_h46_t64 -1 p_r0_g111_h47_t64 -1 p_r0_g113_h49_t64 -1 p_r0_g137_h73_t64 -1 p_r0_g152_h88_t64 -1 p_r0_g163_h99_t64 -1 p_r1_g27_h130_t64 -1 p_r1_g28_h131_t64 -1 p_r1_g29_h132_t64 -1 p_r1_g64_h0_t64 -1 p_r1_g91_h27_t64 -1 p_r1_g92_h28_t64 -1 p_r1_g99_h35_t64 -1 p_r1_g128_h64_t64 -1 p_r1_g135_h71_t64 -1 p_r2_g13_h116_t64 -1 p_r2_g22_h125_t64 -1 p_r2_g29_h132_t64 -1 p_r2_g35_h138_t64 -1 p_r2_g42_h145_t64 -1 p_r2_g93_h29_t64 -1 p_r2_g106_h42_t64 -1 p_r2_g111_h47_t64 -1 p_r2_g127_h63_t64 -1 p_r2_g139_h75_t64 -1 p_r2_g151_h87_t64 -1 p_r3_g4_h107_t64 -1 p_r3_g12_h115_t64 -1 p_r3_g29_h132_t64 -1 p_r3_g68_h4_t64 -1 p_r3_g125_h61_t64 -1 p_r3_g132_h68_t64 -1 p_r3_g141_h77_t64 -1 p_r3_g146_h82_t64 = -63 ;
1 d_64 -1 u_64 <= 0 ;
-1 d_64 -1 u_64 <= 0 ;
1 u_64 -1 M <= 0 ;
1 u_64 <= 1 ;
1 p_r0_g16_h117_t66 -1 x_r0_g16 <= 0 ;
1 p_r0_g16_h117_t66 -1 x_r0_g117 <= 0 ;
1 p_r0_g16_h117_t66 -1 x_r0_g16 -1 x_r0_g117 >= -1 ;
1 p_r0_g35_h136_t66 -1 x_r0_g35 <= 0 ;
1 p_r0_g35_h136_t66 -1 x_r0_g136 <= 0 ;
1 p_r0_g35_h136_t66 -1 x_r0_g35 -1 x_r0_g136 >= -1 ;
1 p_r0_g49_h150_t66 -1 x_r0_g49 <= 0 ;
1 p_r0_g49_h150_t66 -1 x_r0_g150 <= 0 ;
1 p_r0_g49_h150_t66 -1 x_r0_g49 -1 x_r0_g150 >= -1 ;
1 p_r0_g101_h35_t66 -1 x_r0_g101 <= 0 ;
1 p_r0_g101_h35_t66 -1 x_r0_g35 <= 0 ;
1 p_r0_g101_h35_t66 -1 x_r0_g101 -1 x_r0_g35 >= -1 ;
1 p_r0_g110_h44_t66 -1 x_r0_g110 <= 0 ;
1 p_r0_g110_h44_t66 -1 x_r0_g44 <= 0 ;
1 p_r0_g110_h44_t66 -1 x_r0_g110 -1 x_r0_g44 >= -1 ;
1 p_r0_g112_h46_t66 -1 x_r0_g112 <= 0 ;
1 p_r0_g112_h46_t66 -1 x_r0_g46 <= 0 ;
1 p_r0_g112_h46_t66 -1 x_r0_g112 -1 x_r0_g46 >= -1 ;
1 p_r0_g113_h47_t66 -1 x_r0_g113 <= 0 ;
1 p_r0_g113_h47_t66 -1 x_r0_g47 <= 0 ;
1 p_r0_g113_h47_t66 -1 x_r0_g113 -1 x_r0_g47 >= -1 ;
1 p_r0_g116_h50_t66 -1 x_r0_g116 <= 0 ;
1 p_r0_g116_h50_t66 -1 x_r0_g50 <= 0 ;
1 p_r0_g116_h50_t66 -1 x_r0_g116 -1 x_r0_g50 >= -1 ;
1 p_r0_g132_h66_t66 -1 x_r0_g132 <= 0 ;
1 p_r0_g132_h66_t66 -1 x_r0_g66 <= 0 ;
1 p_r0_g132_h66_t66 -1 x_r0_g132 -1 x_r0_g66 >= -1 ;
1 p_r0_g139_h73_t66 -1 x_r0_g139 <= 0 ;
1 p_r0_g139_h73_t66 -1 x_r0_g73 <= 0 ;
1 p_r0_g139_h73_t66 -1 x_r0_g139 -1 x_r0_g73 >= -1 ;
1 p_r1_g0_h101_t66 -1 x_r1_g0 <= 0 ;
1 p_r1_g0_h101_t66 -1 x_r1_g101 <= 0 ;
1 p_r1_g0_h101_t66 -1 x_r1_g0 -1 x_r1_g101 >= -1 ;
1 p_r1_g19_h120_t66 -1 x_r1_g19 <= 0 ;
1 p_r1_g19_h120_t66 -1 x_r1_g120 <= 0 ;
1 p_r1_g19_h120_t66 -1 x_r1_g19 -1 x_r1_g120 >= -1 ;
1 p_r1_g27_h128_t66 -1 x_r1_g27 <= 0 ;
1 p_r1_g27_h128_t66 -1 x_r1_g128 <= 0 ;
1 p_r1_g27_h128_t66 -1 x_r1_g27 -1 x_r1_g128 >= -1 ;
1 p_r1_g29_h130_t66 -1 x_r1_g29 <= 0 ;
1 p_r1_g29_h130_t66 -1 x_r1_g130 <= 0 ;
1 p_r1_g29_h130_t66 -1 x_r1_g29 -1 x_r1_g130 >= -1 ;
1 p_r1_g82_h16_t66 -1 x_r1_g82 <= 0 ;
1 p_r1_g82_h16_t66 -1 x_r1_g16 <= 0 ;
1 p_r1_g82_h16_t66 -1 x_r1_g82 -1 x_r1_g16 >= -1 ;
1 p_r1_g85_h19_t66 -1 x_r1_g85 <= 0 ;
1 p_r1_g85_h19_t66 -1 x_r1_g19 <= 0 ;
1 p_r1_g85_h19_t66 -1 x_r1_g85 -1 x_r1_g19 >= -1 ;
1 p_r1_g94_h28_t66 -1 x_r1_g94 <= 0 ;
1 p_r1_g94_h28_t66 -1 x_r1_g28 <= 0 ;
1 p_r1_g94_h28_t66 -1 x_r1_g94 -1 x_r1_g28 >= -1 ;
1 p_r1_g99_h33_t66 -1 x_r1_g99 <= 0 ;
1 p_r1_g99_h33_t66 -1 x_r1_g33 <= 0 ;
1 p_r1_g99_h33_t66 -1 x_r1_g99 -1 x_r1_g33 >= -1 ;
1 p_r1_g101_h35_t66 -1 x_r1_g101 <= 0 ;
1 p_r1_g101_h35_t66 -1 x_r1_g35 <= 0 ;
1 p_r1_g101_h35_t66 -1 x_r1_g101 -1 x_r1_g35 >= -1 ;
1 p_r1_g130_h64_t66 -1 x_r1_g130 <= 0 ;
1 p_r1_g130_h64_t66 -1 x_r1_g64 <= 0 ;
1 p_r1_g130_h64_t66 -1 x_r1_g130 -1 x_r1_g64 >= -1 ;
1 p_r1_g157_h91_t66 -1 x_r1_g157 <= 0 ;
1 p_r1_g157_h91_t66 -1 x_r1_g91 <= 0 ;
1 p_r1_g157_h91_t66 -1 x_r1_g157 -1 x_r1_g91 >= -1 ;
1 p_r1_g164_h98_t66 -1 x_r1_g164 <= 0 ;
1 p_r1_g164_h98_t66 -1 x_r1_g98 <= 0 ;
1 p_r1_g164_h98_t66 -1 x_r1_g164 -1 x_r1_g98 >= -1 ;
1 p_r2_g5_h106_t66 -1 x_r2_g5 <= 0 ;
1 p_r2_g5_h106_t66 -1 x_r2_g106 <= 0 ;
1 p_r2_g5_h106_t66 -1 x_r2_g5 -1 x_r2_g106 >= -1 ;
1 p_r2_g13_h114_t66 -1 x_r2_g13 <= 0 ;
1 p_r2_g13_h114_t66 -1 x_r2_g114 <= 0 ;
1 p_r2_g13_h114_t66 -1 x_r2_g13 -1 x_r2_g114 >= -1 ;
1 p_r2_g17_h118_t66 -1 x_r2_g17 <= 0 ;
1 p_r2_g17_h118_t66 -1 x_r2_g118 <= 0 ;
1 p_r2_g17_h118_t66 -1 x_r2_g17 -1 x_r2_g118 >= -1 ;
1 p_r2_g80_h14_t66 -1 x_r2_g80 <= 0 ;
1 p_r2_g80_h14_t66 -1 x_r2_g14 <= 0 ;
1 p_r2_g80_h14_t66 -1 x_r2_g80 -1 x_r2_g14 >= -1 ;
1 p_r2_g141_h75_t66 -1 x_r2_g141 <= 0 ;
1 p_r2_g141_h75_t66 -1 x_r2_g75 <= 0 ;
1 p_r2_g141_h75_t66 -1 x_r2_g141 -1 x_r2_g75 >= -1 ;
1 p_r2_g146_h80_t66 -1 x_r2_g146 <= 0 ;
1 p_r2_g146_h80_t66 -1 x_r2_g80 <= 0 ;
1 p_r2_g146_h80_t66 -1 x_r2_g146 -1 x_r2_g80 >= -1 ;
1 p_r2_g151_h85_t66 -1 x_r2_g151 <= 0 ;
1 p_r2_g151_h85_t66 -1 x_r2_g85 <= 0 ;
1 p_r2_g151_h85_t66 -1 x_r2_g151 -1 x_r2_g85 >= -1 ;
1 p_r3_g6_h107_t66 -1 x_r3_g6 <= 0 ;
1 p_r3_g6_h107_t66 -1 x_r3_g107 <= 0 ;
1 p_r3_g6_h107_t66 -1 x_r3_g6 -1 x_r3_g107 >= -1 ;
1 p_r3_g21_h122_t66 -1 x_r3_g21 <= 0 ;
1 p_r3_g21_h122_t66 -1 x_r3_g122 <= 0 ;
1 p_r3_g21_h122_t66 -1 x_r3_g21 -1 x_r3_g122 >= -1 ;
1 p_r3_g31_h132_t66 -1 x_r3_g31 <= 0 ;
1 p_r3_g31_h132_t66 -1 x_r3_g132 <= 0 ;
1 p_r3_g31_h132_t66 -1 x_r3_g31 -1 x_r3_g132 >= -1 ;
1 p_r3_g66_h0_t66 -1 x_r3_g66 <= 0 ;
1 p_r3_g66_h0_t66 -1 x_r3_g0 <= 0 ;
1 p_r3_g66_h0_t66 -1 x_r3_g66 -1 x_r3_g0 >= -1 ;
1 p_r3_g78_h12_t66 -1 x_r3_g78 <= 0 ;
1 p_r3_g78_h12_t66 -1 x_r3_g12 <= 0 ;
1 p_r3_g78_h12_t66 -1 x_r3_g78 -1 x_r3_g12 >= -1 ;
1 p_r3_g97_h31_t66 -1 x_r3_g97 <= 0 ;
1 p_r3_g97_h31_t66 -1 x_r3_g31 <= 0 ;
1 p_r3_g97_h31_t66 -1 x_r3_g97 -1 x_r3_g31 >= -1 ;
1 p_r3_g121_h55_t66 -1 x_r3_g121 <= 0 ;
1 p_r3_g121_h55_t66 -1 x_r3_g55 <= 0 ;
1 p_r3_g121_h55_t66 -1 x_r3_g121 -1 x_r3_g55 >= -1 ;
1 p_r3_g122_h56_t66 -1 x_r3_g122 <= 0 ;
1 p_r3_g122_h56_t66 -1 x_r3_g56 <= 0 ;
1 p_r3_g122_h56_t66 -1 x_r3_g122 -1 x_r3_g56 >= -1 ;
1 p_r3_g132_h66_t66 -1 x_r3_g132 <= 0 ;
1 p_r3_g132_h66_t66 -1 x_r3_g66 <= 0 ;
1 p_r3_g132_h66_t66 -1 x_r3_g132 -1 x_r3_g66 >= -1 ;
1 p_r3_g146_h80_t66 -1 x_r3_g146 <= 0 ;
1 p_r3_g146_h80_t66 -1 x_r3_g80 <= 0 ;
1 p_r3_g146_h80_t66 -1 x_r3_g146 -1 x_r3_g80 >= -1 ;
1 p_r3_g149_h83_t66 -1 x_r3_g149 <= 0 ;
1 p_r3_g149_h83_t66 -1 x_r3_g83 <= 0 ;
1 p_r3_g149_h83_t66 -1 x_r3_g149 -1 x_r3_g83 >= -1 ;
1 p_r3_g150_h84_t66 -1 x_r3_g150 <= 0 ;
1 p_r3_g150_h84_t66 -1 x_r3_g84 <= 0 ;
1 p_r3_g150_h84_t66 -1 x_r3_g150 -1 x_r3_g84 >= -1 ;
1 d_66 -1 x_r0_g25 -1 x_r0_g40 -1 x_r0_g41 -1 x_r0_g50 -2 x_r0_g54 -1 x_r0_g73 -2 x_r0_g77 -1 x_r0_g99 -1 x_r0_g111 -1 x_r0_g112 -1 x_r0_g113 -1 x_r0_g116 -1 x_r0_g117 -1 x_r0_g128 -1 x_r0_g135 -1 x_r0_g136 -1 x_r0_g137 -1 x_r0_g139 -1 x_r0_g144 -1 x_r0_g152 -2 x_r0_g156 -1 x_r0_g163 -1 x_r1_g0 -1 x_r1_g29 -1 x_r1_g42 -1 x_r1_g43 -1 x_r1_g45 -1 x_r1_g46 -2 x_r1_g58 -1 x_r1_g76 -1 x_r1_g77 -1 x_r1_g89 -1 x_r1_g92 -1 x_r1_g94 -1 x_r1_g98 -1 x_r1_g116 -1 x_r1_g128 -1 x_r1_g131 -2 x_r1_g132 -1 x_r1_g135 -1 x_r1_g157 -1 x_r2_g14 -1 x_r2_g17 -1 x_r2_g29 -2 x_r2_g35 -2 x_r2_g47 -1 x_r2_g51 -2 x_r2_g56 -1 x_r2_g63 -2 x_r2_g87 -1 x_r2_g93 -1 x_r2_g112 -1 x_r2_g114 -1 x_r2_g119 -2 x_r2_g127 -1 x_r2_g132 -1 x_r2_g161 -1 x_r3_g52 -2 x_r3_g53 -2 x_r3_g61 -1 x_r3_g63 -2 x_r3_g68 -1 x_r3_g77 -1 x_r3_g78 -1 x_r3_g82 -1 x_r3_g83 -1 x_r3_g84 -1 x_r3_g97 -1 x_r3_g107 -1 x_r3_g112 -1 x_r3_g115 -1 x_r3_g121 -1 x_r3_g125 -1 x_r3_g133 -1 x_r3_g139 -2 x_r3_g141 -1 x_r3_g146 -1 x_r3_g150 -2 x_r3_g160 -1 p_r0_g16_h117_t66 -1 p_r0_g35_h136_t66 -1 p_r0_g49_h150_t66 -1 p_r0_g101_h35_t66 -1 p_r0_g110_h44_t66 -1 p_r0_g112_h46_t66 -1 p_r0_g113_h47_t66 -1 p_r0_g116_h50_t66 -1 p_r0_g132_h66_t66 -1 p_r0_g139_h73_t66 -1 p_r1_g0_h101_t66 -1 p_r1_g19_h120_t66 -1 p_r1_g27_h128_t66 -1 p_r1_g29_h130_t66 -1 p_r1_g82_h16_t66 -1 p_r1_g85_h19_t66 -1 p_r1_g94_h28_t66 -1 p_r1_g99_h33_t66 -1 p_r1_g101_h35_t66 -1 p_r1_g130_h64_t66 -1 p_r1_g157_h91_t66 -1 p_r1_g164_h98_t66 -1 p_r2_g5_h106_t66 -1 p_r2_g13_h114_t66 -1 p_r2_g17_h118_t66 -1 p_r2_g80_h14_t66 -1 p_r2_g141_h75_t66 -1 p_r2_g146_h80_t66 -1 p_r2_g151_h85_t66 -1 p_r3_g6_h107_t66 -1 p_r3_g21_h122_t66 -1 p_r3_g31_h132_t66 -1 p_r3_g66_h0_t66 -1 p_r3_g78_h12_t66 -1 p_r3_g97_h31_t66 -1 p_r3_g121_h55_t66 -1 p_r3_g122_h56_t66 -1 p_r3_g132_h66_t66 -1 p_r3_g146_h80_t66 -1 p_r3_g149_h83_t66 -1 p_r3_g150_h84_t66 = -61 ;
1 d_66 -1 u_66 <= 0 ;
-1 d_66 -1 u_66 <= 0 ;
1 u_66 -1 M <= 0 ;
1 u_66 <= 1 ;
1 p_r0_g13_h113_t67 -1 x_r0_g13 <= 0 ;
1 p_r0_g13_h113_t67 -1 x_r0_g113 <= 0 ;
1 p_r0_g13_h113_t67 -1 x_r0_g13 -1 x_r0_g113 >= -1 ;
1 p_r0_g16_h116_t67 -1 x_r0_g16 <= 0 ;
1 p_r0_g16_h116_t67 -1 x_r0_g116 <= 0 ;
1 p_r0_g16_h116_t67 -1 x_r0_g16 -1 x_r0_g116 >= -1 ;
1 p_r0_g35_h135_t67 -1 x_r0_g35 <= 0 ;
1 p_r0_g35_h135_t67 -1 x_r0_g135 <= 0 ;
1 p_r0_g35_h135_t67 -1 x_r0_g35 -1 x_r0_g135 >= -1 ;
1 p_r0_g39_h139_t67 -1 x_r0_g39 <= 0 ;
1 p_r0_g39_h139_t67 -1 x_r0_g139 <= 0 ;
1 p_r0_g39_h139_t67 -1 x_r0_g39 -1 x_r0_g139 >= -1 ;
1 p_r0_g44_h144_t67 -1 x_r0_g44 <= 0 ;
1 p_r0_g44_h144_t67 -1 x_r0_g144 <= 0 ;
1 p_r0_g44_h144_t67 -1 x_r0_g44 -1 x_r0_g144 >= -1 ;
1 p_r0_g50_h150_t67 -1 x_r0_g50 <= 0 ;
1 p_r0_g50_h150_t67 -1 x_r0_g150 <= 0 ;
1 p_r0_g50_h150_t67 -1 x_r0_g50 -1 x_r0_g150 >= -1 ;
1 p_r0_g73_h6_t67 -1 x_r0_g73 <= 0 ;
1 p_r0_g73_h6_t67 -1 x_r0_g6 <= 0 ;
1 p_r0_g73_h6_t67 -1 x_r0_g73 -1 x_r0_g6 >= -1 ;
1 p_r0_g111_h44_t67 -1 x_r0_g111 <= 0 ;
1 p_r0_g111_h44_t67 -1 x_r0_g44 <= 0 ;
1 p_r0_g111_h44_t67 -1 x_r0_g111 -1 x_r0_g44 >= -1 ;
1 p_r0_g113_h46_t67 -1 x_r0_g113 <= 0 ;
1 p_r0_g113_h46_t67 -1 x_r0_g46 <= 0 ;
1 p_r0_g113_h46_t67 -1 x_r0_g113 -1 x_r0_g46 >= -1 ;
1 p_r0_g116_h49_t67 -1 x_r0_g116 <= 0 ;
1 p_r0_g116_h49_t67 -1 x_r0_g49 <= 0 ;
1 p_r0_g116_h49_t67 -1 x_r0_g116 -1 x_r0_g49 >= -1 ;
1 p_r0_g117_h50_t67 -1 x_r0_g117 <= 0 ;
1 p_r0_g117_h50_t67 -1 x_r0_g50 <= 0 ;
1 p_r0_g117_h50_t67 -1 x_r0_g117 -1 x_r0_g50 >= -1 ;
1 p_r0_g144_h77_t67 -1 x_r0_g144 <= 0 ;
1 p_r0_g144_h77_t67 -1 x_r0_g77 <= 0 ;
1 p_r0_g144_h77_t67 -1 x_r0_g144 -1 x_r0_g77 >= -1 ;
1 p_r1_g16_h116_t67 -1 x_r1_g16 <= 0 ;
1 p_r1_g16_h116_t67 -1 x_r1_g116 <= 0 ;
1 p_r1_g16_h116_t67 -1 x_r1_g16 -1 x_r1_g116 >= -1 ;
1 p_r1_g20_h120_t67 -1 x_r1_g20 <= 0 ;
1 p_r1_g20_h120_t67 -1 x_r1_g120 <= 0 ;
1 p_r1_g20_h120_t67 -1 x_r1_g20 -1 x_r1_g120 >= -1 ;
1 p_r1_g28_h128_t67 -1 x_r1_g28 <= 0 ;
1 p_r1_g28_h128_t67 -1 x_r1_g128 <= 0 ;
1 p_r1_g28_h128_t67 -1 x_r1_g28 -1 x_r1_g128 >= -1 ;
1 p_r1_g35_h135_t67 -1 x_r1_g35 <= 0 ;
1 p_r1_g35_h135_t67 -1 x_r1_g135 <= 0 ;
1 p_r1_g35_h135_t67 -1 x_r1_g35 -1 x_r1_g135 >= -1 ;
1 p_r1_g64_h164_t67 -1 x_r1_g64 <= 0 ;
1 p_r1_g64_h164_t67 -1 x_r1_g164 <= 0 ;
1 p_r1_g64_h164_t67 -1 x_r1_g64 -1 x_r1_g164 >= -1 ;
1 p_r1_g94_h27_t67 -1 x_r1_g94 <= 0 ;
1 p_r1_g94_h27_t67 -1 x_r1_g27 <= 0 ;
1 p_r1_g94_h27_t67 -1 x_r1_g94 -1 x_r1_g27 >= -1 ;
1 p_r1_g131_h64_t67 -1 x_r1_g131 <= 0 ;
1 p_r1_g131_h64_t67 -1 x_r1_g64 <= 0 ;
1 p_r1_g131_h64_t67 -1 x_r1_g131 -1 x_r1_g64 >= -1 ;
1 p_r2_g6_h106_t67 -1 x_r2_g6 <= 0 ;
1 p_r2_g6_h106_t67 -1 x_r2_g106 <= 0 ;
1 p_r2_g6_h106_t67 -1 x_r2_g6 -1 x_r2_g106 >= -1 ;
1 p_r2_g14_h114_t67 -1 x_r2_g14 <= 0 ;
1 p_r2_g14_h114_t67 -1 x_r2_g114 <= 0 ;
1 p_r2_g14_h114_t67 -1 x_r2_g14 -1 x_r2_g114 >= -1 ;
1 p_r2_g41_h141_t67 -1 x_r2_g41 <= 0 ;
1 p_r2_g41_h141_t67 -1 x_r2_g141 <= 0 ;
1 p_r2_g41_h141_t67 -1 x_r2_g41 -1 x_r2_g141 >= -1 ;
1 p_r2_g51_h151_t67 -1 x_r2_g51 <= 0 ;
1 p_r2_g51_h151_t67 -1 x_r2_g151 <= 0 ;
1 p_r2_g51_h151_t67 -1 x_r2_g51 -1 x_r2_g151 >= -1 ;
1 p_r2_g80_h13_t67 -1 x_r2_g80 <= 0 ;
1 p_r2_g80_h13_t67 -1 x_r2_g13 <= 0 ;
1 p_r2_g80_h13_t67 -1 x_r2_g80 -1 x_r2_g13 >= -1 ;
1 p_r2_g114_h47_t67 -1 x_r2_g114 <= 0 ;
1 p_r2_g114_h47_t67 -1 x_r2_g47 <= 0 ;
1 p_r2_g114_h47_t67 -1 x_r2_g114 -1 x_r2_g47 >= -1 ;
1 p_r2_g118_h51_t67 -1 x_r2_g118 <= 0 ;
1 p_r2_g118_h51_t67 -1 x_r2_g51 <= 0 ;
1 p_r2_g118_h51_t67 -1 x_r2_g118 -1 x_r2_g51 >= -1 ;
1 p_r3_g12_h112_t67 -1 x_r3_g12 <= 0 ;
1 p_r3_g12_h112_t67 -1 x_r3_g112 <= 0 ;
1 p_r3_g12_h112_t67 -1 x_r3_g12 -1 x_r3_g112 >= -1 ;
1 p_r3_g21_h121_t67 -1 x_r3_g21 <= 0 ;
1 p_r3_g21_h121_t67 -1 x_r3_g121 <= 0 ;
1 p_r3_g21_h121_t67 -1 x_r3_g21 -1 x_r3_g121 >= -1 ;
1 p_r3_g121_h54_t67 -1 x_r3_g121 <= 0 ;
1 p_r3_g121_h54_t67 -1 x_r3_g54 <= 0 ;
1 p_r3_g121_h54_t67 -1 x_r3_g121 -1 x_r3_g54 >= -1 ;
1 p_r3_g122_h55_t67 -1 x_r3_g122 <= 0 ;
1 p_r3_g122_h55_t67 -1 x_r3_g55 <= 0 ;
1 p_r3_g122_h55_t67 -1 x_r3_g122 -1 x_r3_g55 >= -1 ;
1 p_r3_g133_h66_t67 -1 x_r3_g133 <= 0 ;
1 p_r3_g133_h66_t67 -1 x_r3_g66 <= 0 ;
1 p_r3_g133_h66_t67 -1 x_r3_g133 -1 x_r3_g66 >= -1 ;
1 p_r3_g149_h82_t67 -1 x_r3_g149 <= 0 ;
1 p_r3_g149_h82_t67 -1 x_r3_g82 <= 0 ;
1 p_r3_g149_h82_t67 -1 x_r3_g149 -1 x_r3_g82 >= -1 ;
1 p_r3_g150_h83_t67 -1 x_r3_g150 <= 0 ;
1 p_r3_g150_h83_t67 -1 x_r3_g83 <= 0 ;
1 p_r3_g150_h83_t67 -1 x_r3_g150 -1 x_r3_g83 >= -1 ;
1 d_67 -1 x_r0_g6 -2 x_r0_g23 -1 x_r0_g25 -1 x_r0_g35 -1 x_r0_g39 -1 x_r0_g46 -1 x_r0_g49 -1 x_r0_g74 -1 x_r0_g88 -1 x_r0_g101 -1 x_r0_g110 -1 x_r0_g111 -2 x_r0_g112 -1 x_r0_g132 -1 x_r0_g135 -1 x_r0_g136 -2 x_r0_g137 -1 x_r0_g152 -1 x_r0_g163 -1 x_r1_g0 -1 x_r1_g19 -1 x_r1_g20 -1 x_r1_g27 -1 x_r1_g28 -1 x_r1_g29 -1 x_r1_g33 -1 x_r1_g36 -1 x_r1_g38 -1 x_r1_g42 -1 x_r1_g45 -2 x_r1_g46 -1 x_r1_g71 -1 x_r1_g77 -1 x_r1_g78 -1 x_r1_g82 -1 x_r1_g85 -1 x_r1_g89 -1 x_r1_g92 -1 x_r1_g98 -2 x_r1_g99 -1 x_r1_g101 -1 x_r1_g116 -1 x_r1_g120 -1 x_r1_g131 -2 x_r1_g132 -1 x_r1_g135 -2 x_r1_g157 -1 x_r2_g5 -1 x_r2_g7 -1 x_r2_g13 -1 x_r2_g22 -1 x_r2_g29 -2 x_r2_g34 -1 x_r2_g35 -2 x_r2_g63 -2 x_r2_g85 -1 x_r2_g87 -2 x_r2_g93 -1 x_r2_g106 -1 x_r2_g116 -1 x_r2_g118 -2 x_r2_g125 -2 x_r2_g127 -1 x_r2_g132 -1 x_r2_g133 -1 x_r2_g139 -1 x_r2_g141 -1 x_r2_g145 -1 x_r2_g146 -2 x_r2_g161 -1 x_r3_g6 -1 x_r3_g29 -1 x_r3_g31 -1 x_r3_g52 -1 x_r3_g54 -1 x_r3_g56 -1 x_r3_g61 -1 x_r3_g63 -1 x_r3_g66 -1 x_r3_g68 -1 x_r3_g77 -1 x_r3_g78 -1 x_r3_g80 -2 x_r3_g84 -1 x_r3_g89 -1 x_r3_g97 -1 x_r3_g107 -2 x_r3_g108 -1 x_r3_g112 -1 x_r3_g122 -2 x_r3_g132 -1 x_r3_g136 -1 x_r3_g139 -2 x_r3_g141 -1 x_r3_g146 -1 x_r3_g149 -1 p_r0_g13_h113_t67 -1 p_r0_g16_h116_t67 -1 p_r0_g35_h135_t67 -1 p_r0_g39_h139_t67 -1 p_r0_g44_h144_t67 -1 p_r0_g50_h150_t67 -1 p_r0_g73_h6_t67 -1 p_r0_g111_h44_t67 -1 p_r0_g113_h46_t67 -1 p_r0_g116_h49_t67 -1 p_r0_g117_h50_t67 -1 p_r0_g144_h77_t67 -1 p_r1_g16_h116_t67 -1 p_r1_g20_h120_t67 -1 p_r1_g28_h128_t67 -1 p_r1_g35_h135_t67 -1 p_r1_g64_h164_t67 -1 p_r1_g94_h27_t67 -1 p_r1_g131_h64_t67 -1 p_r2_g6_h106_t67 -1 p_r2_g14_h114_t67 -1 p_r2_g41_h141_t67 -1 p_r2_g51_h151_t67 -1 p_r2_g80_h13_t67 -1 p_r2_g114_h47_t67 -1 p_r2_g118_h51_t67 -1 p_r3_g12_h112_t67 -1 p_r3_g21_h121_t67 -1 p_r3_g121_h54_t67 -1 p_r3_g122_h55_t67 -1 p_r3_g133_h66_t67 -1 p_r3_g149_h82_t67 -1 p_r3_g150_h83_t67 = -67 ;
1 d_67 -1 u_67 <= 0 ;
-1 d_67 -1 u_67 <= 0 ;
1 u_67 -1 M <= 0 ;
1 u_67 <= 0 ;
1 p_r0_g13_h112_t68 -1 x_r0_g13 <= 0 ;
1 p_r0_g13_h112_t68 -1 x_r0_g112 <= 0 ;
1 p_r0_g13_h112_t68 -1 x_r0_g13 -1 x_r0_g112 >= -1 ;
1 p_r0_g40_h139_t68 -1 x_r0_g40 <= 0 ;
1 p_r0_g40_h139_t68 -1 x_r0_g139 <= 0 ;
1 p_r0_g40_h139_t68 -1 x_r0_g40 -1 x_r0_g139 >= -1 ;
1 p_r0_g74_h6_t68 -1 x_r0_g74 <= 0 ;
1 p_r0_g74_h6_t68 -1 x_r0_g6 <= 0 ;
1 p_r0_g74_h6_t68 -1 x_r0_g74 -1 x_r0_g6 >= -1 ;
1 p_r0_g112_h44_t68 -1 x_r0_g112 <= 0 ;
1 p_r0_g112_h44_t68 -1 x_r0_g44 <= 0 ;
1 p_r0_g112_h44_t68 -1 x_r0_g112 -1 x_r0_g44 >= -1 ;
1 p_r0_g117_h49_t68 -1 x_r0_g117 <= 0 ;
1 p_r0_g117_h49_t68 -1 x_r0_g49 <= 0 ;
1 p_r0_g117_h49_t68 -1 x_r0_g117 -1 x_r0_g49 >= -1 ;
1 p_r0_g156_h88_t68 -1 x_r0_g156 <= 0 ;
1 p_r0_g156_h88_t68 -1 x_r0_g88 <= 0 ;
1 p_r0_g156_h88_t68 -1 x_r0_g156 -1 x_r0_g88 >= -1 ;
1 p_r0_g163_h95_t68 -1 x_r0_g163 <= 0 ;
1 p_r0_g163_h95_t68 -1 x_r0_g95 <= 0 ;
1 p_r0_g163_h95_t68 -1 x_r0_g163 -1 x_r0_g95 >= -1 ;
1 p_r1_g0_h99_t68 -1 x_r1_g0 <= 0 ;
1 p_r1_g0_h99_t68 -1 x_r1_g99 <= 0 ;
1 p_r1_g0_h99_t68 -1 x_r1_g0 -1 x_r1_g99 >= -1 ;
1 p_r1_g29_h128_t68 -1 x_r1_g29 <= 0 ;
1 p_r1_g29_h128_t68 -1 x_r1_g128 <= 0 ;
1 p_r1_g29_h128_t68 -1 x_r1_g29 -1 x_r1_g128 >= -1 ;
1 p_r1_g33_h132_t68 -1 x_r1_g33 <= 0 ;
1 p_r1_g33_h132_t68 -1 x_r1_g132 <= 0 ;
1 p_r1_g33_h132_t68 -1 x_r1_g33 -1 x_r1_g132 >= -1 ;
1 p_r1_g36_h135_t68 -1 x_r1_g36 <= 0 ;
1 p_r1_g36_h135_t68 -1 x_r1_g135 <= 0 ;
1 p_r1_g36_h135_t68 -1 x_r1_g36 -1 x_r1_g135 >= -1 ;
1 p_r1_g58_h157_t68 -1 x_r1_g58 <= 0 ;
1 p_r1_g58_h157_t68 -1 x_r1_g157 <= 0 ;
1 p_r1_g58_h157_t68 -1 x_r1_g58 -1 x_r1_g157 >= -1 ;
1 p_r1_g101_h33_t68 -1 x_r1_g101 <= 0 ;
1 p_r1_g101_h33_t68 -1 x_r1_g33 <= 0 ;
1 p_r1_g101_h33_t68 -1 x_r1_g101 -1 x_r1_g33 >= -1 ;
1 p_r1_g114_h46_t68 -1 x_r1_g114 <= 0 ;
1 p_r1_g114_h46_t68 -1 x_r1_g46 <= 0 ;
1 p_r1_g114_h46_t68 -1 x_r1_g114 -1 x_r1_g46 >= -1 ;
1 p_r1_g132_h64_t68 -1 x_r1_g132 <= 0 ;
1 p_r1_g132_h64_t68 -1 x_r1_g64 <= 0 ;
1 p_r1_g132_h64_t68 -1 x_r1_g132 -1 x_r1_g64 >= -1 ;
1 p_r1_g157_h89_t68 -1 x_r1_g157 <= 0 ;
1 p_r1_g157_h89_t68 -1 x_r1_g89 <= 0 ;
1 p_r1_g157_h89_t68 -1 x_r1_g157 -1 x_r1_g89 >= -1 ;
1 p_r2_g7_h106_t68 -1 x_r2_g7 <= 0 ;
1 p_r2_g7_h106_t68 -1 x_r2_g106 <= 0 ;
1 p_r2_g7_h106_t68 -1 x_r2_g7 -1 x_r2_g106 >= -1 ;
1 p_r2_g13_h112_t68 -1 x_r2_g13 <= 0 ;
1 p_r2_g13_h112_t68 -1 x_r2_g112 <= 0 ;
1 p_r2_g13_h112_t68 -1 x_r2_g13 -1 x_r2_g112 >= -1 ;
1 p_r2_g17_h116_t68 -1 x_r2_g17 <= 0 ;
1 p_r2_g17_h116_t68 -1 x_r2_g116 <= 0 ;
1 p_r2_g17_h116_t68 -1 x_r2_g17 -1 x_r2_g116 >= -1 ;
1 p_r2_g34_h133_t68 -1 x_r2_g34 <= 0 ;
1 p_r2_g34_h133_t68 -1 x_r2_g133 <= 0 ;
1 p_r2_g34_h133_t68 -1 x_r2_g34 -1 x_r2_g133 >= -1 ;
1 p_r2_g42_h141_t68 -1 x_r2_g42 <= 0 ;
1 p_r2_g42_h141_t68 -1 x_r2_g141 <= 0 ;
1 p_r2_g42_h141_t68 -1 x_r2_g42 -1 x_r2_g141 >= -1 ;
1 p_r2_g47_h146_t68 -1 x_r2_g47 <= 0 ;
1 p_r2_g47_h146_t68 -1 x_r2_g146 <= 0 ;
1 p_r2_g47_h146_t68 -1 x_r2_g47 -1 x_r2_g146 >= -1 ;
1 p_r2_g75_h7_t68 -1 x_r2_g75 <= 0 ;
1 p_r2_g75_h7_t68 -1 x_r2_g7 <= 0 ;
1 p_r2_g75_h7_t68 -1 x_r2_g75 -1 x_r2_g7 >= -1 ;
1 p_r2_g85_h17_t68 -1 x_r2_g85 <= 0 ;
1 p_r2_g85_h17_t68 -1 x_r2_g17 <= 0 ;
1 p_r2_g85_h17_t68 -1 x_r2_g85 -1 x_r2_g17 >= -1 ;
1 p_r2_g119_h51_t68 -1 x_r2_g119 <= 0 ;
1 p_r2_g119_h51_t68 -1 x_r2_g51 <= 0 ;
1 p_r2_g119_h51_t68 -1 x_r2_g119 -1 x_r2_g51 >= -1 ;
1 p_r2_g161_h93_t68 -1 x_r2_g161 <= 0 ;
1 p_r2_g161_h93_t68 -1 x_r2_g93 <= 0 ;
1 p_r2_g161_h93_t68 -1 x_r2_g161 -1 x_r2_g93 >= -1 ;
1 p_r3_g61_h160_t68 -1 x_r3_g61 <= 0 ;
1 p_r3_g61_h160_t68 -1 x_r3_g160 <= 0 ;
1 p_r3_g61_h160_t68 -1 x_r3_g61 -1 x_r3_g160 >= -1 ;
1 p_r3_g68_h0_t68 -1 x_r3_g68 <= 0 ;
1 p_r3_g68_h0_t68 -1 x_r3_g0 <= 0 ;
1 p_r3_g68_h0_t68 -1 x_r3_g68 -1 x_r3_g0 >= -1 ;
1 p_r3_g80_h12_t68 -1 x_r3_g80 <= 0 ;
1 p_r3_g80_h12_t68 -1 x_r3_g12 <= 0 ;
1 p_r3_g80_h12_t68 -1 x_r3_g80 -1 x_r3_g12 >= -1 ;
1 p_r3_g89_h21_t68 -1 x_r3_g89 <= 0 ;
1 p_r3_g89_h21_t68 -1 x_r3_g21 <= 0 ;
1 p_r3_g89_h21_t68 -1 x_r3_g89 -1 x_r3_g21 >= -1 ;
1 p_r3_g97_h29_t68 -1 x_r3_g97 <= 0 ;
1 p_r3_g97_h29_t68 -1 x_r3_g29 <= 0 ;
1 p_r3_g97_h29_t68 -1 x_r3_g97 -1 x_r3_g29 >= -1 ;
1 p_r3_g121_h53_t68 -1 x_r3_g121 <= 0 ;
1 p_r3_g121_h53_t68 -1 x_r3_g53 <= 0 ;
1 p_r3_g121_h53_t68 -1 x_r3_g121 -1 x_r3_g53 >= -1 ;
1 p_r3_g122_h54_t68 -1 x_r3_g122 <= 0 ;
1 p_r3_g122_h54_t68 -1 x_r3_g54 <= 0 ;
1 p_r3_g122_h54_t68 -1 x_r3_g122 -1 x_r3_g54 >= -1 ;
1 p_r3_g136_h68_t68 -1 x_r3_g136 <= 0 ;
1 p_r3_g136_h68_t68 -1 x_r3_g68 <= 0 ;
1 p_r3_g136_h68_t68 -1 x_r3_g136 -1 x_r3_g68 >= -1 ;
1 p_r3_g146_h78_t68 -1 x_r3_g146 <= 0 ;
1 p_r3_g146_h78_t68 -1 x_r3_g78 <= 0 ;
1 p_r3_g146_h78_t68 -1 x_r3_g146 -1 x_r3_g78 >= -1 ;
1 p_r3_g150_h82_t68 -1 x_r3_g150 <= 0 ;
1 p_r3_g150_h82_t68 -1 x_r3_g82 <= 0 ;
1 p_r3_g150_h82_t68 -1 x_r3_g150 -1 x_r3_g82 >= -1 ;
1 d_68 -1 x_r0_g23 -1 x_r0_g35 -1 x_r0_g44 -1 x_r0_g47 -2 x_r0_g50 -1 x_r0_g54 -1 x_r0_g66 -1 x_r0_g73 -1 x_r0_g74 -1 x_r0_g88 -2 x_r0_g110 -2 x_r0_g111 -2 x_r0_g113 -1 x_r0_g116 -2 x_r0_g135 -2 x_r0_g136 -1 x_r0_g137 -1 x_r0_g144 -1 x_r0_g150 -1 x_r1_g0 -2 x_r1_g16 -1 x_r1_g19 -2 x_r1_g20 -1 x_r1_g27 -2 x_r1_g28 -1 x_r1_g35 -1 x_r1_g42 -1 x_r1_g45 -1 x_r1_g64 -1 x_r1_g71 -2 x_r1_g78 -1 x_r1_g91 -1 x_r1_g92 -1 x_r1_g94 -1 x_r1_g98 -1 x_r1_g99 -1 x_r1_g114 -2 x_r1_g130 -1 x_r1_g131 -2 x_r1_g164 -1 x_r2_g5 -2 x_r2_g6 -2 x_r2_g14 -2 x_r2_g22 -1 x_r2_g29 -1 x_r2_g34 -1 x_r2_g35 -1 x_r2_g41 -1 x_r2_g42 -1 x_r2_g47 -1 x_r2_g51 -1 x_r2_g80 -1 x_r2_g85 -1 x_r2_g93 -1 x_r2_g111 -1 x_r2_g114 -1 x_r2_g116 -1 x_r2_g119 -1 x_r2_g125 -1 x_r2_g127 -2 x_r2_g132 -1 x_r2_g133 -1 x_r2_g138 -1 x_r2_g145 -1 x_r2_g146 -1 x_r2_g151 -1 x_r3_g0 -1 x_r3_g6 -1 x_r3_g12 -1 x_r3_g29 -1 x_r3_g31 -1 x_r3_g52 -2 x_r3_g55 -1 x_r3_g56 -1 x_r3_g61 -1 x_r3_g63 -1 x_r3_g66 -2 x_r3_g77 -1 x_r3_g80 -1 x_r3_g83 -2 x_r3_g107 -2 x_r3_g108 -1 x_r3_g112 -1 x_r3_g115 -1 x_r3_g121 -1 x_r3_g125 -1 x_r3_g133 -1 x_r3_g136 -1 x_r3_g139 -1 x_r3_g146 -1 x_r3_g149 -1 p_r0_g13_h112_t68 -1 p_r0_g40_h139_t68 -1 p_r0_g74_h6_t68 -1 p_r0_g112_h44_t68 -1 p_r0_g117_h49_t68 -1 p_r0_g156_h88_t68 -1 p_r0_g163_h95_t68 -1 p_r1_g0_h99_t68 -1 p_r1_g29_h128_t68 -1 p_r1_g33_h132_t68 -1 p_r1_g36_h135_t68 -1 p_r1_g58_h157_t68 -1 p_r1_g101_h33_t68 -1 p_r1_g114_h46_t68 -1 p_r1_g132_h64_t68 -1 p_r1_g157_h89_t68 -1 p_r2_g7_h106_t68 -1 p_r2_g13_h112_t68 -1 p_r2_g17_h116_t68 -1 p_r2_g34_h133_t68 -1 p_r2_g42_h141_t68 -1 p_r2_g47_h146_t68 -1 p_r2_g75_h7_t68 -1 p_r2_g85_h17_t68 -1 p_r2_g119_h51_t68 -1 p_r2_g161_h93_t68 -1 p_r3_g61_h160_t68 -1 p_r3_g68_h0_t68 -1 p_r3_g80_h12_t68 -1 p_r3_g89_h21_t68 -1 p_r3_g97_h29_t68 -1 p_r3_g121_h53_t68 -1 p_r3_g122_h54_t68 -1 p_r3_g136_h68_t68 -1 p_r3_g146_h78_t68 -1 p_r3_g150_h82_t68 = -66 ;
1 d_68 -1 u_68 <= 0 ;
-1 d_68 -1 u_68 <= 0 ;
1 u_68 -1 M <= 0 ;
1 u_68 <= 0 ;
1 p_r0_g13_h110_t70 -1 x_r0_g13 <= 0 ;
1 p_r0_g13_h110_t70 -1 x_r0_g110 <= 0 ;
1 p_r0_g13_h110_t70 -1 x_r0_g13 -1 x_r0_g110 >= -1 ;
1 p_r0_g16_h113_t70 -1 x_r0_g16 <= 0 ;
1 p_r0_g16_h113_t70 -1 x_r0_g113 <= 0 ;
1 p_r0_g16_h113_t70 -1 x_r0_g16 -1 x_r0_g113 >= -1 ;
1 p_r0_g35_h132_t70 -1 x_r0_g35 <= 0 ;
1 p_r0_g35_h132_t70 -1 x_r0_g132 <= 0 ;
1 p_r0_g35_h132_t70 -1 x_r0_g35 -1 x_r0_g132 >= -1 ;
1 p_r0_g39_h136_t70 -1 x_r0_g39 <= 0 ;
1 p_r0_g39_h136_t70 -1 x_r0_g136 <= 0 ;
1 p_r0_g39_h136_t70 -1 x_r0_g39 -1 x_r0_g136 >= -1 ;
1 p_r0_g40_h137_t70 -1 x_r0_g40 <= 0 ;
1 p_r0_g40_h137_t70 -1 x_r0_g137 <= 0 ;
1 p_r0_g40_h137_t70 -1 x_r0_g40 -1 x_r0_g137 >= -1 ;
1 p_r0_g47_h144_t70 -1 x_r0_g47 <= 0 ;
1 p_r0_g47_h144_t70 -1 x_r0_g144 <= 0 ;
1 p_r0_g47_h144_t70 -1 x_r0_g47 -1 x_r0_g144 >= -1 ;
1 p_r0_g66_h163_t70 -1 x_r0_g66 <= 0 ;
1 p_r0_g66_h163_t70 -1 x_r0_g163 <= 0 ;
1 p_r0_g66_h163_t70 -1 x_r0_g66 -1 x_r0_g163 >= -1 ;
1 p_r0_g95_h25_t70 -1 x_r0_g95 <= 0 ;
1 p_r0_g95_h25_t70 -1 x_r0_g25 <= 0 ;
1 p_r0_g95_h25_t70 -1 x_r0_g95 -1 x_r0_g25 >= -1 ;
1 p_r0_g110_h40_t70 -1 x_r0_g110 <= 0 ;
1 p_r0_g110_h40_t70 -1 x_r0_g40 <= 0 ;
1 p_r0_g110_h40_t70 -1 x_r0_g110 -1 x_r0_g40 >= -1 ;
1 p_r0_g111_h41_t70 -1 x_r0_g111 <= 0 ;
1 p_r0_g111_h41_t70 -1 x_r0_g41 <= 0 ;
1 p_r0_g111_h41_t70 -1 x_r0_g111 -1 x_r0_g41 >= -1 ;
1 p_r0_g116_h46_t70 -1 x_r0_g116 <= 0 ;
1 p_r0_g116_h46_t70 -1 x_r0_g46 <= 0 ;
1 p_r0_g116_h46_t70 -1 x_r0_g116 -1 x_r0_g46 >= -1 ;
1 p_r0_g117_h47_t70 -1 x_r0_g117 <= 0 ;
1 p_r0_g117_h47_t70 -1 x_r0_g47 <= 0 ;
1 p_r0_g117_h47_t70 -1 x_r0_g117 -1 x_r0_g47 >= -1 ;
1 p_r0_g136_h66_t70 -1 x_r0_g136 <= 0 ;
1 p_r0_g136_h66_t70 -1 x_r0_g66 <= 0 ;
1 p_r0_g136_h66_t70 -1 x_r0_g136 -1 x_r0_g66 >= -1 ;
1 p_r0_g144_h74_t70 -1 x_r0_g144 <= 0 ;
1 p_r0_g144_h74_t70 -1 x_r0_g74 <= 0 ;
1 p_r0_g144_h74_t70 -1 x_r0_g144 -1 x_r0_g74 >= -1 ;
1 p_r1_g19_h116_t70 -1 x_r1_g19 <= 0 ;
1 p_r1_g19_h116_t70 -1 x_r1_g116 <= 0 ;
1 p_r1_g19_h116_t70 -1 x_r1_g19 -1 x_r1_g116 >= -1 ;
1 p_r1_g33_h130_t70 -1 x_r1_g33 <= 0 ;
1 p_r1_g33_h130_t70 -1 x_r1_g130 <= 0 ;
1 p_r1_g33_h130_t70 -1 x_r1_g33 -1 x_r1_g130 >= -1 ;
1 p_r1_g35_h132_t70 -1 x_r1_g35 <= 0 ;
1 p_r1_g35_h132_t70 -1 x_r1_g132 <= 0 ;
1 p_r1_g35_h132_t70 -1 x_r1_g35 -1 x_r1_g132 >= -1 ;
1 p_r1_g38_h135_t70 -1 x_r1_g38 <= 0 ;
1 p_r1_g38_h135_t70 -1 x_r1_g135 <= 0 ;
1 p_r1_g38_h135_t70 -1 x_r1_g38 -1 x_r1_g135 >= -1 ;
1 p_r1_g89_h19_t70 -1 x_r1_g89 <= 0 ;
1 p_r1_g89_h19_t70 -1 x_r1_g19 <= 0 ;
1 p_r1_g89_h19_t70 -1 x_r1_g89 -1 x_r1_g19 >= -1 ;
1 p_r1_g98_h28_t70 -1 x_r1_g98 <= 0 ;
1 p_r1_g98_h28_t70 -1 x_r1_g28 <= 0 ;
1 p_r1_g98_h28_t70 -1 x_r1_g98 -1 x_r1_g28 >= -1 ;
1 p_r1_g99_h29_t70 -1 x_r1_g99 <= 0 ;
1 p_r1_g99_h29_t70 -1 x_r1_g29 <= 0 ;
1 p_r1_g99_h29_t70 -1 x_r1_g99 -1 x_r1_g29 >= -1 ;
1 p_r1_g116_h46_t70 -1 x_r1_g116 <= 0 ;
1 p_r1_g116_h46_t70 -1 x_r1_g46 <= 0 ;
1 p_r1_g116_h46_t70 -1 x_r1_g116 -1 x_r1_g46 >= -1 ;
1 p_r1_g128_h58_t70 -1 x_r1_g128 <= 0 ;
1 p_r1_g128_h58_t70 -1 x_r1_g58 <= 0 ;
1 p_r1_g128_h58_t70 -1 x_r1_g128 -1 x_r1_g58 >= -1 ;
1 p_r1_g164_h94_t70 -1 x_r1_g164 <= 0 ;
1 p_r1_g164_h94_t70 -1 x_r1_g94 <= 0 ;
1 p_r1_g164_h94_t70 -1 x_r1_g164 -1 x_r1_g94 >= -1 ;
1 p_r2_g14_h111_t70 -1 x_r2_g14 <= 0 ;
1 p_r2_g14_h111_t70 -1 x_r2_g111 <= 0 ;
1 p_r2_g14_h111_t70 -1 x_r2_g14 -1 x_r2_g111 >= -1 ;
1 p_r2_g17_h114_t70 -1 x_r2_g17 <= 0 ;
1 p_r2_g17_h114_t70 -1 x_r2_g114 <= 0 ;
1 p_r2_g17_h114_t70 -1 x_r2_g17 -1 x_r2_g114 >= -1 ;
1 p_r2_g22_h119_t70 -1 x_r2_g22 <= 0 ;
1 p_r2_g22_h119_t70 -1 x_r2_g119 <= 0 ;
1 p_r2_g22_h119_t70 -1 x_r2_g22 -1 x_r2_g119 >= -1 ;
1 p_r2_g35_h132_t70 -1 x_r2_g35 <= 0 ;
1 p_r2_g35_h132_t70 -1 x_r2_g132 <= 0 ;
1 p_r2_g35_h132_t70 -1 x_r2_g35 -1 x_r2_g132 >= -1 ;
1 p_r2_g41_h138_t70 -1 x_r2_g41 <= 0 ;
1 p_r2_g41_h138_t70 -1 x_r2_g138 <= 0 ;
1 p_r2_g41_h138_t70 -1 x_r2_g41 -1 x_r2_g138 >= -1 ;
1 p_r2_g42_h139_t70 -1 x_r2_g42 <= 0 ;
1 p_r2_g42_h139_t70 -1 x_r2_g139 <= 0 ;
1 p_r2_g42_h139_t70 -1 x_r2_g42 -1 x_r2_g139 >= -1 ;
1 p_r2_g75_h5_t70 -1 x_r2_g75 <= 0 ;
1 p_r2_g75_h5_t70 -1 x_r2_g5 <= 0 ;
1 p_r2_g75_h5_t70 -1 x_r2_g75 -1 x_r2_g5 >= -1 ;
1 p_r2_g76_h6_t70 -1 x_r2_g76 <= 0 ;
1 p_r2_g76_h6_t70 -1 x_r2_g6 <= 0 ;
1 p_r2_g76_h6_t70 -1 x_r2_g76 -1 x_r2_g6 >= -1 ;
1 p_r2_g87_h17_t70 -1 x_r2_g87 <= 0 ;
1 p_r2_g87_h17_t70 -1 x_r2_g17 <= 0 ;
1 p_r2_g87_h17_t70 -1 x_r2_g87 -1 x_r2_g17 >= -1 ;
1 p_r2_g111_h41_t70 -1 x_r2_g111 <= 0 ;
1 p_r2_g111_h41_t70 -1 x_r2_g41 <= 0 ;
1 p_r2_g111_h41_t70 -1 x_r2_g111 -1 x_r2_g41 >= -1 ;
1 p_r2_g112_h42_t70 -1 x_r2_g112 <= 0 ;
1 p_r2_g112_h42_t70 -1 x_r2_g42 <= 0 ;
1 p_r2_g112_h42_t70 -1 x_r2_g112 -1 x_r2_g42 >= -1 ;
1 p_r2_g133_h63_t70 -1 x_r2_g133 <= 0 ;
1 p_r2_g133_h63_t70 -1 x_r2_g63 <= 0 ;
1 p_r2_g133_h63_t70 -1 x_r2_g133 -1 x_r2_g63 >= -1 ;
1 p_r2_g145_h75_t70 -1 x_r2_g145 <= 0 ;
1 p_r2_g145_h75_t70 -1 x_r2_g75 <= 0 ;
1 p_r2_g145_h75_t70 -1 x_r2_g145 -1 x_r2_g75 >= -1 ;
1 p_r2_g146_h76_t70 -1 x_r2_g146 <= 0 ;
1 p_r2_g146_h76_t70 -1 x_r2_g76 <= 0 ;
1 p_r2_g146_h76_t70 -1 x_r2_g146 -1 x_r2_g76 >= -1 ;
1 p_r3_g0_h97_t70 -1 x_r3_g0 <= 0 ;
1 p_r3_g0_h97_t70 -1 x_r3_g97 <= 0 ;
1 p_r3_g0_h97_t70 -1 x_r3_g0 -1 x_r3_g97 >= -1 ;
1 p_r3_g52_h149_t70 -1 x_r3_g52 <= 0 ;
1 p_r3_g52_h149_t70 -1 x_r3_g149 <= 0 ;
1 p_r3_g52_h149_t70 -1 x_r3_g52 -1 x_r3_g149 >= -1 ;
1 p_r3_g53_h150_t70 -1 x_r3_g53 <= 0 ;
1 p_r3_g53_h150_t70 -1 x_r3_g150 <= 0 ;
1 p_r3_g53_h150_t70 -1 x_r3_g53 -1 x_r3_g150 >= -1 ;
1 p_r3_g63_h160_t70 -1 x_r3_g63 <= 0 ;
1 p_r3_g63_h160_t70 -1 x_r3_g160 <= 0 ;
1 p_r3_g63_h160_t70 -1 x_r3_g63 -1 x_r3_g160 >= -1 ;
1 p_r3_g82_h12_t70 -1 x_r3_g82 <= 0 ;
1 p_r3_g82_h12_t70 -1 x_r3_g12 <= 0 ;
1 p_r3_g82_h12_t70 -1 x_r3_g82 -1 x_r3_g12 >= -1 ;
1 p_r3_g122_h52_t70 -1 x_r3_g122 <= 0 ;
1 p_r3_g122_h52_t70 -1 x_r3_g52 <= 0 ;
1 p_r3_g122_h52_t70 -1 x_r3_g122 -1 x_r3_g52 >= -1 ;
1 p_r3_g125_h55_t70 -1 x_r3_g125 <= 0 ;
1 p_r3_g125_h55_t70 -1 x_r3_g55 <= 0 ;
1 p_r3_g125_h55_t70 -1 x_r3_g125 -1 x_r3_g55 >= -1 ;
1 p_r3_g133_h63_t70 -1 x_r3_g133 <= 0 ;
1 p_r3_g133_h63_t70 -1 x_r3_g63 <= 0 ;
1 p_r3_g133_h63_t70 -1 x_r3_g133 -1 x_r3_g63 >= -1 ;
1 p_r3_g136_h66_t70 -1 x_r3_g136 <= 0 ;
1 p_r3_g136_h66_t70 -1 x_r3_g66 <= 0 ;
1 p_r3_g136_h66_t70 -1 x_r3_g136 -1 x_r3_g66 >= -1 ;
1 p_r3_g150_h80_t70 -1 x_r3_g150 <= 0 ;
1 p_r3_g150_h80_t70 -1 x_r3_g80 <= 0 ;
1 p_r3_g150_h80_t70 -1 x_r3_g150 -1 x_r3_g80 >= -1 ;
1 d_70 -1 x_r0_g6 -1 x_r0_g23 -1 x_r0_g25 -1 x_r0_g46 -2 x_r0_g49 -1 x_r0_g50 -1 x_r0_g54 -2 x_r0_g73 -1 x_r0_g77 -1 x_r0_g88 -1 x_r0_g95 -1 x_r0_g111 -2 x_r0_g112 -1 x_r0_g113 -1 x_r0_g116 -1 x_r0_g117 -1 x_r0_g128 -1 x_r0_g132 -2 x_r0_g135 -1 x_r0_g137 -1 x_r0_g139 -1 x_r0_g152 -1 x_r0_g156 -1 x_r1_g0 -1 x_r1_g16 -1 x_r1_g20 -1 x_r1_g27 -1 x_r1_g33 -1 x_r1_g38 -1 x_r1_g42 -2 x_r1_g43 -1 x_r1_g45 -1 x_r1_g58 -2 x_r1_g71 -1 x_r1_g76 -2 x_r1_g85 -1 x_r1_g89 -1 x_r1_g98 -1 x_r1_g101 -1 x_r1_g114 -1 x_r1_g128 -1 x_r1_g132 -1 x_r1_g135 -1 x_r1_g157 -1 x_r2_g5 -1 x_r2_g7 -2 x_r2_g13 -1 x_r2_g29 -1 x_r2_g34 -1 x_r2_g35 -2 x_r2_g51 -2 x_r2_g56 -1 x_r2_g63 -1 x_r2_g80 -1 x_r2_g87 -1 x_r2_g93 -1 x_r2_g116 -2 x_r2_g118 -1 x_r2_g119 -1 x_r2_g125 -1 x_r2_g127 -1 x_r2_g138 -1 x_r2_g145 -1 x_r2_g146 -1 x_r2_g161 -1 x_r3_g4 -1 x_r3_g6 -1 x_r3_g21 -1 x_r3_g29 -1 x_r3_g31 -1 x_r3_g53 -2 x_r3_g54 -1 x_r3_g66 -1 x_r3_g68 -2 x_r3_g78 -1 x_r3_g83 -1 x_r3_g84 -1 x_r3_g89 -1 x_r3_g97 -1 x_r3_g107 -1 x_r3_g108 -2 x_r3_g115 -1 x_r3_g125 -1 x_r3_g132 -1 x_r3_g133 -1 x_r3_g136 -2 x_r3_g146 -1 p_r0_g13_h110_t70 -1 p_r0_g16_h113_t70 -1 p_r0_g35_h132_t70 -1 p_r0_g39_h136_t70 -1 p_r0_g40_h137_t70 -1 p_r0_g47_h144_t70 -1 p_r0_g66_h163_t70 -1 p_r0_g95_h25_t70 -1 p_r0_g110_h40_t70 -1 p_r0_g111_h41_t70 -1 p_r0_g116_h46_t70 -1 p_r0_g117_h47_t70 -1 p_r0_g136_h66_t70 -1 p_r0_g144_h74_t70 -1 p_r1_g19_h116_t70 -1 p_r1_g33_h130_t70 -1 p_r1_g35_h132_t70 -1 p_r1_g38_h135_t70 -1 p_r1_g89_h19_t70 -1 p_r1_g98_h28_t70 -1 p_r1_g99_h29_t70 -1 p_r1_g116_h46_t70 -1 p_r1_g128_h58_t70 -1 p_r1_g164_h94_t70 -1 p_r2_g14_h111_t70 -1 p_r2_g17_h114_t70 -1 p_r2_g22_h119_t70 -1 p_r2_g35_h132_t70 -1 p_r2_g41_h138_t70 -1 p_r2_g42_h139_t70 -1 p_r2_g75_h5_t70 -1 p_r2_g76_h6_t70 -1 p_r2_g87_h17_t70 -1 p_r2_g111_h41_t70 -1 p_r2_g112_h42_t70 -1 p_r2_g133_h63_t70 -1 p_r2_g145_h75_t70 -1 p_r2_g146_h76_t70 -1 p_r3_g0_h97_t70 -1 p_r3_g52_h149_t70 -1 p_r3_g53_h150_t70 -1 p_r3_g63_h160_t70 -1 p_r3_g82_h12_t70 -1 p_r3_g122_h52_t70 -1 p_r3_g125_h55_t70 -1 p_r3_g133_h63_t70 -1 p_r3_g136_h66_t70 -1 p_r3_g150_h80_t70 = -51 ;
1 d_70 -1 u_70 <= 0 ;
-1 d_70 -1 u_70 <= 0 ;
1 u_70 -1 M <= 0 ;
1 u_70 <= 2 ;
1 p_r0_g16_h112_t71 -1 x_r0_g16 <= 0 ;
1 p_r0_g16_h112_t71 -1 x_r0_g112 <= 0 ;
1 p_r0_g16_h112_t71 -1 x_r0_g16 -1 x_r0_g112 >= -1 ;
1 p_r0_g39_h135_t71 -1 x_r0_g39 <= 0 ;
1 p_r0_g39_h135_t71 -1 x_r0_g135 <= 0 ;
1 p_r0_g39_h135_t71 -1 x_r0_g39 -1 x_r0_g135 >= -1 ;
1 p_r0_g40_h136_t71 -1 x_r0_g40 <= 0 ;
1 p_r0_g40_h136_t71 -1 x_r0_g136 <= 0 ;
1 p_r0_g40_h136_t71 -1 x_r0_g40 -1 x_r0_g136 >= -1 ;
1 p_r0_g41_h137_t71 -1 x_r0_g41 <= 0 ;
1 p_r0_g41_h137_t71 -1 x_r0_g137 <= 0 ;
1 p_r0_g41_h137_t71 -1 x_r0_g41 -1 x_r0_g137 >= -1 ;
1 p_r0_g54_h150_t71 -1 x_r0_g54 <= 0 ;
1 p_r0_g54_h150_t71 -1 x_r0_g150 <= 0 ;
1 p_r0_g54_h150_t71 -1 x_r0_g54 -1 x_r0_g150 >= -1 ;
1 p_r0_g77_h6_t71 -1 x_r0_g77 <= 0 ;
1 p_r0_g77_h6_t71 -1 x_r0_g6 <= 0 ;
1 p_r0_g77_h6_t71 -1 x_r0_g77 -1 x_r0_g6 >= -1 ;
1 p_r0_g110_h39_t71 -1 x_r0_g110 <= 0 ;
1 p_r0_g110_h39_t71 -1 x_r0_g39 <= 0 ;
1 p_r0_g110_h39_t71 -1 x_r0_g110 -1 x_r0_g39 >= -1 ;
1 p_r0_g111_h40_t71 -1 x_r0_g111 <= 0 ;
1 p_r0_g111_h40_t71 -1 x_r0_g40 <= 0 ;
1 p_r0_g111_h40_t71 -1 x_r0_g111 -1 x_r0_g40 >= -1 ;
1 p_r0_g112_h41_t71 -1 x_r0_g112 <= 0 ;
1 p_r0_g112_h41_t71 -1 x_r0_g41 <= 0 ;
1 p_r0_g112_h41_t71 -1 x_r0_g112 -1 x_r0_g41 >= -1 ;
1 p_r0_g117_h46_t71 -1 x_r0_g117 <= 0 ;
1 p_r0_g117_h46_t71 -1 x_r0_g46 <= 0 ;
1 p_r0_g117_h46_t71 -1 x_r0_g117 -1 x_r0_g46 >= -1 ;
1 p_r0_g137_h66_t71 -1 x_r0_g137 <= 0 ;
1 p_r0_g137_h66_t71 -1 x_r0_g66 <= 0 ;
1 p_r0_g137_h66_t71 -1 x_r0_g137 -1 x_r0_g66 >= -1 ;
1 p_r0_g144_h73_t71 -1 x_r0_g144 <= 0 ;
1 p_r0_g144_h73_t71 -1 x_r0_g73 <= 0 ;
1 p_r0_g144_h73_t71 -1 x_r0_g144 -1 x_r0_g73 >= -1 ;
1 p_r1_g20_h116_t71 -1 x_r1_g20 <= 0 ;
1 p_r1_g20_h116_t71 -1 x_r1_g116 <= 0 ;
1 p_r1_g20_h116_t71 -1 x_r1_g20 -1 x_r1_g116 >= -1 ;
1 p_r1_g35_h131_t71 -1 x_r1_g35 <= 0 ;
1 p_r1_g35_h131_t71 -1 x_r1_g131 <= 0 ;
1 p_r1_g35_h131_t71 -1 x_r1_g35 -1 x_r1_g131 >= -1 ;
1 p_r1_g36_h132_t71 -1 x_r1_g36 <= 0 ;
1 p_r1_g36_h132_t71 -1 x_r1_g132 <= 0 ;
1 p_r1_g36_h132_t71 -1 x_r1_g36 -1 x_r1_g132 >= -1 ;
1 p_r1_g71_h0_t71 -1 x_r1_g71 <= 0 ;
1 p_r1_g71_h0_t71 -1 x_r1_g0 <= 0 ;
1 p_r1_g71_h0_t71 -1 x_r1_g71 -1 x_r1_g0 >= -1 ;
1 p_r1_g91_h20_t71 -1 x_r1_g91 <= 0 ;
1 p_r1_g91_h20_t71 -1 x_r1_g20 <= 0 ;
1 p_r1_g91_h20_t71 -1 x_r1_g91 -1 x_r1_g20 >= -1 ;
1 p_r1_g98_h27_t71 -1 x_r1_g98 <= 0 ;
1 p_r1_g98_h27_t71 -1 x_r1_g27 <= 0 ;
1 p_r1_g98_h27_t71 -1 x_r1_g98 -1 x_r1_g27 >= -1 ;
1 p_r1_g99_h28_t71 -1 x_r1_g99 <= 0 ;
1 p_r1_g99_h28_t71 -1 x_r1_g28 <= 0 ;
1 p_r1_g99_h28_t71 -1 x_r1_g99 -1 x_r1_g28 >= -1 ;
1 p_r1_g114_h43_t71 -1 x_r1_g114 <= 0 ;
1 p_r1_g114_h43_t71 -1 x_r1_g43 <= 0 ;
1 p_r1_g114_h43_t71 -1 x_r1_g114 -1 x_r1_g43 >= -1 ;
1 p_r1_g116_h45_t71 -1 x_r1_g116 <= 0 ;
1 p_r1_g116_h45_t71 -1 x_r1_g45 <= 0 ;
1 p_r1_g116_h45_t71 -1 x_r1_g116 -1 x_r1_g45 >= -1 ;
1 p_r1_g135_h64_t71 -1 x_r1_g135 <= 0 ;
1 p_r1_g135_h64_t71 -1 x_r1_g64 <= 0 ;
1 p_r1_g135_h64_t71 -1 x_r1_g135 -1 x_r1_g64 >= -1 ;
1 p_r2_g22_h118_t71 -1 x_r2_g22 <= 0 ;
1 p_r2_g22_h118_t71 -1 x_r2_g118 <= 0 ;
1 p_r2_g22_h118_t71 -1 x_r2_g22 -1 x_r2_g118 >= -1 ;
1 p_r2_g29_h125_t71 -1 x_r2_g29 <= 0 ;
1 p_r2_g29_h125_t71 -1 x_r2_g125 <= 0 ;
1 p_r2_g29_h125_t71 -1 x_r2_g29 -1 x_r2_g125 >= -1 ;
1 p_r2_g42_h138_t71 -1 x_r2_g42 <= 0 ;
1 p_r2_g42_h138_t71 -1 x_r2_g138 <= 0 ;
1 p_r2_g42_h138_t71 -1 x_r2_g42 -1 x_r2_g138 >= -1 ;
1 p_r2_g76_h5_t71 -1 x_r2_g76 <= 0 ;
1 p_r2_g76_h5_t71 -1 x_r2_g5 <= 0 ;
1 p_r2_g76_h5_t71 -1 x_r2_g76 -1 x_r2_g5 >= -1 ;
1 p_r2_g85_h14_t71 -1 x_r2_g85 <= 0 ;
1 p_r2_g85_h14_t71 -1 x_r2_g14 <= 0 ;
1 p_r2_g85_h14_t71 -1 x_r2_g85 -1 x_r2_g14 >= -1 ;
1 p_r2_g93_h22_t71 -1 x_r2_g93 <= 0 ;
1 p_r2_g93_h22_t71 -1 x_r2_g22 <= 0 ;
1 p_r2_g93_h22_t71 -1 x_r2_g93 -1 x_r2_g22 >= -1 ;
1 p_r2_g106_h35_t71 -1 x_r2_g106 <= 0 ;
1 p_r2_g106_h35_t71 -1 x_r2_g35 <= 0 ;
1 p_r2_g106_h35_t71 -1 x_r2_g106 -1 x_r2_g35 >= -1 ;
1 p_r2_g112_h41_t71 -1 x_r2_g112 <= 0 ;
1 p_r2_g112_h41_t71 -1 x_r2_g41 <= 0 ;
1 p_r2_g112_h41_t71 -1 x_r2_g112 -1 x_r2_g41 >= -1 ;
1 p_r2_g118_h47_t71 -1 x_r2_g118 <= 0 ;
1 p_r2_g118_h47_t71 -1 x_r2_g47 <= 0 ;
1 p_r2_g118_h47_t71 -1 x_r2_g118 -1 x_r2_g47 >= -1 ;
1 p_r2_g127_h56_t71 -1 x_r2_g127 <= 0 ;
1 p_r2_g127_h56_t71 -1 x_r2_g56 <= 0 ;
1 p_r2_g127_h56_t71 -1 x_r2_g127 -1 x_r2_g56 >= -1 ;
1 p_r2_g146_h75_t71 -1 x_r2_g146 <= 0 ;
1 p_r2_g146_h75_t71 -1 x_r2_g75 <= 0 ;
1 p_r2_g146_h75_t71 -1 x_r2_g146 -1 x_r2_g75 >= -1 ;
1 p_r2_g151_h80_t71 -1 x_r2_g151 <= 0 ;
1 p_r2_g151_h80_t71 -1 x_r2_g80 <= 0 ;
1 p_r2_g151_h80_t71 -1 x_r2_g151 -1 x_r2_g80 >= -1 ;
1 p_r3_g12_h108_t71 -1 x_r3_g12 <= 0 ;
1 p_r3_g12_h108_t71 -1 x_r3_g108 <= 0 ;
1 p_r3_g12_h108_t71 -1 x_r3_g12 -1 x_r3_g108 >= -1 ;
1 p_r3_g29_h125_t71 -1 x_r3_g29 <= 0 ;
1 p_r3_g29_h125_t71 -1 x_r3_g125 <= 0 ;
1 p_r3_g29_h125_t71 -1 x_r3_g29 -1 x_r3_g125 >= -1 ;
1 p_r3_g53_h149_t71 -1 x_r3_g53 <= 0 ;
1 p_r3_g53_h149_t71 -1 x_r3_g149 <= 0 ;
1 p_r3_g53_h149_t71 -1 x_r3_g53 -1 x_r3_g149 >= -1 ;
1 p_r3_g54_h150_t71 -1 x_r3_g54 <= 0 ;
1 p_r3_g54_h150_t71 -1 x_r3_g150 <= 0 ;
1 p_r3_g54_h150_t71 -1 x_r3_g54 -1 x_r3_g150 >= -1 ;
1 p_r3_g77_h6_t71 -1 x_r3_g77 <= 0 ;
1 p_r3_g77_h6_t71 -1 x_r3_g6 <= 0 ;
1 p_r3_g77_h6_t71 -1 x_r3_g77 -1 x_r3_g6 >= -1 ;
1 p_r3_g83_h12_t71 -1 x_r3_g83 <= 0 ;
1 p_r3_g83_h12_t71 -1 x_r3_g12 <= 0 ;
1 p_r3_g83_h12_t71 -1 x_r3_g83 -1 x_r3_g12 >= -1 ;
1 p_r3_g125_h54_t71 -1 x_r3_g125 <= 0 ;
1 p_r3_g125_h54_t71 -1 x_r3_g54 <= 0 ;
1 p_r3_g125_h54_t71 -1 x_r3_g125 -1 x_r3_g54 >= -1 ;
1 p_r3_g132_h61_t71 -1 x_r3_g132 <= 0 ;
1 p_r3_g132_h61_t71 -1 x_r3_g61 <= 0 ;
1 p_r3_g132_h61_t71 -1 x_r3_g132 -1 x_r3_g61 >= -1 ;
1 p_r3_g139_h68_t71 -1 x_r3_g139 <= 0 ;
1 p_r3_g139_h68_t71 -1 x_r3_g68 <= 0 ;
1 p_r3_g139_h68_t71 -1 x_r3_g139 -1 x_r3_g68 >= -1 ;
1 p_r3_g149_h78_t71 -1 x_r3_g149 <= 0 ;
1 p_r3_g149_h78_t71 -1 x_r3_g78 <= 0 ;
1 p_r3_g149_h78_t71 -1 x_r3_g149 -1 x_r3_g78 >= -1 ;
1 p_r3_g160_h89_t71 -1 x_r3_g160 <= 0 ;
1 p_r3_g160_h89_t71 -1 x_r3_g89 <= 0 ;
1 p_r3_g160_h89_t71 -1 x_r3_g160 -1 x_r3_g89 >= -1 ;
1 d_71 -1 x_r0_g6 -1 x_r0_g23 -2 x_r0_g35 -1 x_r0_g46 -2 x_r0_g47 -1 x_r0_g49 -1 x_r0_g50 -1 x_r0_g54 -1 x_r0_g74 -1 x_r0_g88 -1 x_r0_g99 -2 x_r0_g101 -1 x_r0_g110 -1 x_r0_g111 -1 x_r0_g113 -2 x_r0_g116 -1 x_r0_g132 -1 x_r0_g136 -2 x_r0_g139 -1 x_r0_g144 -1 x_r0_g163 -1 x_r1_g0 -2 x_r1_g16 -2 x_r1_g19 -1 x_r1_g27 -1 x_r1_g28 -1 x_r1_g29 -1 x_r1_g36 -1 x_r1_g38 -2 x_r1_g42 -1 x_r1_g45 -1 x_r1_g58 -1 x_r1_g64 -1 x_r1_g82 -1 x_r1_g85 -2 x_r1_g89 -1 x_r1_g92 -1 x_r1_g99 -1 x_r1_g114 -1 x_r1_g120 -2 x_r1_g128 -1 x_r1_g135 -1 x_r1_g164 -1 x_r2_g5 -1 x_r2_g6 -1 x_r2_g7 -1 x_r2_g14 -1 x_r2_g17 -2 x_r2_g34 -1 x_r2_g41 -1 x_r2_g42 -1 x_r2_g51 -1 x_r2_g56 -1 x_r2_g63 -1 x_r2_g75 -1 x_r2_g87 -2 x_r2_g114 -1 x_r2_g116 -1 x_r2_g119 -1 x_r2_g127 -1 x_r2_g132 -2 x_r2_g139 -2 x_r2_g145 -2 x_r2_g161 -1 x_r3_g4 -1 x_r3_g31 -2 x_r3_g52 -1 x_r3_g53 -1 x_r3_g55 -1 x_r3_g56 -1 x_r3_g63 -2 x_r3_g66 -1 x_r3_g77 -2 x_r3_g80 -1 x_r3_g83 -1 x_r3_g84 -1 x_r3_g89 -2 x_r3_g97 -1 x_r3_g107 -1 x_r3_g108 -1 x_r3_g112 -1 x_r3_g115 -1 x_r3_g122 -1 x_r3_g132 -2 x_r3_g133 -2 x_r3_g136 -1 x_r3_g139 -1 x_r3_g141 -1 x_r3_g146 -1 p_r0_g16_h112_t71 -1 p_r0_g39_h135_t71 -1 p_r0_g40_h136_t71 -1 p_r0_g41_h137_t71 -1 p_r0_g54_h150_t71 -1 p_r0_g77_h6_t71 -1 p_r0_g110_h39_t71 -1 p_r0_g111_h40_t71 -1 p_r0_g112_h41_t71 -1 p_r0_g117_h46_t71 -1 p_r0_g137_h66_t71 -1 p_r0_g144_h73_t71 -1 p_r1_g20_h116_t71 -1 p_r1_g35_h131_t71 -1 p_r1_g36_h132_t71 -1 p_r1_g71_h0_t71 -1 p_r1_g91_h20_t71 -1 p_r1_g98_h27_t71 -1 p_r1_g99_h28_t71 -1 p_r1_g114_h43_t71 -1 p_r1_g116_h45_t71 -1 p_r1_g135_h64_t71 -1 p_r2_g22_h118_t71 -1 p_r2_g29_h125_t71 -1 p_r2_g42_h138_t71 -1 p_r2_g76_h5_t71 -1 p_r2_g85_h14_t71 -1 p_r2_g93_h22_t71 -1 p_r2_g106_h35_t71 -1 p_r2_g112_h41_t71 -1 p_r2_g118_h47_t71 -1 p_r2_g127_h56_t71 -1 p_r2_g146_h75_t71 -1 p_r2_g151_h80_t71 -1 p_r3_g12_h108_t71 -1 p_r3_g29_h125_t71 -1 p_r3_g53_h149_t71 -1 p_r3_g54_h150_t71 -1 p_r3_g77_h6_t71 -1 p_r3_g83_h12_t71 -1 p_r3_g125_h54_t71 -1 p_r3_g132_h61_t71 -1 p_r3_g139_h68_t71 -1 p_r3_g149_h78_t71 -1 p_r3_g160_h89_t71 = -84 ;
1 d_71 -1 u_71 <= 0 ;
-1 d_71 -1 u_71 <= 0 ;
1 u_71 -1 M <= 0 ;
1 u_71 <= 3 ;
1 p_r0_g16_h110_t73 -1 x_r0_g16 <= 0 ;
1 p_r0_g16_h110_t73 -1 x_r0_g110 <= 0 ;
1 p_r0_g16_h110_t73 -1 x_r0_g16 -1 x_r0_g110 >= -1 ;
1 p_r0_g23_h117_t73 -1 x_r0_g23 <= 0 ;
1 p_r0_g23_h117_t73 -1 x_r0_g117 <= 0 ;
1 p_r0_g23_h117_t73 -1 x_r0_g23 -1 x_r0_g117 >= -1 ;
1 p_r0_g41_h135_t73 -1 x_r0_g41 <= 0 ;
1 p_r0_g41_h135_t73 -1 x_r0_g135 <= 0 ;
1 p_r0_g41_h135_t73 -1 x_r0_g41 -1 x_r0_g135 >= -1 ;
1 p_r0_g50_h144_t73 -1 x_r0_g50 <= 0 ;
1 p_r0_g50_h144_t73 -1 x_r0_g144 <= 0 ;
1 p_r0_g50_h144_t73 -1 x_r0_g50 -1 x_r0_g144 >= -1 ;
1 p_r0_g112_h39_t73 -1 x_r0_g112 <= 0 ;
1 p_r0_g112_h39_t73 -1 x_r0_g39 <= 0 ;
1 p_r0_g112_h39_t73 -1 x_r0_g112 -1 x_r0_g39 >= -1 ;
1 p_r0_g113_h40_t73 -1 x_r0_g113 <= 0 ;
1 p_r0_g113_h40_t73 -1 x_r0_g40 <= 0 ;
1 p_r0_g113_h40_t73 -1 x_r0_g113 -1 x_r0_g40 >= -1 ;
1 p_r0_g117_h44_t73 -1 x_r0_g117 <= 0 ;
1 p_r0_g117_h44_t73 -1 x_r0_g44 <= 0 ;
1 p_r0_g117_h44_t73 -1 x_r0_g117 -1 x_r0_g44 >= -1 ;
1 p_r0_g139_h66_t73 -1 x_r0_g139 <= 0 ;
1 p_r0_g139_h66_t73 -1 x_r0_g66 <= 0 ;
1 p_r0_g139_h66_t73 -1 x_r0_g139 -1 x_r0_g66 >= -1 ;
1 p_r0_g150_h77_t73 -1 x_r0_g150 <= 0 ;
1 p_r0_g150_h77_t73 -1 x_r0_g77 <= 0 ;
1 p_r0_g150_h77_t73 -1 x_r0_g150 -1 x_r0_g77 >= -1 ;
1 p_r1_g0_h94_t73 -1 x_r1_g0 <= 0 ;
1 p_r1_g0_h94_t73 -1 x_r1_g94 <= 0 ;
1 p_r1_g0_h94_t73 -1 x_r1_g0 -1 x_r1_g94 >= -1 ;
1 p_r1_g20_h114_t73 -1 x_r1_g20 <= 0 ;
1 p_r1_g20_h114_t73 -1 x_r1_g114 <= 0 ;
1 p_r1_g20_h114_t73 -1 x_r1_g20 -1 x_r1_g114 >= -1 ;
1 p_r1_g36_h130_t73 -1 x_r1_g36 <= 0 ;
1 p_r1_g36_h130_t73 -1 x_r1_g130 <= 0 ;
1 p_r1_g36_h130_t73 -1 x_r1_g36 -1 x_r1_g130 >= -1 ;
1 p_r1_g38_h132_t73 -1 x_r1_g38 <= 0 ;
1 p_r1_g38_h132_t73 -1 x_r1_g132 <= 0 ;
1 p_r1_g38_h132_t73 -1 x_r1_g38 -1 x_r1_g132 >= -1 ;
1 p_r1_g89_h16_t73 -1 x_r1_g89 <= 0 ;
1 p_r1_g89_h16_t73 -1 x_r1_g16 <= 0 ;
1 p_r1_g89_h16_t73 -1 x_r1_g89 -1 x_r1_g16 >= -1 ;
1 p_r1_g92_h19_t73 -1 x_r1_g92 <= 0 ;
1 p_r1_g92_h19_t73 -1 x_r1_g19 <= 0 ;
1 p_r1_g92_h19_t73 -1 x_r1_g92 -1 x_r1_g19 >= -1 ;
1 p_r1_g101_h28_t73 -1 x_r1_g101 <= 0 ;
1 p_r1_g101_h28_t73 -1 x_r1_g28 <= 0 ;
1 p_r1_g101_h28_t73 -1 x_r1_g101 -1 x_r1_g28 >= -1 ;
1 p_r1_g116_h43_t73 -1 x_r1_g116 <= 0 ;
1 p_r1_g116_h43_t73 -1 x_r1_g43 <= 0 ;
1 p_r1_g116_h43_t73 -1 x_r1_g116 -1 x_r1_g43 >= -1 ;
1 p_r1_g131_h58_t73 -1 x_r1_g131 <= 0 ;
1 p_r1_g131_h58_t73 -1 x_r1_g58 <= 0 ;
1 p_r1_g131_h58_t73 -1 x_r1_g131 -1 x_r1_g58 >= -1 ;
1 p_r1_g164_h91_t73 -1 x_r1_g164 <= 0 ;
1 p_r1_g164_h91_t73 -1 x_r1_g91 <= 0 ;
1 p_r1_g164_h91_t73 -1 x_r1_g164 -1 x_r1_g91 >= -1 ;
1 p_r2_g17_h111_t73 -1 x_r2_g17 <= 0 ;
1 p_r2_g17_h111_t73 -1 x_r2_g111 <= 0 ;
1 p_r2_g17_h111_t73 -1 x_r2_g17 -1 x_r2_g111 >= -1 ;
1 p_r2_g22_h116_t73 -1 x_r2_g22 <= 0 ;
1 p_r2_g22_h116_t73 -1 x_r2_g116 <= 0 ;
1 p_r2_g22_h116_t73 -1 x_r2_g22 -1 x_r2_g116 >= -1 ;
1 p_r2_g47_h141_t73 -1 x_r2_g47 <= 0 ;
1 p_r2_g47_h141_t73 -1 x_r2_g141 <= 0 ;
1 p_r2_g47_h141_t73 -1 x_r2_g47 -1 x_r2_g141 >= -1 ;
1 p_r2_g51_h145_t73 -1 x_r2_g51 <= 0 ;
1 p_r2_g51_h145_t73 -1 x_r2_g145 <= 0 ;
1 p_r2_g51_h145_t73 -1 x_r2_g51 -1 x_r2_g145 >= -1 ;
1 p_r2_g80_h7_t73 -1 x_r2_g80 <= 0 ;
1 p_r2_g80_h7_t73 -1 x_r2_g7 <= 0 ;
1 p_r2_g80_h7_t73 -1 x_r2_g80 -1 x_r2_g7 >= -1 ;
1 p_r2_g87_h14_t73 -1 x_r2_g87 <= 0 ;
1 p_r2_g87_h14_t73 -1 x_r2_g14 <= 0 ;
1 p_r2_g87_h14_t73 -1 x_r2_g87 -1 x_r2_g14 >= -1 ;
1 p_r2_g114_h41_t73 -1 x_r2_g114 <= 0 ;
1 p_r2_g114_h41_t73 -1 x_r2_g41 <= 0 ;
1 p_r2_g114_h41_t73 -1 x_r2_g114 -1 x_r2_g41 >= -1 ;
1 p_r3_g21_h115_t73 -1 x_r3_g21 <= 0 ;
1 p_r3_g21_h115_t73 -1 x_r3_g115 <= 0 ;
1 p_r3_g21_h115_t73 -1 x_r3_g21 -1 x_r3_g115 >= -1 ;
1 p_r3_g31_h125_t73 -1 x_r3_g31 <= 0 ;
1 p_r3_g31_h125_t73 -1 x_r3_g125 <= 0 ;
1 p_r3_g31_h125_t73 -1 x_r3_g31 -1 x_r3_g125 >= -1 ;
1 p_r3_g52_h146_t73 -1 x_r3_g52 <= 0 ;
1 p_r3_g52_h146_t73 -1 x_r3_g146 <= 0 ;
1 p_r3_g52_h146_t73 -1 x_r3_g52 -1 x_r3_g146 >= -1 ;
1 p_r3_g55_h149_t73 -1 x_r3_g55 <= 0 ;
1 p_r3_g55_h149_t73 -1 x_r3_g149 <= 0 ;
1 p_r3_g55_h149_t73 -1 x_r3_g55 -1 x_r3_g149 >= -1 ;
1 p_r3_g56_h150_t73 -1 x_r3_g56 <= 0 ;
1 p_r3_g56_h150_t73 -1 x_r3_g150 <= 0 ;
1 p_r3_g56_h150_t73 -1 x_r3_g56 -1 x_r3_g150 >= -1 ;
1 p_r3_g66_h160_t73 -1 x_r3_g66 <= 0 ;
1 p_r3_g66_h160_t73 -1 x_r3_g160 <= 0 ;
1 p_r3_g66_h160_t73 -1 x_r3_g66 -1 x_r3_g160 >= -1 ;
1 p_r3_g77_h4_t73 -1 x_r3_g77 <= 0 ;
1 p_r3_g77_h4_t73 -1 x_r3_g4 <= 0 ;
1 p_r3_g77_h4_t73 -1 x_r3_g77 -1 x_r3_g4 >= -1 ;
1 p_r3_g125_h52_t73 -1 x_r3_g125 <= 0 ;
1 p_r3_g125_h52_t73 -1 x_r3_g52 <= 0 ;
1 p_r3_g125_h52_t73 -1 x_r3_g125 -1 x_r3_g52 >= -1 ;
1 p_r3_g136_h63_t73 -1 x_r3_g136 <= 0 ;
1 p_r3_g136_h63_t73 -1 x_r3_g63 <= 0 ;
1 p_r3_g136_h63_t73 -1 x_r3_g136 -1 x_r3_g63 >= -1 ;
1 p_r3_g139_h66_t73 -1 x_r3_g139 <= 0 ;
1 p_r3_g139_h66_t73 -1 x_r3_g66 <= 0 ;
1 p_r3_g139_h66_t73 -1 x_r3_g139 -1 x_r3_g66 >= -1 ;
1 p_r3_g141_h68_t73 -1 x_r3_g141 <= 0 ;
1 p_r3_g141_h68_t73 -1 x_r3_g68 <= 0 ;
1 p_r3_g141_h68_t73 -1 x_r3_g141 -1 x_r3_g68 >= -1 ;
1 p_r3_g150_h77_t73 -1 x_r3_g150 <= 0 ;
1 p_r3_g150_h77_t73 -1 x_r3_g77 <= 0 ;
1 p_r3_g150_h77_t73 -1 x_r3_g150 -1 x_r3_g77 >= -1 ;
1 d_73 -1 x_r0_g6 -2 x_r0_g25 -1 x_r0_g46 -1 x_r0_g47 -2 x_r0_g49 -1 x_r0_g50 -1 x_r0_g54 -1 x_r0_g66 -1 x_r0_g73 -1 x_r0_g88 -1 x_r0_g99 -1 x_r0_g101 -1 x_r0_g110 -1 x_r0_g111 -1 x_r0_g113 -1 x_r0_g116 -2 x_r0_g128 -2 x_r0_g132 -1 x_r0_g135 -2 x_r0_g136 -1 x_r0_g137 -1 x_r0_g139 -1 x_r0_g152 -1 x_r0_g156 -1 x_r0_g163 -1 x_r1_g19 -1 x_r1_g27 -1 x_r1_g29 -1 x_r1_g33 -1 x_r1_g35 -1 x_r1_g36 -1 x_r1_g42 -2 x_r1_g46 -1 x_r1_g76 -1 x_r1_g82 -1 x_r1_g91 -1 x_r1_g99 -1 x_r1_g120 -1 x_r1_g130 -1 x_r1_g131 -1 x_r1_g135 -1 x_r1_g157 -1 x_r1_g164 -1 x_r2_g5 -1 x_r2_g7 -1 x_r2_g13 -1 x_r2_g17 -1 x_r2_g29 -1 x_r2_g34 -1 x_r2_g35 -2 x_r2_g42 -1 x_r2_g47 -2 x_r2_g56 -2 x_r2_g63 -1 x_r2_g75 -1 x_r2_g80 -1 x_r2_g85 -1 x_r2_g87 -1 x_r2_g93 -1 x_r2_g106 -2 x_r2_g112 -1 x_r2_g114 -1 x_r2_g116 -2 x_r2_g119 -1 x_r2_g125 -1 x_r2_g127 -2 x_r2_g133 -1 x_r2_g138 -1 x_r2_g141 -1 x_r2_g151 -1 x_r3_g0 -1 x_r3_g4 -1 x_r3_g12 -1 x_r3_g21 -1 x_r3_g29 -2 x_r3_g54 -1 x_r3_g55 -1 x_r3_g56 -1 x_r3_g61 -1 x_r3_g68 -2 x_r3_g78 -1 x_r3_g82 -1 x_r3_g89 -1 x_r3_g107 -2 x_r3_g112 -1 x_r3_g121 -2 x_r3_g122 -2 x_r3_g132 -1 x_r3_g133 -1 x_r3_g139 -1 x_r3_g141 -1 x_r3_g149 -1 p_r0_g16_h110_t73 -1 p_r0_g23_h117_t73 -1 p_r0_g41_h135_t73 -1 p_r0_g50_h144_t73 -1 p_r0_g112_h39_t73 -1 p_r0_g113_h40_t73 -1 p_r0_g117_h44_t73 -1 p_r0_g139_h66_t73 -1 p_r0_g150_h77_t73 -1 p_r1_g0_h94_t73 -1 p_r1_g20_h114_t73 -1 p_r1_g36_h130_t73 -1 p_r1_g38_h132_t73 -1 p_r1_g89_h16_t73 -1 p_r1_g92_h19_t73 -1 p_r1_g101_h28_t73 -1 p_r1_g116_h43_t73 -1 p_r1_g131_h58_t73 -1 p_r1_g164_h91_t73 -1 p_r2_g17_h111_t73 -1 p_r2_g22_h116_t73 -1 p_r2_g47_h141_t73 -1 p_r2_g51_h145_t73 -1 p_r2_g80_h7_t73 -1 p_r2_g87_h14_t73 -1 p_r2_g114_h41_t73 -1 p_r3_g21_h115_t73 -1 p_r3_g31_h125_t73 -1 p_r3_g52_h146_t73 -1 p_r3_g55_h149_t73 -1 p_r3_g56_h150_t73 -1 p_r3_g66_h160_t73 -1 p_r3_g77_h4_t73 -1 p_r3_g125_h52_t73 -1 p_r3_g136_h63_t73 -1 p_r3_g139_h66_t73 -1 p_r3_g141_h68_t73 -1 p_r3_g150_h77_t73 = -76 ;
1 d_73 -1 u_73 <= 0 ;
-1 d_73 -1 u_73 <= 0 ;
1 u_73 -1 M <= 0 ;
1 u_73 <= 2 ;
1 p_r0_g23_h110_t80 -1 x_r0_g23 <= 0 ;
1 p_r0_g23_h110_t80 -1 x_r0_g110 <= 0 ;
1 p_r0_g23_h110_t80 -1 x_r0_g23 -1 x_r0_g110 >= -1 ;
1 p_r0_g25_h112_t80 -1 x_r0_g25 <= 0 ;
1 p_r0_g25_h112_t80 -1 x_r0_g112 <= 0 ;
1 p_r0_g25_h112_t80 -1 x_r0_g25 -1 x_r0_g112 >= -1 ;
1 p_r0_g41_h128_t80 -1 x_r0_g41 <= 0 ;
1 p_r0_g41_h128_t80 -1 x_r0_g128 <= 0 ;
1 p_r0_g41_h128_t80 -1 x_r0_g41 -1 x_r0_g128 >= -1 ;
1 p_r0_g49_h136_t80 -1 x_r0_g49 <= 0 ;
1 p_r0_g49_h136_t80 -1 x_r0_g136 <= 0 ;
1 p_r0_g49_h136_t80 -1 x_r0_g49 -1 x_r0_g136 >= -1 ;
1 p_r0_g50_h137_t80 -1 x_r0_g50 <= 0 ;
1 p_r0_g50_h137_t80 -1 x_r0_g137 <= 0 ;
1 p_r0_g50_h137_t80 -1 x_r0_g50 -1 x_r0_g137 >= -1 ;
1 p_r1_g27_h114_t80 -1 x_r1_g27 <= 0 ;
1 p_r1_g27_h114_t80 -1 x_r1_g114 <= 0 ;
1 p_r1_g27_h114_t80 -1 x_r1_g27 -1 x_r1_g114 >= -1 ;
1 p_r1_g29_h116_t80 -1 x_r1_g29 <= 0 ;
1 p_r1_g29_h116_t80 -1 x_r1_g116 <= 0 ;
1 p_r1_g29_h116_t80 -1 x_r1_g29 -1 x_r1_g116 >= -1 ;
1 p_r1_g33_h120_t80 -1 x_r1_g33 <= 0 ;
1 p_r1_g33_h120_t80 -1 x_r1_g120 <= 0 ;
1 p_r1_g33_h120_t80 -1 x_r1_g33 -1 x_r1_g120 >= -1 ;
1 p_r1_g43_h130_t80 -1 x_r1_g43 <= 0 ;
1 p_r1_g43_h130_t80 -1 x_r1_g130 <= 0 ;
1 p_r1_g43_h130_t80 -1 x_r1_g43 -1 x_r1_g130 >= -1 ;
1 p_r1_g45_h132_t80 -1 x_r1_g45 <= 0 ;
1 p_r1_g45_h132_t80 -1 x_r1_g132 <= 0 ;
1 p_r1_g45_h132_t80 -1 x_r1_g45 -1 x_r1_g132 >= -1 ;
1 p_r1_g77_h164_t80 -1 x_r1_g77 <= 0 ;
1 p_r1_g77_h164_t80 -1 x_r1_g164 <= 0 ;
1 p_r1_g77_h164_t80 -1 x_r1_g77 -1 x_r1_g164 >= -1 ;
1 p_r1_g99_h19_t80 -1 x_r1_g99 <= 0 ;
1 p_r1_g99_h19_t80 -1 x_r1_g19 <= 0 ;
1 p_r1_g99_h19_t80 -1 x_r1_g99 -1 x_r1_g19 >= -1 ;
1 p_r1_g116_h36_t80 -1 x_r1_g116 <= 0 ;
1 p_r1_g116_h36_t80 -1 x_r1_g36 <= 0 ;
1 p_r1_g116_h36_t80 -1 x_r1_g116 -1 x_r1_g36 >= -1 ;
1 p_r1_g157_h77_t80 -1 x_r1_g157 <= 0 ;
1 p_r1_g157_h77_t80 -1 x_r1_g77 <= 0 ;
1 p_r1_g157_h77_t80 -1 x_r1_g157 -1 x_r1_g77 >= -1 ;
1 p_r2_g6_h93_t80 -1 x_r2_g6 <= 0 ;
1 p_r2_g6_h93_t80 -1 x_r2_g93 <= 0 ;
1 p_r2_g6_h93_t80 -1 x_r2_g6 -1 x_r2_g93 >= -1 ;
1 p_r2_g29_h116_t80 -1 x_r2_g29 <= 0 ;
1 p_r2_g29_h116_t80 -1 x_r2_g116 <= 0 ;
1 p_r2_g29_h116_t80 -1 x_r2_g29 -1 x_r2_g116 >= -1 ;
1 p_r2_g51_h138_t80 -1 x_r2_g51 <= 0 ;
1 p_r2_g51_h138_t80 -1 x_r2_g138 <= 0 ;
1 p_r2_g51_h138_t80 -1 x_r2_g51 -1 x_r2_g138 >= -1 ;
1 p_r2_g85_h5_t80 -1 x_r2_g85 <= 0 ;
1 p_r2_g85_h5_t80 -1 x_r2_g5 <= 0 ;
1 p_r2_g85_h5_t80 -1 x_r2_g85 -1 x_r2_g5 >= -1 ;
1 p_r2_g87_h7_t80 -1 x_r2_g87 <= 0 ;
1 p_r2_g87_h7_t80 -1 x_r2_g7 <= 0 ;
1 p_r2_g87_h7_t80 -1 x_r2_g87 -1 x_r2_g7 >= -1 ;
1 p_r2_g93_h13_t80 -1 x_r2_g93 <= 0 ;
1 p_r2_g93_h13_t80 -1 x_r2_g13 <= 0 ;
1 p_r2_g93_h13_t80 -1 x_r2_g93 -1 x_r2_g13 >= -1 ;
1 p_r2_g114_h34_t80 -1 x_r2_g114 <= 0 ;
1 p_r2_g114_h34_t80 -1 x_r2_g34 <= 0 ;
1 p_r2_g114_h34_t80 -1 x_r2_g114 -1 x_r2_g34 >= -1 ;
1 p_r2_g127_h47_t80 -1 x_r2_g127 <= 0 ;
1 p_r2_g127_h47_t80 -1 x_r2_g47 <= 0 ;
1 p_r2_g127_h47_t80 -1 x_r2_g127 -1 x_r2_g47 >= -1 ;
1 p_r3_g21_h108_t80 -1 x_r3_g21 <= 0 ;
1 p_r3_g21_h108_t80 -1 x_r3_g108 <= 0 ;
1 p_r3_g21_h108_t80 -1 x_r3_g21 -1 x_r3_g108 >= -1 ;
1 p_r3_g52_h139_t80 -1 x_r3_g52 <= 0 ;
1 p_r3_g52_h139_t80 -1 x_r3_g139 <= 0 ;
1 p_r3_g52_h139_t80 -1 x_r3_g52 -1 x_r3_g139 >= -1 ;
1 p_r3_g54_h141_t80 -1 x_r3_g54 <= 0 ;
1 p_r3_g54_h141_t80 -1 x_r3_g141 <= 0 ;
1 p_r3_g54_h141_t80 -1 x_r3_g54 -1 x_r3_g141 >= -1 ;
1 p_r3_g63_h150_t80 -1 x_r3_g63 <= 0 ;
1 p_r3_g63_h150_t80 -1 x_r3_g150 <= 0 ;
1 p_r3_g63_h150_t80 -1 x_r3_g63 -1 x_r3_g150 >= -1 ;
1 p_r3_g80_h0_t80 -1 x_r3_g80 <= 0 ;
1 p_r3_g80_h0_t80 -1 x_r3_g0 <= 0 ;
1 p_r3_g80_h0_t80 -1 x_r3_g80 -1 x_r3_g0 >= -1 ;
1 p_r3_g84_h4_t80 -1 x_r3_g84 <= 0 ;
1 p_r3_g84_h4_t80 -1 x_r3_g4 <= 0 ;
1 p_r3_g84_h4_t80 -1 x_r3_g84 -1 x_r3_g4 >= -1 ;
1 p_r3_g132_h52_t80 -1 x_r3_g132 <= 0 ;
1 p_r3_g132_h52_t80 -1 x_r3_g52 <= 0 ;
1 p_r3_g132_h52_t80 -1 x_r3_g132 -1 x_r3_g52 >= -1 ;
1 p_r3_g133_h53_t80 -1 x_r3_g133 <= 0 ;
1 p_r3_g133_h53_t80 -1 x_r3_g53 <= 0 ;
1 p_r3_g133_h53_t80 -1 x_r3_g133 -1 x_r3_g53 >= -1 ;
1 p_r3_g136_h56_t80 -1 x_r3_g136 <= 0 ;
1 p_r3_g136_h56_t80 -1 x_r3_g56 <= 0 ;
1 p_r3_g136_h56_t80 -1 x_r3_g136 -1 x_r3_g56 >= -1 ;
1 p_r3_g141_h61_t80 -1 x_r3_g141 <= 0 ;
1 p_r3_g141_h61_t80 -1 x_r3_g61 <= 0 ;
1 p_r3_g141_h61_t80 -1 x_r3_g141 -1 x_r3_g61 >= -1 ;
1 p_r3_g146_h66_t80 -1 x_r3_g146 <= 0 ;
1 p_r3_g146_h66_t80 -1 x_r3_g66 <= 0 ;
1 p_r3_g146_h66_t80 -1 x_r3_g146 -1 x_r3_g66 >= -1 ;
1 p_r3_g160_h80_t80 -1 x_r3_g160 <= 0 ;
1 p_r3_g160_h80_t80 -1 x_r3_g80 <= 0 ;
1 p_r3_g160_h80_t80 -1 x_r3_g160 -1 x_r3_g80 >= -1 ;
1 d_80 -1 x_r0_g13 -1 x_r0_g16 -1 x_r0_g23 -1 x_r0_g35 -2 x_r0_g39 -2 x_r0_g40 -1 x_r0_g44 -1 x_r0_g46 -1 x_r0_g47 -1 x_r0_g66 -1 x_r0_g73 -1 x_r0_g77 -1 x_r0_g95 -2 x_r0_g99 -1 x_r0_g101 -1 x_r0_g110 -1 x_r0_g116 -2 x_r0_g117 -1 x_r0_g128 -2 x_r0_g132 -2 x_r0_g135 -2 x_r0_g139 -2 x_r0_g150 -1 x_r0_g152 -2 x_r1_g0 -2 x_r1_g16 -2 x_r1_g20 -1 x_r1_g27 -2 x_r1_g28 -1 x_r1_g29 -1 x_r1_g33 -1 x_r1_g35 -1 x_r1_g36 -1 x_r1_g43 -1 x_r1_g58 -2 x_r1_g76 -1 x_r1_g91 -2 x_r1_g98 -1 x_r1_g120 -1 x_r1_g131 -1 x_r1_g157 -1 x_r1_g164 -1 x_r2_g6 -1 x_r2_g7 -2 x_r2_g14 -1 x_r2_g17 -1 x_r2_g22 -1 x_r2_g34 -2 x_r2_g35 -2 x_r2_g41 -2 x_r2_g42 -1 x_r2_g47 -1 x_r2_g56 -1 x_r2_g63 -1 x_r2_g76 -2 x_r2_g80 -1 x_r2_g85 -1 x_r2_g87 -1 x_r2_g106 -1 x_r2_g111 -1 x_r2_g112 -1 x_r2_g114 -1 x_r2_g118 -1 x_r2_g119 -1 x_r2_g133 -1 x_r2_g138 -1 x_r2_g141 -2 x_r2_g145 -1 x_r2_g151 -1 x_r2_g161 -1 x_r3_g6 -1 x_r3_g12 -2 x_r3_g31 -1 x_r3_g53 -1 x_r3_g54 -1 x_r3_g55 -1 x_r3_g56 -1 x_r3_g61 -1 x_r3_g63 -1 x_r3_g68 -2 x_r3_g82 -1 x_r3_g83 -2 x_r3_g89 -1 x_r3_g97 -2 x_r3_g107 -1 x_r3_g108 -1 x_r3_g112 -1 x_r3_g115 -1 x_r3_g121 -2 x_r3_g125 -1 x_r3_g132 -1 x_r3_g133 -1 x_r3_g136 -1 x_r3_g139 -1 x_r3_g146 -1 x_r3_g149 -1 p_r0_g23_h110_t80 -1 p_r0_g25_h112_t80 -1 p_r0_g41_h128_t80 -1 p_r0_g49_h136_t80 -1 p_r0_g50_h137_t80 -1 p_r1_g27_h114_t80 -1 p_r1_g29_h116_t80 -1 p_r1_g33_h120_t80 -1 p_r1_g43_h130_t80 -1 p_r1_g45_h132_t80 -1 p_r1_g77_h164_t80 -1 p_r1_g99_h19_t80 -1 p_r1_g116_h36_t80 -1 p_r1_g157_h77_t80 -1 p_r2_g6_h93_t80 -1 p_r2_g29_h116_t80 -1 p_r2_g51_h138_t80 -1 p_r2_g85_h5_t80 -1 p_r2_g87_h7_t80 -1 p_r2_g93_h13_t80 -1 p_r2_g114_h34_t80 -1 p_r2_g127_h47_t80 -1 p_r3_g21_h108_t80 -1 p_r3_g52_h139_t80 -1 p_r3_g54_h141_t80 -1 p_r3_g63_h150_t80 -1 p_r3_g80_h0_t80 -1 p_r3_g84_h4_t80 -1 p_r3_g132_h52_t80 -1 p_r3_g133_h53_t80 -1 p_r3_g136_h56_t80 -1 p_r3_g141_h61_t80 -1 p_r3_g146_h66_t80 -1 p_r3_g160_h80_t80 = -61 ;
1 d_80 -1 u_80 <= 0 ;
-1 d_80 -1 u_80 <= 0 ;
1 u_80 -1 M <= 0 ;
1 u_80 <= 1 ;
1 M <= 3 ;
1 u_1 1 u_2 1 u_3 1 u_4 1 u_6 1 u_8 1 u_22 1 u_34 1 u_41 1 u_42 1 u_43 1 u_46 1 u_47 10 u_49 1 u_64 1 u_66 1 u_67 1 u_68 1 u_70 10 u_71 1 u_73 1 u_80 <= 82 ;
1 F -1 x_r0_g16 -1 x_r0_g23 -1 x_r0_g35 -1 x_r0_g39 -1 x_r0_g41 -1 x_r0_g44 -1 x_r0_g46 -1 x_r0_g50 -1 x_r0_g66 -1 x_r0_g73 -1 x_r0_g95 -1 x_r0_g99 -1 x_r0_g110 -1 x_r0_g112 -1 x_r0_g117 -1 x_r0_g128 -1 x_r0_g135 -1 x_r0_g144 -1 x_r0_g150 -1 x_r0_g156 -1 x_r1_g0 -1 x_r1_g19 -1 x_r1_g28 -1 x_r1_g33 -1 x_r1_g35 -1 x_r1_g43 -1 x_r1_g45 -1 x_r1_g58 -1 x_r1_g71 -1 x_r1_g76 -1 x_r1_g77 -1 x_r1_g85 -1 x_r1_g92 -1 x_r1_g94 -1 x_r1_g99 -1 x_r1_g101 -1 x_r1_g116 -1 x_r1_g120 -1 x_r1_g131 -1 x_r1_g135 -1 x_r2_g5 -1 x_r2_g6 -1 x_r2_g13 -1 x_r2_g17 -1 x_r2_g22 -1 x_r2_g29 -1 x_r2_g35 -1 x_r2_g42 -1 x_r2_g47 -1 x_r2_g51 -1 x_r2_g76 -1 x_r2_g93 -1 x_r2_g106 -1 x_r2_g111 -1 x_r2_g118 -1 x_r2_g125 -1 x_r2_g133 -1 x_r2_g138 -1 x_r2_g141 -1 x_r2_g145 -1 x_r3_g0 -1 x_r3_g21 -1 x_r3_g29 -1 x_r3_g31 -1 x_r3_g52 -1 x_r3_g54 -1 x_r3_g56 -1 x_r3_g63 -1 x_r3_g82 -1 x_r3_g84 -1 x_r3_g97 -1 x_r3_g107 -1 x_r3_g115 -1 x_r3_g121 -1 x_r3_g125 -1 x_r3_g133 -1 x_r3_g136 -1 x_r3_g141 -1 x_r3_g146 -1 x_r3_g150 1 x_r0_g6 1 x_r0_g13 1 x_r0_g25 1 x_r0_g40 1 x_r0_g47 1 x_r0_g49 1 x_r0_g54 1 x_r0_g74 1 x_r0_g77 1 x_r0_g88 1 x_r0_g101 1 x_r0_g111 1 x_r0_g113 1 x_r0_g116 1 x_r0_g132 1 x_r0_g136 1 x_r0_g137 1 x_r0_g139 1 x_r0_g152 1 x_r0_g163 1 x_r1_g16 1 x_r1_g20 1 x_r1_g27 1 x_r1_g29 1 x_r1_g36 1 x_r1_g38 1 x_r1_g42 1 x_r1_g46 1 x_r1_g64 1 x_r1_g78 1 x_r1_g82 1 x_r1_g89 1 x_r1_g91 1 x_r1_g98 1 x_r1_g114 1 x_r1_g128 1 x_r1_g130 1 x_r1_g132 1 x_r1_g157 1 x_r1_g164 1 x_r2_g7 1 x_r2_g14 1 x_r2_g34 1 x_r2_g41 1 x_r2_g56 1 x_r2_g63 1 x_r2_g75 1 x_r2_g80 1 x_r2_g85 1 x_r2_g87 1 x_r2_g112 1 x_r2_g114 1 x_r2_g116 1 x_r2_g119 1 x_r2_g127 1 x_r2_g132 1 x_r2_g139 1 x_r2_g146 1 x_r2_g151 1 x_r2_g161 1 x_r3_g4 1 x_r3_g6 1 x_r3_g12 1 x_r3_g53 1 x_r3_g55 1 x_r3_g61 1 x_r3_g66 1 x_r3_g68 1 x_r3_g77 1 x_r3_g78 1 x_r3_g80 1 x_r3_g83 1 x_r3_g89 1 x_r3_g108 1 x_r3_g112 1 x_r3_g122 1 x_r3_g132 1 x_r3_g139 1 x_r3_g149 1 x_r3_g160 = 80 ;
1 F <= 8 ;
