Minimize
 obj: M
Subject To
 block_size_0: 1 x_r0_g1 + 1 x_r0_g4 + 1 x_r0_g5 + 1 x_r0_g7 + 1 x_r0_g10 + 1 x_r0_g11 + 1 x_r0_g12 + 1 x_r0_g15 + 1 x_r0_g17 + 1 x_r0_g19 + 1 x_r0_g29 + 1 x_r0_g39 + 1 x_r0_g47 + 1 x_r0_g51 + 1 x_r0_g53 + 1 x_r0_g55 + 1 x_r0_g56 + 1 x_r0_g57 + 1 x_r0_g65 + 1 x_r0_g66 + 1 x_r0_g72 + 1 x_r0_g74 + 1 x_r0_g79 + 1 x_r0_g85 + 1 x_r0_g89 + 1 x_r0_g90 + 1 x_r0_g91 + 1 x_r0_g93 + 1 x_r0_g103 + 1 x_r0_g108 + 1 x_r0_g112 + 1 x_r0_g119 + 1 x_r0_g126 + 1 x_r0_g135 + 1 x_r0_g136 + 1 x_r0_g140 + 1 x_r0_g142 + 1 x_r0_g143 + 1 x_r0_g150 + 1 x_r0_g159 = 20
 block_size_1: 1 x_r1_g1 + 1 x_r1_g6 + 1 x_r1_g21 + 1 x_r1_g25 + 1 x_r1_g26 + 1 x_r1_g29 + 1 x_r1_g32 + 1 x_r1_g34 + 1 x_r1_g35 + 1 x_r1_g36 + 1 x_r1_g42 + 1 x_r1_g48 + 1 x_r1_g56 + 1 x_r1_g60 + 1 x_r1_g61 + 1 x_r1_g64 + 1 x_r1_g68 + 1 x_r1_g69 + 1 x_r1_g74 + 1 x_r1_g77 + 1 x_r1_g82 + 1 x_r1_g84 + 1 x_r1_g85 + 1 x_r1_g88 + 1 x_r1_g93 + 1 x_r1_g94 + 1 x_r1_g99 + 1 x_r1_g104 + 1 x_r1_g124 + 1 x_r1_g127 + 1 x_r1_g129 + 1 x_r1_g135 + 1 x_r1_g138 + 1 x_r1_g140 + 1 x_r1_g143 + 1 x_r1_g145 + 1 x_r1_g155 + 1 x_r1_g161 + 1 x_r1_g162 + 1 x_r1_g163 = 20
 block_size_2: 1 x_r2_g11 + 1 x_r2_g13 + 1 x_r2_g15 + 1 x_r2_g21 + 1 x_r2_g27 + 1 x_r2_g32 + 1 x_r2_g34 + 1 x_r2_g35 + 1 x_r2_g40 + 1 x_r2_g44 + 1 x_r2_g45 + 1 x_r2_g51 + 1 x_r2_g55 + 1 x_r2_g58 + 1 x_r2_g61 + 1 x_r2_g74 + 1 x_r2_g83 + 1 x_r2_g85 + 1 x_r2_g86 + 1 x_r2_g91 + 1 x_r2_g93 + 1 x_r2_g95 + 1 x_r2_g101 + 1 x_r2_g102 + 1 x_r2_g103 + 1 x_r2_g104 + 1 x_r2_g105 + 1 x_r2_g106 + 1 x_r2_g111 + 1 x_r2_g112 + 1 x_r2_g114 + 1 x_r2_g121 + 1 x_r2_g124 + 1 x_r2_g126 + 1 x_r2_g133 + 1 x_r2_g135 + 1 x_r2_g141 + 1 x_r2_g147 + 1 x_r2_g157 + 1 x_r2_g162 = 20
 block_size_3: 1 x_r3_g5 + 1 x_r3_g20 + 1 x_r3_g21 + 1 x_r3_g22 + 1 x_r3_g23 + 1 x_r3_g24 + 1 x_r3_g25 + 1 x_r3_g26 + 1 x_r3_g31 + 1 x_r3_g32 + 1 x_r3_g34 + 1 x_r3_g38 + 1 x_r3_g39 + 1 x_r3_g42 + 1 x_r3_g45 + 1 x_r3_g48 + 1 x_r3_g51 + 1 x_r3_g53 + 1 x_r3_g60 + 1 x_r3_g62 + 1 x_r3_g66 + 1 x_r3_g68 + 1 x_r3_g69 + 1 x_r3_g73 + 1 x_r3_g77 + 1 x_r3_g83 + 1 x_r3_g87 + 1 x_r3_g90 + 1 x_r3_g96 + 1 x_r3_g115 + 1 x_r3_g118 + 1 x_r3_g124 + 1 x_r3_g125 + 1 x_r3_g149 + 1 x_r3_g151 + 1 x_r3_g153 + 1 x_r3_g154 + 1 x_r3_g156 + 1 x_r3_g158 + 1 x_r3_g166 = 20
 lin1_5_0_10: p_r0_g10_h5_t5 - x_r0_g10 <= 0
 lin2_5_0_10: p_r0_g10_h5_t5 - x_r0_g5 <= 0
 lin3_5_0_10: p_r0_g10_h5_t5 - x_r0_g10 - x_r0_g5 >= -1
 lin1_5_0_12: p_r0_g12_h7_t5 - x_r0_g12 <= 0
 lin2_5_0_12: p_r0_g12_h7_t5 - x_r0_g7 <= 0
 lin3_5_0_12: p_r0_g12_h7_t5 - x_r0_g12 - x_r0_g7 >= -1
 lin1_5_0_15: p_r0_g15_h10_t5 - x_r0_g15 <= 0
 lin2_5_0_15: p_r0_g15_h10_t5 - x_r0_g10 <= 0
 lin3_5_0_15: p_r0_g15_h10_t5 - x_r0_g15 - x_r0_g10 >= -1
 lin1_5_0_17: p_r0_g17_h12_t5 - x_r0_g17 <= 0
 lin2_5_0_17: p_r0_g17_h12_t5 - x_r0_g12 <= 0
 lin3_5_0_17: p_r0_g17_h12_t5 - x_r0_g17 - x_r0_g12 >= -1
 lin1_5_0_56: p_r0_g56_h51_t5 - x_r0_g56 <= 0
 lin2_5_0_56: p_r0_g56_h51_t5 - x_r0_g51 <= 0
 lin3_5_0_56: p_r0_g56_h51_t5 - x_r0_g56 - x_r0_g51 >= -1
 lin1_5_0_79: p_r0_g79_h74_t5 - x_r0_g79 <= 0
 lin2_5_0_79: p_r0_g79_h74_t5 - x_r0_g74 <= 0
 lin3_5_0_79: p_r0_g79_h74_t5 - x_r0_g79 - x_r0_g74 >= -1
 lin1_5_0_90: p_r0_g90_h85_t5 - x_r0_g90 <= 0
 lin2_5_0_90: p_r0_g90_h85_t5 - x_r0_g85 <= 0
 lin3_5_0_90: p_r0_g90_h85_t5 - x_r0_g90 - x_r0_g85 >= -1
 lin1_5_0_108: p_r0_g108_h103_t5 - x_r0_g108 <= 0
 lin2_5_0_108: p_r0_g108_h103_t5 - x_r0_g103 <= 0
 lin3_5_0_108: p_r0_g108_h103_t5 - x_r0_g108 - x_r0_g103 >= -1
 lin1_5_0_140: p_r0_g140_h135_t5 - x_r0_g140 <= 0
 lin2_5_0_140: p_r0_g140_h135_t5 - x_r0_g135 <= 0
 lin3_5_0_140: p_r0_g140_h135_t5 - x_r0_g140 - x_r0_g135 >= -1
 lin1_5_1_1: p_r1_g1_h163_t5 - x_r1_g1 <= 0
 lin2_5_1_1: p_r1_g1_h163_t5 - x_r1_g163 <= 0
 lin3_5_1_1: p_r1_g1_h163_t5 - x_r1_g1 - x_r1_g163 >= -1
 lin1_5_1_6: p_r1_g6_h1_t5 - x_r1_g6 <= 0
 lin2_5_1_6: p_r1_g6_h1_t5 - x_r1_g1 <= 0
 lin3_5_1_6: p_r1_g6_h1_t5 - x_r1_g6 - x_r1_g1 >= -1
 lin1_5_1_26: p_r1_g26_h21_t5 - x_r1_g26 <= 0
 lin2_5_1_26: p_r1_g26_h21_t5 - x_r1_g21 <= 0
 lin3_5_1_26: p_r1_g26_h21_t5 - x_r1_g26 - x_r1_g21 >= -1
 lin1_5_1_34: p_r1_g34_h29_t5 - x_r1_g34 <= 0
 lin2_5_1_34: p_r1_g34_h29_t5 - x_r1_g29 <= 0
 lin3_5_1_34: p_r1_g34_h29_t5 - x_r1_g34 - x_r1_g29 >= -1
 lin1_5_1_61: p_r1_g61_h56_t5 - x_r1_g61 <= 0
 lin2_5_1_61: p_r1_g61_h56_t5 - x_r1_g56 <= 0
 lin3_5_1_61: p_r1_g61_h56_t5 - x_r1_g61 - x_r1_g56 >= -1
 lin1_5_1_69: p_r1_g69_h64_t5 - x_r1_g69 <= 0
 lin2_5_1_69: p_r1_g69_h64_t5 - x_r1_g64 <= 0
 lin3_5_1_69: p_r1_g69_h64_t5 - x_r1_g69 - x_r1_g64 >= -1
 lin1_5_1_74: p_r1_g74_h69_t5 - x_r1_g74 <= 0
 lin2_5_1_74: p_r1_g74_h69_t5 - x_r1_g69 <= 0
 lin3_5_1_74: p_r1_g74_h69_t5 - x_r1_g74 - x_r1_g69 >= -1
 lin1_5_1_82: p_r1_g82_h77_t5 - x_r1_g82 <= 0
 lin2_5_1_82: p_r1_g82_h77_t5 - x_r1_g77 <= 0
 lin3_5_1_82: p_r1_g82_h77_t5 - x_r1_g82 - x_r1_g77 >= -1
 lin1_5_1_93: p_r1_g93_h88_t5 - x_r1_g93 <= 0
 lin2_5_1_93: p_r1_g93_h88_t5 - x_r1_g88 <= 0
 lin3_5_1_93: p_r1_g93_h88_t5 - x_r1_g93 - x_r1_g88 >= -1
 lin1_5_1_99: p_r1_g99_h94_t5 - x_r1_g99 <= 0
 lin2_5_1_99: p_r1_g99_h94_t5 - x_r1_g94 <= 0
 lin3_5_1_99: p_r1_g99_h94_t5 - x_r1_g99 - x_r1_g94 >= -1
 lin1_5_1_104: p_r1_g104_h99_t5 - x_r1_g104 <= 0
 lin2_5_1_104: p_r1_g104_h99_t5 - x_r1_g99 <= 0
 lin3_5_1_104: p_r1_g104_h99_t5 - x_r1_g104 - x_r1_g99 >= -1
 lin1_5_1_129: p_r1_g129_h124_t5 - x_r1_g129 <= 0
 lin2_5_1_129: p_r1_g129_h124_t5 - x_r1_g124 <= 0
 lin3_5_1_129: p_r1_g129_h124_t5 - x_r1_g129 - x_r1_g124 >= -1
 lin1_5_1_140: p_r1_g140_h135_t5 - x_r1_g140 <= 0
 lin2_5_1_140: p_r1_g140_h135_t5 - x_r1_g135 <= 0
 lin3_5_1_140: p_r1_g140_h135_t5 - x_r1_g140 - x_r1_g135 >= -1
 lin1_5_1_143: p_r1_g143_h138_t5 - x_r1_g143 <= 0
 lin2_5_1_143: p_r1_g143_h138_t5 - x_r1_g138 <= 0
 lin3_5_1_143: p_r1_g143_h138_t5 - x_r1_g143 - x_r1_g138 >= -1
 lin1_5_1_145: p_r1_g145_h140_t5 - x_r1_g145 <= 0
 lin2_5_1_145: p_r1_g145_h140_t5 - x_r1_g140 <= 0
 lin3_5_1_145: p_r1_g145_h140_t5 - x_r1_g145 - x_r1_g140 >= -1
 lin1_5_2_32: p_r2_g32_h27_t5 - x_r2_g32 <= 0
 lin2_5_2_32: p_r2_g32_h27_t5 - x_r2_g27 <= 0
 lin3_5_2_32: p_r2_g32_h27_t5 - x_r2_g32 - x_r2_g27 >= -1
 lin1_5_2_40: p_r2_g40_h35_t5 - x_r2_g40 <= 0
 lin2_5_2_40: p_r2_g40_h35_t5 - x_r2_g35 <= 0
 lin3_5_2_40: p_r2_g40_h35_t5 - x_r2_g40 - x_r2_g35 >= -1
 lin1_5_2_45: p_r2_g45_h40_t5 - x_r2_g45 <= 0
 lin2_5_2_45: p_r2_g45_h40_t5 - x_r2_g40 <= 0
 lin3_5_2_45: p_r2_g45_h40_t5 - x_r2_g45 - x_r2_g40 >= -1
 lin1_5_2_91: p_r2_g91_h86_t5 - x_r2_g91 <= 0
 lin2_5_2_91: p_r2_g91_h86_t5 - x_r2_g86 <= 0
 lin3_5_2_91: p_r2_g91_h86_t5 - x_r2_g91 - x_r2_g86 >= -1
 lin1_5_2_106: p_r2_g106_h101_t5 - x_r2_g106 <= 0
 lin2_5_2_106: p_r2_g106_h101_t5 - x_r2_g101 <= 0
 lin3_5_2_106: p_r2_g106_h101_t5 - x_r2_g106 - x_r2_g101 >= -1
 lin1_5_2_111: p_r2_g111_h106_t5 - x_r2_g111 <= 0
 lin2_5_2_111: p_r2_g111_h106_t5 - x_r2_g106 <= 0
 lin3_5_2_111: p_r2_g111_h106_t5 - x_r2_g111 - x_r2_g106 >= -1
 lin1_5_2_126: p_r2_g126_h121_t5 - x_r2_g126 <= 0
 lin2_5_2_126: p_r2_g126_h121_t5 - x_r2_g121 <= 0
 lin3_5_2_126: p_r2_g126_h121_t5 - x_r2_g126 - x_r2_g121 >= -1
 lin1_5_2_162: p_r2_g162_h157_t5 - x_r2_g162 <= 0
 lin2_5_2_162: p_r2_g162_h157_t5 - x_r2_g157 <= 0
 lin3_5_2_162: p_r2_g162_h157_t5 - x_r2_g162 - x_r2_g157 >= -1
 lin1_5_3_25: p_r3_g25_h20_t5 - x_r3_g25 <= 0
 lin2_5_3_25: p_r3_g25_h20_t5 - x_r3_g20 <= 0
 lin3_5_3_25: p_r3_g25_h20_t5 - x_r3_g25 - x_r3_g20 >= -1
 lin1_5_3_26: p_r3_g26_h21_t5 - x_r3_g26 <= 0
 lin2_5_3_26: p_r3_g26_h21_t5 - x_r3_g21 <= 0
 lin3_5_3_26: p_r3_g26_h21_t5 - x_r3_g26 - x_r3_g21 >= -1
 lin1_5_3_31: p_r3_g31_h26_t5 - x_r3_g31 <= 0
 lin2_5_3_31: p_r3_g31_h26_t5 - x_r3_g26 <= 0
 lin3_5_3_31: p_r3_g31_h26_t5 - x_r3_g31 - x_r3_g26 >= -1
 lin1_5_3_39: p_r3_g39_h34_t5 - x_r3_g39 <= 0
 lin2_5_3_39: p_r3_g39_h34_t5 - x_r3_g34 <= 0
 lin3_5_3_39: p_r3_g39_h34_t5 - x_r3_g39 - x_r3_g34 >= -1
 lin1_5_3_53: p_r3_g53_h48_t5 - x_r3_g53 <= 0
 lin2_5_3_53: p_r3_g53_h48_t5 - x_r3_g48 <= 0
 lin3_5_3_53: p_r3_g53_h48_t5 - x_r3_g53 - x_r3_g48 >= -1
 lin1_5_3_73: p_r3_g73_h68_t5 - x_r3_g73 <= 0
 lin2_5_3_73: p_r3_g73_h68_t5 - x_r3_g68 <= 0
 lin3_5_3_73: p_r3_g73_h68_t5 - x_r3_g73 - x_r3_g68 >= -1
 lin1_5_3_154: p_r3_g154_h149_t5 - x_r3_g154 <= 0
 lin2_5_3_154: p_r3_g154_h149_t5 - x_r3_g149 <= 0
 lin3_5_3_154: p_r3_g154_h149_t5 - x_r3_g154 - x_r3_g149 >= -1
 lin1_5_3_156: p_r3_g156_h151_t5 - x_r3_g156 <= 0
 lin2_5_3_156: p_r3_g156_h151_t5 - x_r3_g151 <= 0
 lin3_5_3_156: p_r3_g156_h151_t5 - x_r3_g156 - x_r3_g151 >= -1
 lin1_5_3_158: p_r3_g158_h153_t5 - x_r3_g158 <= 0
 lin2_5_3_158: p_r3_g158_h153_t5 - x_r3_g153 <= 0
 lin3_5_3_158: p_r3_g158_h153_t5 - x_r3_g158 - x_r3_g153 >= -1
 defect_5: 1 d_5 - 2 x_r0_g1 - 1 x_r0_g11 - 1 x_r0_g15 - 1 x_r0_g19 - 1 x_r0_g29 - 1 x_r0_g39 - 2 x_r0_g47 - 1 x_r0_g51 - 2 x_r0_g53 - 2 x_r0_g57 - 1 x_r0_g65 - 2 x_r0_g72 - 2 x_r0_g93 - 1 x_r0_g103 - 1 x_r0_g108 - 1 x_r0_g126 - 1 x_r0_g136 - 1 x_r0_g142 - 1 x_r0_g150 - 1 x_r1_g6 - 1 x_r1_g25 - 1 x_r1_g26 - 2 x_r1_g32 - 1 x_r1_g34 - 1 x_r1_g35 - 1 x_r1_g36 - 1 x_r1_g42 - 1 x_r1_g48 - 1 x_r1_g60 - 1 x_r1_g61 - 1 x_r1_g74 - 1 x_r1_g82 - 2 x_r1_g84 - 2 x_r1_g85 - 1 x_r1_g93 - 1 x_r1_g94 - 1 x_r1_g104 - 1 x_r1_g124 - 1 x_r1_g127 - 1 x_r1_g135 - 1 x_r1_g155 - 2 x_r1_g161 - 1 x_r1_g162 - 1 x_r2_g13 - 1 x_r2_g15 - 1 x_r2_g21 - 1 x_r2_g34 - 1 x_r2_g35 - 2 x_r2_g44 - 2 x_r2_g51 - 1 x_r2_g55 - 1 x_r2_g58 - 1 x_r2_g61 - 1 x_r2_g83 - 2 x_r2_g85 - 1 x_r2_g93 - 1 x_r2_g95 - 1 x_r2_g103 - 1 x_r2_g105 - 1 x_r2_g111 - 1 x_r2_g114 - 1 x_r2_g121 - 2 x_r2_g124 - 1 x_r2_g133 - 2 x_r2_g135 - 1 x_r2_g141 - 1 x_r2_g147 - 1 x_r2_g157 - 1 x_r2_g162 - 2 x_r3_g22 - 2 x_r3_g23 - 1 x_r3_g24 - 1 x_r3_g25 - 1 x_r3_g31 - 2 x_r3_g32 - 1 x_r3_g38 - 2 x_r3_g42 - 1 x_r3_g45 - 1 x_r3_g48 - 1 x_r3_g51 - 2 x_r3_g60 - 1 x_r3_g66 - 1 x_r3_g69 - 1 x_r3_g73 - 1 x_r3_g83 - 1 x_r3_g115 - 1 x_r3_g118 - 2 x_r3_g124 - 1 x_r3_g149 - 1 x_r3_g151 - 1 x_r3_g153 - 1 x_r3_g158 - 1 x_r3_g166 - 1 p_r0_g10_h5_t5 - 1 p_r0_g12_h7_t5 - 1 p_r0_g15_h10_t5 - 1 p_r0_g17_h12_t5 - 1 p_r0_g56_h51_t5 - 1 p_r0_g79_h74_t5 - 1 p_r0_g90_h85_t5 - 1 p_r0_g108_h103_t5 - 1 p_r0_g140_h135_t5 - 1 p_r1_g1_h163_t5 - 1 p_r1_g6_h1_t5 - 1 p_r1_g26_h21_t5 - 1 p_r1_g34_h29_t5 - 1 p_r1_g61_h56_t5 - 1 p_r1_g69_h64_t5 - 1 p_r1_g74_h69_t5 - 1 p_r1_g82_h77_t5 - 1 p_r1_g93_h88_t5 - 1 p_r1_g99_h94_t5 - 1 p_r1_g104_h99_t5 - 1 p_r1_g129_h124_t5 - 1 p_r1_g140_h135_t5 - 1 p_r1_g143_h138_t5 - 1 p_r1_g145_h140_t5 - 1 p_r2_g32_h27_t5 - 1 p_r2_g40_h35_t5 - 1 p_r2_g45_h40_t5 - 1 p_r2_g91_h86_t5 - 1 p_r2_g106_h101_t5 - 1 p_r2_g111_h106_t5 - 1 p_r2_g126_h121_t5 - 1 p_r2_g162_h157_t5 - 1 p_r3_g25_h20_t5 - 1 p_r3_g26_h21_t5 - 1 p_r3_g31_h26_t5 - 1 p_r3_g39_h34_t5 - 1 p_r3_g53_h48_t5 - 1 p_r3_g73_h68_t5 - 1 p_r3_g154_h149_t5 - 1 p_r3_g156_h151_t5 - 1 p_r3_g158_h153_t5 = -58
 abs_pos_5: d_5 - u_5 <= 0
 abs_neg_5: - d_5 - u_5 <= 0
 max_def_5: u_5 - M <= 0
 cap_5: u_5 <= 2
 lin1_27_0_10: p_r0_g10_h150_t27 - x_r0_g10 <= 0
 lin2_27_0_10: p_r0_g10_h150_t27 - x_r0_g150 <= 0
 lin3_27_0_10: p_r0_g10_h150_t27 - x_r0_g10 - x_r0_g150 >= -1
 lin1_27_0_19: p_r0_g19_h159_t27 - x_r0_g19 <= 0
 lin2_27_0_19: p_r0_g19_h159_t27 - x_r0_g159 <= 0
 lin3_27_0_19: p_r0_g19_h159_t27 - x_r0_g19 - x_r0_g159 >= -1
 lin1_27_0_39: p_r0_g39_h12_t27 - x_r0_g39 <= 0
 lin2_27_0_39: p_r0_g39_h12_t27 - x_r0_g12 <= 0
 lin3_27_0_39: p_r0_g39_h12_t27 - x_r0_g39 - x_r0_g12 >= -1
 lin1_27_0_56: p_r0_g56_h29_t27 - x_r0_g56 <= 0
 lin2_27_0_56: p_r0_g56_h29_t27 - x_r0_g29 <= 0
 lin3_27_0_56: p_r0_g56_h29_t27 - x_r0_g56 - x_r0_g29 >= -1
 lin1_27_0_66: p_r0_g66_h39_t27 - x_r0_g66 <= 0
 lin2_27_0_66: p_r0_g66_h39_t27 - x_r0_g39 <= 0
 lin3_27_0_66: p_r0_g66_h39_t27 - x_r0_g66 - x_r0_g39 >= -1
 lin1_27_0_74: p_r0_g74_h47_t27 - x_r0_g74 <= 0
 lin2_27_0_74: p_r0_g74_h47_t27 - x_r0_g47 <= 0
 lin3_27_0_74: p_r0_g74_h47_t27 - x_r0_g74 - x_r0_g47 >= -1
 lin1_27_0_93: p_r0_g93_h66_t27 - x_r0_g93 <= 0
 lin2_27_0_93: p_r0_g93_h66_t27 - x_r0_g66 <= 0
 lin3_27_0_93: p_r0_g93_h66_t27 - x_r0_g93 - x_r0_g66 >= -1
 lin1_27_0_112: p_r0_g112_h85_t27 - x_r0_g112 <= 0
 lin2_27_0_112: p_r0_g112_h85_t27 - x_r0_g85 <= 0
 lin3_27_0_112: p_r0_g112_h85_t27 - x_r0_g112 - x_r0_g85 >= -1
 lin1_27_0_135: p_r0_g135_h108_t27 - x_r0_g135 <= 0
 lin2_27_0_135: p_r0_g135_h108_t27 - x_r0_g108 <= 0
 lin3_27_0_135: p_r0_g135_h108_t27 - x_r0_g135 - x_r0_g108 >= -1
 lin1_27_1_21: p_r1_g21_h161_t27 - x_r1_g21 <= 0
 lin2_27_1_21: p_r1_g21_h161_t27 - x_r1_g161 <= 0
 lin3_27_1_21: p_r1_g21_h161_t27 - x_r1_g21 - x_r1_g161 >= -1
 lin1_27_1_48: p_r1_g48_h21_t27 - x_r1_g48 <= 0
 lin2_27_1_48: p_r1_g48_h21_t27 - x_r1_g21 <= 0
 lin3_27_1_48: p_r1_g48_h21_t27 - x_r1_g48 - x_r1_g21 >= -1
 lin1_27_1_56: p_r1_g56_h29_t27 - x_r1_g56 <= 0
 lin2_27_1_56: p_r1_g56_h29_t27 - x_r1_g29 <= 0
 lin3_27_1_56: p_r1_g56_h29_t27 - x_r1_g56 - x_r1_g29 >= -1
 lin1_27_1_61: p_r1_g61_h34_t27 - x_r1_g61 <= 0
 lin2_27_1_61: p_r1_g61_h34_t27 - x_r1_g34 <= 0
 lin3_27_1_61: p_r1_g61_h34_t27 - x_r1_g61 - x_r1_g34 >= -1
 lin1_27_1_69: p_r1_g69_h42_t27 - x_r1_g69 <= 0
 lin2_27_1_69: p_r1_g69_h42_t27 - x_r1_g42 <= 0
 lin3_27_1_69: p_r1_g69_h42_t27 - x_r1_g69 - x_r1_g42 >= -1
 lin1_27_1_88: p_r1_g88_h61_t27 - x_r1_g88 <= 0
 lin2_27_1_88: p_r1_g88_h61_t27 - x_r1_g61 <= 0
 lin3_27_1_88: p_r1_g88_h61_t27 - x_r1_g88 - x_r1_g61 >= -1
 lin1_27_1_104: p_r1_g104_h77_t27 - x_r1_g104 <= 0
 lin2_27_1_104: p_r1_g104_h77_t27 - x_r1_g77 <= 0
 lin3_27_1_104: p_r1_g104_h77_t27 - x_r1_g104 - x_r1_g77 >= -1
 lin1_27_1_162: p_r1_g162_h135_t27 - x_r1_g162 <= 0
 lin2_27_1_162: p_r1_g162_h135_t27 - x_r1_g135 <= 0
 lin3_27_1_162: p_r1_g162_h135_t27 - x_r1_g162 - x_r1_g135 >= -1
 lin1_27_2_40: p_r2_g40_h13_t27 - x_r2_g40 <= 0
 lin2_27_2_40: p_r2_g40_h13_t27 - x_r2_g13 <= 0
 lin3_27_2_40: p_r2_g40_h13_t27 - x_r2_g40 - x_r2_g13 >= -1
 lin1_27_2_61: p_r2_g61_h34_t27 - x_r2_g61 <= 0
 lin2_27_2_61: p_r2_g61_h34_t27 - x_r2_g34 <= 0
 lin3_27_2_61: p_r2_g61_h34_t27 - x_r2_g61 - x_r2_g34 >= -1
 lin1_27_2_85: p_r2_g85_h58_t27 - x_r2_g85 <= 0
 lin2_27_2_85: p_r2_g85_h58_t27 - x_r2_g58 <= 0
 lin3_27_2_85: p_r2_g85_h58_t27 - x_r2_g85 - x_r2_g58 >= -1
 lin1_27_2_101: p_r2_g101_h74_t27 - x_r2_g101 <= 0
 lin2_27_2_101: p_r2_g101_h74_t27 - x_r2_g74 <= 0
 lin3_27_2_101: p_r2_g101_h74_t27 - x_r2_g101 - x_r2_g74 >= -1
 lin1_27_2_112: p_r2_g112_h85_t27 - x_r2_g112 <= 0
 lin2_27_2_112: p_r2_g112_h85_t27 - x_r2_g85 <= 0
 lin3_27_2_112: p_r2_g112_h85_t27 - x_r2_g112 - x_r2_g85 >= -1
 lin1_27_2_133: p_r2_g133_h106_t27 - x_r2_g133 <= 0
 lin2_27_2_133: p_r2_g133_h106_t27 - x_r2_g106 <= 0
 lin3_27_2_133: p_r2_g133_h106_t27 - x_r2_g133 - x_r2_g106 >= -1
 lin1_27_2_141: p_r2_g141_h114_t27 - x_r2_g141 <= 0
 lin2_27_2_141: p_r2_g141_h114_t27 - x_r2_g114 <= 0
 lin3_27_2_141: p_r2_g141_h114_t27 - x_r2_g141 - x_r2_g114 >= -1
 lin1_27_2_162: p_r2_g162_h135_t27 - x_r2_g162 <= 0
 lin2_27_2_162: p_r2_g162_h135_t27 - x_r2_g135 <= 0
 lin3_27_2_162: p_r2_g162_h135_t27 - x_r2_g162 - x_r2_g135 >= -1
 lin1_27_3_26: p_r3_g26_h166_t27 - x_r3_g26 <= 0
 lin2_27_3_26: p_r3_g26_h166_t27 - x_r3_g166 <= 0
 lin3_27_3_26: p_r3_g26_h166_t27 - x_r3_g26 - x_r3_g166 >= -1
 lin1_27_3_32: p_r3_g32_h5_t27 - x_r3_g32 <= 0
 lin2_27_3_32: p_r3_g32_h5_t27 - x_r3_g5 <= 0
 lin3_27_3_32: p_r3_g32_h5_t27 - x_r3_g32 - x_r3_g5 >= -1
 lin1_27_3_48: p_r3_g48_h21_t27 - x_r3_g48 <= 0
 lin2_27_3_48: p_r3_g48_h21_t27 - x_r3_g21 <= 0
 lin3_27_3_48: p_r3_g48_h21_t27 - x_r3_g48 - x_r3_g21 >= -1
 lin1_27_3_51: p_r3_g51_h24_t27 - x_r3_g51 <= 0
 lin2_27_3_51: p_r3_g51_h24_t27 - x_r3_g24 <= 0
 lin3_27_3_51: p_r3_g51_h24_t27 - x_r3_g51 - x_r3_g24 >= -1
 lin1_27_3_53: p_r3_g53_h26_t27 - x_r3_g53 <= 0
 lin2_27_3_53: p_r3_g53_h26_t27 - x_r3_g26 <= 0
 lin3_27_3_53: p_r3_g53_h26_t27 - x_r3_g53 - x_r3_g26 >= -1
 lin1_27_3_66: p_r3_g66_h39_t27 - x_r3_g66 <= 0
 lin2_27_3_66: p_r3_g66_h39_t27 - x_r3_g39 <= 0
 lin3_27_3_66: p_r3_g66_h39_t27 - x_r3_g66 - x_r3_g39 >= -1
 lin1_27_3_69: p_r3_g69_h42_t27 - x_r3_g69 <= 0
 lin2_27_3_69: p_r3_g69_h42_t27 - x_r3_g42 <= 0
 lin3_27_3_69: p_r3_g69_h42_t27 - x_r3_g69 - x_r3_g42 >= -1
 lin1_27_3_87: p_r3_g87_h60_t27 - x_r3_g87 <= 0
 lin2_27_3_87: p_r3_g87_h60_t27 - x_r3_g60 <= 0
 lin3_27_3_87: p_r3_g87_h60_t27 - x_r3_g87 - x_r3_g60 >= -1
 lin1_27_3_96: p_r3_g96_h69_t27 - x_r3_g96 <= 0
 lin2_27_3_96: p_r3_g96_h69_t27 - x_r3_g69 <= 0
 lin3_27_3_96: p_r3_g96_h69_t27 - x_r3_g96 - x_r3_g69 >= -1
 lin1_27_3_151: p_r3_g151_h124_t27 - x_r3_g151 <= 0
 lin2_27_3_151: p_r3_g151_h124_t27 - x_r3_g124 <= 0
 lin3_27_3_151: p_r3_g151_h124_t27 - x_r3_g151 - x_r3_g124 >= -1
 defect_27: 1 d_27 - 1 x_r0_g7 - 1 x_r0_g10 - 2 x_r0_g11 - 1 x_r0_g12 - 2 x_r0_g15 - 1 x_r0_g17 - 1 x_r0_g19 - 1 x_r0_g47 - 1 x_r0_g57 - 1 x_r0_g65 - 1 x_r0_g72 - 1 x_r0_g74 - 1 x_r0_g79 - 1 x_r0_g85 - 2 x_r0_g89 - 1 x_r0_g90 - 1 x_r0_g91 - 1 x_r0_g93 - 1 x_r0_g112 - 1 x_r0_g119 - 1 x_r0_g136 - 1 x_r0_g140 - 2 x_r0_g143 - 1 x_r0_g150 - 1 x_r0_g159 - 1 x_r1_g1 - 1 x_r1_g6 - 2 x_r1_g26 - 1 x_r1_g35 - 1 x_r1_g42 - 1 x_r1_g60 - 2 x_r1_g64 - 1 x_r1_g68 - 1 x_r1_g69 - 1 x_r1_g82 - 1 x_r1_g84 - 1 x_r1_g85 - 1 x_r1_g88 - 1 x_r1_g93 - 2 x_r1_g127 - 1 x_r1_g129 - 1 x_r1_g135 - 1 x_r1_g140 - 1 x_r1_g143 - 2 x_r1_g155 - 1 x_r2_g11 - 1 x_r2_g13 - 2 x_r2_g21 - 1 x_r2_g27 - 1 x_r2_g34 - 1 x_r2_g45 - 1 x_r2_g51 - 2 x_r2_g55 - 1 x_r2_g58 - 2 x_r2_g83 - 1 x_r2_g86 - 1 x_r2_g91 - 1 x_r2_g93 - 2 x_r2_g95 - 1 x_r2_g101 - 2 x_r2_g102 - 1 x_r2_g103 - 2 x_r2_g105 - 1 x_r2_g112 - 2 x_r2_g121 - 1 x_r2_g124 - 1 x_r2_g126 - 1 x_r2_g133 - 1 x_r2_g141 - 2 x_r2_g147 - 1 x_r2_g157 - 1 x_r3_g5 - 2 x_r3_g20 - 2 x_r3_g22 - 1 x_r3_g23 - 1 x_r3_g31 - 1 x_r3_g32 - 1 x_r3_g34 - 1 x_r3_g38 - 1 x_r3_g39 - 1 x_r3_g45 - 1 x_r3_g48 - 1 x_r3_g51 - 1 x_r3_g53 - 1 x_r3_g62 - 1 x_r3_g68 - 1 x_r3_g73 - 1 x_r3_g83 - 1 x_r3_g96 - 1 x_r3_g115 - 1 x_r3_g118 - 1 x_r3_g125 - 2 x_r3_g149 - 1 x_r3_g153 - 1 x_r3_g154 - 1 x_r3_g156 - 1 x_r3_g158 - 1 x_r3_g166 - 1 p_r0_g10_h150_t27 - 1 p_r0_g19_h159_t27 - 1 p_r0_g39_h12_t27 - 1 p_r0_g56_h29_t27 - 1 p_r0_g66_h39_t27 - 1 p_r0_g74_h47_t27 - 1 p_r0_g93_h66_t27 - 1 p_r0_g112_h85_t27 - 1 p_r0_g135_h108_t27 - 1 p_r1_g21_h161_t27 - 1 p_r1_g48_h21_t27 - 1 p_r1_g56_h29_t27 - 1 p_r1_g61_h34_t27 - 1 p_r1_g69_h42_t27 - 1 p_r1_g88_h61_t27 - 1 p_r1_g104_h77_t27 - 1 p_r1_g162_h135_t27 - 1 p_r2_g40_h13_t27 - 1 p_r2_g61_h34_t27 - 1 p_r2_g85_h58_t27 - 1 p_r2_g101_h74_t27 - 1 p_r2_g112_h85_t27 - 1 p_r2_g133_h106_t27 - 1 p_r2_g141_h114_t27 - 1 p_r2_g162_h135_t27 - 1 p_r3_g26_h166_t27 - 1 p_r3_g32_h5_t27 - 1 p_r3_g48_h21_t27 - 1 p_r3_g51_h24_t27 - 1 p_r3_g53_h26_t27 - 1 p_r3_g66_h39_t27 - 1 p_r3_g69_h42_t27 - 1 p_r3_g87_h60_t27 - 1 p_r3_g96_h69_t27 - 1 p_r3_g151_h124_t27 = -84
 abs_pos_27: d_27 - u_27 <= 0
 abs_neg_27: - d_27 - u_27 <= 0
 max_def_27: u_27 - M <= 0
 cap_27: u_27 <= 2
 lin1_34_0_7: p_r0_g7_h140_t34 - x_r0_g7 <= 0
 lin2_34_0_7: p_r0_g7_h140_t34 - x_r0_g140 <= 0
 lin3_34_0_7: p_r0_g7_h140_t34 - x_r0_g7 - x_r0_g140 >= -1
 lin1_34_0_10: p_r0_g10_h143_t34 - x_r0_g10 <= 0
 lin2_34_0_10: p_r0_g10_h143_t34 - x_r0_g143 <= 0
 lin3_34_0_10: p_r0_g10_h143_t34 - x_r0_g10 - x_r0_g143 >= -1
 lin1_34_0_17: p_r0_g17_h150_t34 - x_r0_g17 <= 0
 lin2_34_0_17: p_r0_g17_h150_t34 - x_r0_g150 <= 0
 lin3_34_0_17: p_r0_g17_h150_t34 - x_r0_g17 - x_r0_g150 >= -1
 lin1_34_0_39: p_r0_g39_h5_t34 - x_r0_g39 <= 0
 lin2_34_0_39: p_r0_g39_h5_t34 - x_r0_g5 <= 0
 lin3_34_0_39: p_r0_g39_h5_t34 - x_r0_g39 - x_r0_g5 >= -1
 lin1_34_0_51: p_r0_g51_h17_t34 - x_r0_g51 <= 0
 lin2_34_0_51: p_r0_g51_h17_t34 - x_r0_g17 <= 0
 lin3_34_0_51: p_r0_g51_h17_t34 - x_r0_g51 - x_r0_g17 >= -1
 lin1_34_0_53: p_r0_g53_h19_t34 - x_r0_g53 <= 0
 lin2_34_0_53: p_r0_g53_h19_t34 - x_r0_g19 <= 0
 lin3_34_0_53: p_r0_g53_h19_t34 - x_r0_g53 - x_r0_g19 >= -1
 lin1_34_0_85: p_r0_g85_h51_t34 - x_r0_g85 <= 0
 lin2_34_0_85: p_r0_g85_h51_t34 - x_r0_g51 <= 0
 lin3_34_0_85: p_r0_g85_h51_t34 - x_r0_g85 - x_r0_g51 >= -1
 lin1_34_0_89: p_r0_g89_h55_t34 - x_r0_g89 <= 0
 lin2_34_0_89: p_r0_g89_h55_t34 - x_r0_g55 <= 0
 lin3_34_0_89: p_r0_g89_h55_t34 - x_r0_g89 - x_r0_g55 >= -1
 lin1_34_0_90: p_r0_g90_h56_t34 - x_r0_g90 <= 0
 lin2_34_0_90: p_r0_g90_h56_t34 - x_r0_g56 <= 0
 lin3_34_0_90: p_r0_g90_h56_t34 - x_r0_g90 - x_r0_g56 >= -1
 lin1_34_0_91: p_r0_g91_h57_t34 - x_r0_g91 <= 0
 lin2_34_0_91: p_r0_g91_h57_t34 - x_r0_g57 <= 0
 lin3_34_0_91: p_r0_g91_h57_t34 - x_r0_g91 - x_r0_g57 >= -1
 lin1_34_0_108: p_r0_g108_h74_t34 - x_r0_g108 <= 0
 lin2_34_0_108: p_r0_g108_h74_t34 - x_r0_g74 <= 0
 lin3_34_0_108: p_r0_g108_h74_t34 - x_r0_g108 - x_r0_g74 >= -1
 lin1_34_0_119: p_r0_g119_h85_t34 - x_r0_g119 <= 0
 lin2_34_0_119: p_r0_g119_h85_t34 - x_r0_g85 <= 0
 lin3_34_0_119: p_r0_g119_h85_t34 - x_r0_g119 - x_r0_g85 >= -1
 lin1_34_0_142: p_r0_g142_h108_t34 - x_r0_g142 <= 0
 lin2_34_0_142: p_r0_g142_h108_t34 - x_r0_g108 <= 0
 lin3_34_0_142: p_r0_g142_h108_t34 - x_r0_g142 - x_r0_g108 >= -1
 lin1_34_1_29: p_r1_g29_h162_t34 - x_r1_g29 <= 0
 lin2_34_1_29: p_r1_g29_h162_t34 - x_r1_g162 <= 0
 lin3_34_1_29: p_r1_g29_h162_t34 - x_r1_g29 - x_r1_g162 >= -1
 lin1_34_1_35: p_r1_g35_h1_t34 - x_r1_g35 <= 0
 lin2_34_1_35: p_r1_g35_h1_t34 - x_r1_g1 <= 0
 lin3_34_1_35: p_r1_g35_h1_t34 - x_r1_g35 - x_r1_g1 >= -1
 lin1_34_1_60: p_r1_g60_h26_t34 - x_r1_g60 <= 0
 lin2_34_1_60: p_r1_g60_h26_t34 - x_r1_g26 <= 0
 lin3_34_1_60: p_r1_g60_h26_t34 - x_r1_g60 - x_r1_g26 >= -1
 lin1_34_1_68: p_r1_g68_h34_t34 - x_r1_g68 <= 0
 lin2_34_1_68: p_r1_g68_h34_t34 - x_r1_g34 <= 0
 lin3_34_1_68: p_r1_g68_h34_t34 - x_r1_g68 - x_r1_g34 >= -1
 lin1_34_1_69: p_r1_g69_h35_t34 - x_r1_g69 <= 0
 lin2_34_1_69: p_r1_g69_h35_t34 - x_r1_g35 <= 0
 lin3_34_1_69: p_r1_g69_h35_t34 - x_r1_g69 - x_r1_g35 >= -1
 lin1_34_1_82: p_r1_g82_h48_t34 - x_r1_g82 <= 0
 lin2_34_1_82: p_r1_g82_h48_t34 - x_r1_g48 <= 0
 lin3_34_1_82: p_r1_g82_h48_t34 - x_r1_g82 - x_r1_g48 >= -1
 lin1_34_1_94: p_r1_g94_h60_t34 - x_r1_g94 <= 0
 lin2_34_1_94: p_r1_g94_h60_t34 - x_r1_g60 <= 0
 lin3_34_1_94: p_r1_g94_h60_t34 - x_r1_g94 - x_r1_g60 >= -1
 lin1_34_1_127: p_r1_g127_h93_t34 - x_r1_g127 <= 0
 lin2_34_1_127: p_r1_g127_h93_t34 - x_r1_g93 <= 0
 lin3_34_1_127: p_r1_g127_h93_t34 - x_r1_g127 - x_r1_g93 >= -1
 lin1_34_1_138: p_r1_g138_h104_t34 - x_r1_g138 <= 0
 lin2_34_1_138: p_r1_g138_h104_t34 - x_r1_g104 <= 0
 lin3_34_1_138: p_r1_g138_h104_t34 - x_r1_g138 - x_r1_g104 >= -1
 lin1_34_1_161: p_r1_g161_h127_t34 - x_r1_g161 <= 0
 lin2_34_1_161: p_r1_g161_h127_t34 - x_r1_g127 <= 0
 lin3_34_1_161: p_r1_g161_h127_t34 - x_r1_g161 - x_r1_g127 >= -1
 lin1_34_1_163: p_r1_g163_h129_t34 - x_r1_g163 <= 0
 lin2_34_1_163: p_r1_g163_h129_t34 - x_r1_g129 <= 0
 lin3_34_1_163: p_r1_g163_h129_t34 - x_r1_g163 - x_r1_g129 >= -1
 lin1_34_2_45: p_r2_g45_h11_t34 - x_r2_g45 <= 0
 lin2_34_2_45: p_r2_g45_h11_t34 - x_r2_g11 <= 0
 lin3_34_2_45: p_r2_g45_h11_t34 - x_r2_g45 - x_r2_g11 >= -1
 lin1_34_2_55: p_r2_g55_h21_t34 - x_r2_g55 <= 0
 lin2_34_2_55: p_r2_g55_h21_t34 - x_r2_g21 <= 0
 lin3_34_2_55: p_r2_g55_h21_t34 - x_r2_g55 - x_r2_g21 >= -1
 lin1_34_2_61: p_r2_g61_h27_t34 - x_r2_g61 <= 0
 lin2_34_2_61: p_r2_g61_h27_t34 - x_r2_g27 <= 0
 lin3_34_2_61: p_r2_g61_h27_t34 - x_r2_g61 - x_r2_g27 >= -1
 lin1_34_2_74: p_r2_g74_h40_t34 - x_r2_g74 <= 0
 lin2_34_2_74: p_r2_g74_h40_t34 - x_r2_g40 <= 0
 lin3_34_2_74: p_r2_g74_h40_t34 - x_r2_g74 - x_r2_g40 >= -1
 lin1_34_2_85: p_r2_g85_h51_t34 - x_r2_g85 <= 0
 lin2_34_2_85: p_r2_g85_h51_t34 - x_r2_g51 <= 0
 lin3_34_2_85: p_r2_g85_h51_t34 - x_r2_g85 - x_r2_g51 >= -1
 lin1_34_2_95: p_r2_g95_h61_t34 - x_r2_g95 <= 0
 lin2_34_2_95: p_r2_g95_h61_t34 - x_r2_g61 <= 0
 lin3_34_2_95: p_r2_g95_h61_t34 - x_r2_g95 - x_r2_g61 >= -1
 lin1_34_2_135: p_r2_g135_h101_t34 - x_r2_g135 <= 0
 lin2_34_2_135: p_r2_g135_h101_t34 - x_r2_g101 <= 0
 lin3_34_2_135: p_r2_g135_h101_t34 - x_r2_g135 - x_r2_g101 >= -1
 lin1_34_3_20: p_r3_g20_h153_t34 - x_r3_g20 <= 0
 lin2_34_3_20: p_r3_g20_h153_t34 - x_r3_g153 <= 0
 lin3_34_3_20: p_r3_g20_h153_t34 - x_r3_g20 - x_r3_g153 >= -1
 lin1_34_3_21: p_r3_g21_h154_t34 - x_r3_g21 <= 0
 lin2_34_3_21: p_r3_g21_h154_t34 - x_r3_g154 <= 0
 lin3_34_3_21: p_r3_g21_h154_t34 - x_r3_g21 - x_r3_g154 >= -1
 lin1_34_3_23: p_r3_g23_h156_t34 - x_r3_g23 <= 0
 lin2_34_3_23: p_r3_g23_h156_t34 - x_r3_g156 <= 0
 lin3_34_3_23: p_r3_g23_h156_t34 - x_r3_g23 - x_r3_g156 >= -1
 lin1_34_3_25: p_r3_g25_h158_t34 - x_r3_g25 <= 0
 lin2_34_3_25: p_r3_g25_h158_t34 - x_r3_g158 <= 0
 lin3_34_3_25: p_r3_g25_h158_t34 - x_r3_g25 - x_r3_g158 >= -1
 lin1_34_3_39: p_r3_g39_h5_t34 - x_r3_g39 <= 0
 lin2_34_3_39: p_r3_g39_h5_t34 - x_r3_g5 <= 0
 lin3_34_3_39: p_r3_g39_h5_t34 - x_r3_g39 - x_r3_g5 >= -1
 lin1_34_3_60: p_r3_g60_h26_t34 - x_r3_g60 <= 0
 lin2_34_3_60: p_r3_g60_h26_t34 - x_r3_g26 <= 0
 lin3_34_3_60: p_r3_g60_h26_t34 - x_r3_g60 - x_r3_g26 >= -1
 lin1_34_3_66: p_r3_g66_h32_t34 - x_r3_g66 <= 0
 lin2_34_3_66: p_r3_g66_h32_t34 - x_r3_g32 <= 0
 lin3_34_3_66: p_r3_g66_h32_t34 - x_r3_g66 - x_r3_g32 >= -1
 lin1_34_3_68: p_r3_g68_h34_t34 - x_r3_g68 <= 0
 lin2_34_3_68: p_r3_g68_h34_t34 - x_r3_g34 <= 0
 lin3_34_3_68: p_r3_g68_h34_t34 - x_r3_g68 - x_r3_g34 >= -1
 lin1_34_3_73: p_r3_g73_h39_t34 - x_r3_g73 <= 0
 lin2_34_3_73: p_r3_g73_h39_t34 - x_r3_g39 <= 0
 lin3_34_3_73: p_r3_g73_h39_t34 - x_r3_g73 - x_r3_g39 >= -1
 lin1_34_3_87: p_r3_g87_h53_t34 - x_r3_g87 <= 0
 lin2_34_3_87: p_r3_g87_h53_t34 - x_r3_g53 <= 0
 lin3_34_3_87: p_r3_g87_h53_t34 - x_r3_g87 - x_r3_g53 >= -1
 lin1_34_3_96: p_r3_g96_h62_t34 - x_r3_g96 <= 0
 lin2_34_3_96: p_r3_g96_h62_t34 - x_r3_g62 <= 0
 lin3_34_3_96: p_r3_g96_h62_t34 - x_r3_g96 - x_r3_g62 >= -1
 lin1_34_3_124: p_r3_g124_h90_t34 - x_r3_g124 <= 0
 lin2_34_3_124: p_r3_g124_h90_t34 - x_r3_g90 <= 0
 lin3_34_3_124: p_r3_g124_h90_t34 - x_r3_g124 - x_r3_g90 >= -1
 lin1_34_3_149: p_r3_g149_h115_t34 - x_r3_g149 <= 0
 lin2_34_3_149: p_r3_g149_h115_t34 - x_r3_g115 <= 0
 lin3_34_3_149: p_r3_g149_h115_t34 - x_r3_g149 - x_r3_g115 >= -1
 lin1_34_3_158: p_r3_g158_h124_t34 - x_r3_g158 <= 0
 lin2_34_3_158: p_r3_g158_h124_t34 - x_r3_g124 <= 0
 lin3_34_3_158: p_r3_g158_h124_t34 - x_r3_g158 - x_r3_g124 >= -1
 defect_34: 1 d_34 - 2 x_r0_g4 - 1 x_r0_g11 - 1 x_r0_g12 - 1 x_r0_g15 - 1 x_r0_g19 - 1 x_r0_g29 - 1 x_r0_g47 - 1 x_r0_g66 - 1 x_r0_g72 - 1 x_r0_g74 - 2 x_r0_g79 - 1 x_r0_g89 - 2 x_r0_g93 - 1 x_r0_g103 - 1 x_r0_g112 - 1 x_r0_g126 - 1 x_r0_g135 - 2 x_r0_g136 - 1 x_r0_g150 - 1 x_r1_g6 - 1 x_r1_g21 - 1 x_r1_g26 - 1 x_r1_g32 - 1 x_r1_g36 - 1 x_r1_g56 - 2 x_r1_g61 - 1 x_r1_g64 - 1 x_r1_g69 - 2 x_r1_g74 - 1 x_r1_g85 - 1 x_r1_g94 - 1 x_r1_g99 - 1 x_r1_g104 - 1 x_r1_g124 - 1 x_r1_g129 - 2 x_r1_g143 - 1 x_r1_g162 - 2 x_r2_g15 - 1 x_r2_g27 - 1 x_r2_g32 - 2 x_r2_g34 - 1 x_r2_g35 - 1 x_r2_g44 - 1 x_r2_g83 - 1 x_r2_g85 - 1 x_r2_g86 - 1 x_r2_g93 - 1 x_r2_g95 - 2 x_r2_g102 - 1 x_r2_g103 - 1 x_r2_g105 - 1 x_r2_g106 - 1 x_r2_g112 - 2 x_r2_g114 - 2 x_r2_g124 - 1 x_r2_g126 - 1 x_r2_g133 - 2 x_r2_g147 - 1 x_r2_g162 - 1 x_r3_g5 - 1 x_r3_g21 - 1 x_r3_g25 - 1 x_r3_g31 - 1 x_r3_g38 - 2 x_r3_g42 - 1 x_r3_g51 - 1 x_r3_g53 - 1 x_r3_g60 - 1 x_r3_g62 - 2 x_r3_g77 - 1 x_r3_g83 - 1 x_r3_g115 - 1 x_r3_g151 - 1 x_r3_g153 - 1 x_r3_g156 - 1 p_r0_g7_h140_t34 - 1 p_r0_g10_h143_t34 - 1 p_r0_g17_h150_t34 - 1 p_r0_g39_h5_t34 - 1 p_r0_g51_h17_t34 - 1 p_r0_g53_h19_t34 - 1 p_r0_g85_h51_t34 - 1 p_r0_g89_h55_t34 - 1 p_r0_g90_h56_t34 - 1 p_r0_g91_h57_t34 - 1 p_r0_g108_h74_t34 - 1 p_r0_g119_h85_t34 - 1 p_r0_g142_h108_t34 - 1 p_r1_g29_h162_t34 - 1 p_r1_g35_h1_t34 - 1 p_r1_g60_h26_t34 - 1 p_r1_g68_h34_t34 - 1 p_r1_g69_h35_t34 - 1 p_r1_g82_h48_t34 - 1 p_r1_g94_h60_t34 - 1 p_r1_g127_h93_t34 - 1 p_r1_g138_h104_t34 - 1 p_r1_g161_h127_t34 - 1 p_r1_g163_h129_t34 - 1 p_r2_g45_h11_t34 - 1 p_r2_g55_h21_t34 - 1 p_r2_g61_h27_t34 - 1 p_r2_g74_h40_t34 - 1 p_r2_g85_h51_t34 - 1 p_r2_g95_h61_t34 - 1 p_r2_g135_h101_t34 - 1 p_r3_g20_h153_t34 - 1 p_r3_g21_h154_t34 - 1 p_r3_g23_h156_t34 - 1 p_r3_g25_h158_t34 - 1 p_r3_g39_h5_t34 - 1 p_r3_g60_h26_t34 - 1 p_r3_g66_h32_t34 - 1 p_r3_g68_h34_t34 - 1 p_r3_g73_h39_t34 - 1 p_r3_g87_h53_t34 - 1 p_r3_g96_h62_t34 - 1 p_r3_g124_h90_t34 - 1 p_r3_g149_h115_t34 - 1 p_r3_g158_h124_t34 = -41
 abs_pos_34: d_34 - u_34 <= 0
 abs_neg_34: - d_34 - u_34 <= 0
 max_def_34: u_34 - M <= 0
 cap_34: u_34 <= 2
 lin1_36_0_4: p_r0_g4_h135_t36 - x_r0_g4 <= 0
 lin2_36_0_4: p_r0_g4_h135_t36 - x_r0_g135 <= 0
 lin3_36_0_4: p_r0_g4_h135_t36 - x_r0_g4 - x_r0_g135 >= -1
 lin1_36_0_5: p_r0_g5_h136_t36 - x_r0_g5 <= 0
 lin2_36_0_5: p_r0_g5_h136_t36 - x_r0_g136 <= 0
 lin3_36_0_5: p_r0_g5_h136_t36 - x_r0_g5 - x_r0_g136 >= -1
 lin1_36_0_11: p_r0_g11_h142_t36 - x_r0_g11 <= 0
 lin2_36_0_11: p_r0_g11_h142_t36 - x_r0_g142 <= 0
 lin3_36_0_11: p_r0_g11_h142_t36 - x_r0_g11 - x_r0_g142 >= -1
 lin1_36_0_12: p_r0_g12_h143_t36 - x_r0_g12 <= 0
 lin2_36_0_12: p_r0_g12_h143_t36 - x_r0_g143 <= 0
 lin3_36_0_12: p_r0_g12_h143_t36 - x_r0_g12 - x_r0_g143 >= -1
 lin1_36_0_19: p_r0_g19_h150_t36 - x_r0_g19 <= 0
 lin2_36_0_19: p_r0_g19_h150_t36 - x_r0_g150 <= 0
 lin3_36_0_19: p_r0_g19_h150_t36 - x_r0_g19 - x_r0_g150 >= -1
 lin1_36_0_47: p_r0_g47_h11_t36 - x_r0_g47 <= 0
 lin2_36_0_47: p_r0_g47_h11_t36 - x_r0_g11 <= 0
 lin3_36_0_47: p_r0_g47_h11_t36 - x_r0_g47 - x_r0_g11 >= -1
 lin1_36_0_51: p_r0_g51_h15_t36 - x_r0_g51 <= 0
 lin2_36_0_51: p_r0_g51_h15_t36 - x_r0_g15 <= 0
 lin3_36_0_51: p_r0_g51_h15_t36 - x_r0_g51 - x_r0_g15 >= -1
 lin1_36_0_53: p_r0_g53_h17_t36 - x_r0_g53 <= 0
 lin2_36_0_53: p_r0_g53_h17_t36 - x_r0_g17 <= 0
 lin3_36_0_53: p_r0_g53_h17_t36 - x_r0_g53 - x_r0_g17 >= -1
 lin1_36_0_55: p_r0_g55_h19_t36 - x_r0_g55 <= 0
 lin2_36_0_55: p_r0_g55_h19_t36 - x_r0_g19 <= 0
 lin3_36_0_55: p_r0_g55_h19_t36 - x_r0_g55 - x_r0_g19 >= -1
 lin1_36_0_65: p_r0_g65_h29_t36 - x_r0_g65 <= 0
 lin2_36_0_65: p_r0_g65_h29_t36 - x_r0_g29 <= 0
 lin3_36_0_65: p_r0_g65_h29_t36 - x_r0_g65 - x_r0_g29 >= -1
 lin1_36_0_89: p_r0_g89_h53_t36 - x_r0_g89 <= 0
 lin2_36_0_89: p_r0_g89_h53_t36 - x_r0_g53 <= 0
 lin3_36_0_89: p_r0_g89_h53_t36 - x_r0_g89 - x_r0_g53 >= -1
 lin1_36_0_91: p_r0_g91_h55_t36 - x_r0_g91 <= 0
 lin2_36_0_91: p_r0_g91_h55_t36 - x_r0_g55 <= 0
 lin3_36_0_91: p_r0_g91_h55_t36 - x_r0_g91 - x_r0_g55 >= -1
 lin1_36_0_93: p_r0_g93_h57_t36 - x_r0_g93 <= 0
 lin2_36_0_93: p_r0_g93_h57_t36 - x_r0_g57 <= 0
 lin3_36_0_93: p_r0_g93_h57_t36 - x_r0_g93 - x_r0_g57 >= -1
 lin1_36_0_108: p_r0_g108_h72_t36 - x_r0_g108 <= 0
 lin2_36_0_108: p_r0_g108_h72_t36 - x_r0_g72 <= 0
 lin3_36_0_108: p_r0_g108_h72_t36 - x_r0_g108 - x_r0_g72 >= -1
 lin1_36_0_126: p_r0_g126_h90_t36 - x_r0_g126 <= 0
 lin2_36_0_126: p_r0_g126_h90_t36 - x_r0_g90 <= 0
 lin3_36_0_126: p_r0_g126_h90_t36 - x_r0_g126 - x_r0_g90 >= -1
 lin1_36_1_32: p_r1_g32_h163_t36 - x_r1_g32 <= 0
 lin2_36_1_32: p_r1_g32_h163_t36 - x_r1_g163 <= 0
 lin3_36_1_32: p_r1_g32_h163_t36 - x_r1_g32 - x_r1_g163 >= -1
 lin1_36_1_42: p_r1_g42_h6_t36 - x_r1_g42 <= 0
 lin2_36_1_42: p_r1_g42_h6_t36 - x_r1_g6 <= 0
 lin3_36_1_42: p_r1_g42_h6_t36 - x_r1_g42 - x_r1_g6 >= -1
 lin1_36_1_61: p_r1_g61_h25_t36 - x_r1_g61 <= 0
 lin2_36_1_61: p_r1_g61_h25_t36 - x_r1_g25 <= 0
 lin3_36_1_61: p_r1_g61_h25_t36 - x_r1_g61 - x_r1_g25 >= -1
 lin1_36_1_68: p_r1_g68_h32_t36 - x_r1_g68 <= 0
 lin2_36_1_68: p_r1_g68_h32_t36 - x_r1_g32 <= 0
 lin3_36_1_68: p_r1_g68_h32_t36 - x_r1_g68 - x_r1_g32 >= -1
 lin1_36_1_84: p_r1_g84_h48_t36 - x_r1_g84 <= 0
 lin2_36_1_84: p_r1_g84_h48_t36 - x_r1_g48 <= 0
 lin3_36_1_84: p_r1_g84_h48_t36 - x_r1_g84 - x_r1_g48 >= -1
 lin1_36_1_104: p_r1_g104_h68_t36 - x_r1_g104 <= 0
 lin2_36_1_104: p_r1_g104_h68_t36 - x_r1_g68 <= 0
 lin3_36_1_104: p_r1_g104_h68_t36 - x_r1_g104 - x_r1_g68 >= -1
 lin1_36_1_124: p_r1_g124_h88_t36 - x_r1_g124 <= 0
 lin2_36_1_124: p_r1_g124_h88_t36 - x_r1_g88 <= 0
 lin3_36_1_124: p_r1_g124_h88_t36 - x_r1_g124 - x_r1_g88 >= -1
 lin1_36_1_129: p_r1_g129_h93_t36 - x_r1_g129 <= 0
 lin2_36_1_129: p_r1_g129_h93_t36 - x_r1_g93 <= 0
 lin3_36_1_129: p_r1_g129_h93_t36 - x_r1_g129 - x_r1_g93 >= -1
 lin1_36_1_135: p_r1_g135_h99_t36 - x_r1_g135 <= 0
 lin2_36_1_135: p_r1_g135_h99_t36 - x_r1_g99 <= 0
 lin3_36_1_135: p_r1_g135_h99_t36 - x_r1_g135 - x_r1_g99 >= -1
 lin1_36_1_140: p_r1_g140_h104_t36 - x_r1_g140 <= 0
 lin2_36_1_140: p_r1_g140_h104_t36 - x_r1_g104 <= 0
 lin3_36_1_140: p_r1_g140_h104_t36 - x_r1_g140 - x_r1_g104 >= -1
 lin1_36_1_163: p_r1_g163_h127_t36 - x_r1_g163 <= 0
 lin2_36_1_163: p_r1_g163_h127_t36 - x_r1_g127 <= 0
 lin3_36_1_163: p_r1_g163_h127_t36 - x_r1_g163 - x_r1_g127 >= -1
 lin1_36_2_51: p_r2_g51_h15_t36 - x_r2_g51 <= 0
 lin2_36_2_51: p_r2_g51_h15_t36 - x_r2_g15 <= 0
 lin3_36_2_51: p_r2_g51_h15_t36 - x_r2_g51 - x_r2_g15 >= -1
 lin1_36_2_91: p_r2_g91_h55_t36 - x_r2_g91 <= 0
 lin2_36_2_91: p_r2_g91_h55_t36 - x_r2_g55 <= 0
 lin3_36_2_91: p_r2_g91_h55_t36 - x_r2_g91 - x_r2_g55 >= -1
 lin1_36_2_121: p_r2_g121_h85_t36 - x_r2_g121 <= 0
 lin2_36_2_121: p_r2_g121_h85_t36 - x_r2_g85 <= 0
 lin3_36_2_121: p_r2_g121_h85_t36 - x_r2_g121 - x_r2_g85 >= -1
 lin1_36_2_141: p_r2_g141_h105_t36 - x_r2_g141 <= 0
 lin2_36_2_141: p_r2_g141_h105_t36 - x_r2_g105 <= 0
 lin3_36_2_141: p_r2_g141_h105_t36 - x_r2_g141 - x_r2_g105 >= -1
 lin1_36_2_147: p_r2_g147_h111_t36 - x_r2_g147 <= 0
 lin2_36_2_147: p_r2_g147_h111_t36 - x_r2_g111 <= 0
 lin3_36_2_147: p_r2_g147_h111_t36 - x_r2_g147 - x_r2_g111 >= -1
 lin1_36_2_157: p_r2_g157_h121_t36 - x_r2_g157 <= 0
 lin2_36_2_157: p_r2_g157_h121_t36 - x_r2_g121 <= 0
 lin3_36_2_157: p_r2_g157_h121_t36 - x_r2_g157 - x_r2_g121 >= -1
 lin1_36_2_162: p_r2_g162_h126_t36 - x_r2_g162 <= 0
 lin2_36_2_162: p_r2_g162_h126_t36 - x_r2_g126 <= 0
 lin3_36_2_162: p_r2_g162_h126_t36 - x_r2_g162 - x_r2_g126 >= -1
 lin1_36_3_20: p_r3_g20_h151_t36 - x_r3_g20 <= 0
 lin2_36_3_20: p_r3_g20_h151_t36 - x_r3_g151 <= 0
 lin3_36_3_20: p_r3_g20_h151_t36 - x_r3_g20 - x_r3_g151 >= -1
 lin1_36_3_22: p_r3_g22_h153_t36 - x_r3_g22 <= 0
 lin2_36_3_22: p_r3_g22_h153_t36 - x_r3_g153 <= 0
 lin3_36_3_22: p_r3_g22_h153_t36 - x_r3_g22 - x_r3_g153 >= -1
 lin1_36_3_23: p_r3_g23_h154_t36 - x_r3_g23 <= 0
 lin2_36_3_23: p_r3_g23_h154_t36 - x_r3_g154 <= 0
 lin3_36_3_23: p_r3_g23_h154_t36 - x_r3_g23 - x_r3_g154 >= -1
 lin1_36_3_25: p_r3_g25_h156_t36 - x_r3_g25 <= 0
 lin2_36_3_25: p_r3_g25_h156_t36 - x_r3_g156 <= 0
 lin3_36_3_25: p_r3_g25_h156_t36 - x_r3_g25 - x_r3_g156 >= -1
 lin1_36_3_60: p_r3_g60_h24_t36 - x_r3_g60 <= 0
 lin2_36_3_60: p_r3_g60_h24_t36 - x_r3_g24 <= 0
 lin3_36_3_60: p_r3_g60_h24_t36 - x_r3_g60 - x_r3_g24 >= -1
 lin1_36_3_62: p_r3_g62_h26_t36 - x_r3_g62 <= 0
 lin2_36_3_62: p_r3_g62_h26_t36 - x_r3_g26 <= 0
 lin3_36_3_62: p_r3_g62_h26_t36 - x_r3_g62 - x_r3_g26 >= -1
 lin1_36_3_68: p_r3_g68_h32_t36 - x_r3_g68 <= 0
 lin2_36_3_68: p_r3_g68_h32_t36 - x_r3_g32 <= 0
 lin3_36_3_68: p_r3_g68_h32_t36 - x_r3_g68 - x_r3_g32 >= -1
 lin1_36_3_87: p_r3_g87_h51_t36 - x_r3_g87 <= 0
 lin2_36_3_87: p_r3_g87_h51_t36 - x_r3_g51 <= 0
 lin3_36_3_87: p_r3_g87_h51_t36 - x_r3_g87 - x_r3_g51 >= -1
 lin1_36_3_96: p_r3_g96_h60_t36 - x_r3_g96 <= 0
 lin2_36_3_96: p_r3_g96_h60_t36 - x_r3_g60 <= 0
 lin3_36_3_96: p_r3_g96_h60_t36 - x_r3_g96 - x_r3_g60 >= -1
 lin1_36_3_151: p_r3_g151_h115_t36 - x_r3_g151 <= 0
 lin2_36_3_151: p_r3_g151_h115_t36 - x_r3_g115 <= 0
 lin3_36_3_151: p_r3_g151_h115_t36 - x_r3_g151 - x_r3_g115 >= -1
 lin1_36_3_154: p_r3_g154_h118_t36 - x_r3_g154 <= 0
 lin2_36_3_154: p_r3_g154_h118_t36 - x_r3_g118 <= 0
 lin3_36_3_154: p_r3_g154_h118_t36 - x_r3_g154 - x_r3_g118 >= -1
 defect_36: 1 d_36 - 2 x_r0_g1 - 1 x_r0_g4 - 1 x_r0_g7 - 1 x_r0_g10 - 1 x_r0_g12 - 1 x_r0_g15 - 1 x_r0_g29 - 1 x_r0_g39 - 1 x_r0_g56 - 1 x_r0_g65 - 2 x_r0_g66 - 1 x_r0_g72 - 1 x_r0_g74 - 1 x_r0_g79 - 1 x_r0_g85 - 1 x_r0_g90 - 1 x_r0_g91 - 2 x_r0_g103 - 1 x_r0_g119 - 1 x_r0_g136 - 1 x_r0_g159 - 2 x_r1_g1 - 1 x_r1_g21 - 1 x_r1_g25 - 2 x_r1_g26 - 2 x_r1_g29 - 1 x_r1_g34 - 1 x_r1_g35 - 1 x_r1_g42 - 1 x_r1_g56 - 1 x_r1_g60 - 1 x_r1_g64 - 1 x_r1_g74 - 1 x_r1_g77 - 1 x_r1_g82 - 1 x_r1_g85 - 1 x_r1_g93 - 1 x_r1_g94 - 1 x_r1_g124 - 1 x_r1_g127 - 1 x_r1_g143 - 1 x_r1_g145 - 1 x_r1_g155 - 1 x_r1_g162 - 1 x_r2_g13 - 1 x_r2_g21 - 2 x_r2_g27 - 2 x_r2_g32 - 1 x_r2_g34 - 1 x_r2_g40 - 1 x_r2_g44 - 1 x_r2_g58 - 1 x_r2_g61 - 1 x_r2_g74 - 1 x_r2_g83 - 1 x_r2_g85 - 1 x_r2_g86 - 1 x_r2_g91 - 1 x_r2_g93 - 2 x_r2_g101 - 1 x_r2_g103 - 2 x_r2_g104 - 1 x_r2_g111 - 1 x_r2_g112 - 2 x_r2_g114 - 1 x_r2_g124 - 1 x_r2_g126 - 1 x_r2_g135 - 1 x_r2_g157 - 1 x_r2_g162 - 1 x_r3_g5 - 1 x_r3_g23 - 1 x_r3_g25 - 1 x_r3_g31 - 1 x_r3_g32 - 2 x_r3_g38 - 1 x_r3_g39 - 2 x_r3_g42 - 2 x_r3_g45 - 1 x_r3_g48 - 2 x_r3_g53 - 1 x_r3_g62 - 1 x_r3_g66 - 1 x_r3_g73 - 1 x_r3_g77 - 2 x_r3_g83 - 1 x_r3_g87 - 1 x_r3_g124 - 1 x_r3_g125 - 1 x_r3_g149 - 2 x_r3_g158 - 1 p_r0_g4_h135_t36 - 1 p_r0_g5_h136_t36 - 1 p_r0_g11_h142_t36 - 1 p_r0_g12_h143_t36 - 1 p_r0_g19_h150_t36 - 1 p_r0_g47_h11_t36 - 1 p_r0_g51_h15_t36 - 1 p_r0_g53_h17_t36 - 1 p_r0_g55_h19_t36 - 1 p_r0_g65_h29_t36 - 1 p_r0_g89_h53_t36 - 1 p_r0_g91_h55_t36 - 1 p_r0_g93_h57_t36 - 1 p_r0_g108_h72_t36 - 1 p_r0_g126_h90_t36 - 1 p_r1_g32_h163_t36 - 1 p_r1_g42_h6_t36 - 1 p_r1_g61_h25_t36 - 1 p_r1_g68_h32_t36 - 1 p_r1_g84_h48_t36 - 1 p_r1_g104_h68_t36 - 1 p_r1_g124_h88_t36 - 1 p_r1_g129_h93_t36 - 1 p_r1_g135_h99_t36 - 1 p_r1_g140_h104_t36 - 1 p_r1_g163_h127_t36 - 1 p_r2_g51_h15_t36 - 1 p_r2_g91_h55_t36 - 1 p_r2_g121_h85_t36 - 1 p_r2_g141_h105_t36 - 1 p_r2_g147_h111_t36 - 1 p_r2_g157_h121_t36 - 1 p_r2_g162_h126_t36 - 1 p_r3_g20_h151_t36 - 1 p_r3_g22_h153_t36 - 1 p_r3_g23_h154_t36 - 1 p_r3_g25_h156_t36 - 1 p_r3_g60_h24_t36 - 1 p_r3_g62_h26_t36 - 1 p_r3_g68_h32_t36 - 1 p_r3_g87_h51_t36 - 1 p_r3_g96_h60_t36 - 1 p_r3_g151_h115_t36 - 1 p_r3_g154_h118_t36 = -79
 abs_pos_36: d_36 - u_36 <= 0
 abs_neg_36: - d_36 - u_36 <= 0
 max_def_36: u_36 - M <= 0
 cap_36: u_36 <= 2
 lin1_40_0_15: p_r0_g15_h142_t40 - x_r0_g15 <= 0
 lin2_40_0_15: p_r0_g15_h142_t40 - x_r0_g142 <= 0
 lin3_40_0_15: p_r0_g15_h142_t40 - x_r0_g15 - x_r0_g142 >= -1
 lin1_40_0_47: p_r0_g47_h7_t40 - x_r0_g47 <= 0
 lin2_40_0_47: p_r0_g47_h7_t40 - x_r0_g7 <= 0
 lin3_40_0_47: p_r0_g47_h7_t40 - x_r0_g47 - x_r0_g7 >= -1
 lin1_40_0_51: p_r0_g51_h11_t40 - x_r0_g51 <= 0
 lin2_40_0_51: p_r0_g51_h11_t40 - x_r0_g11 <= 0
 lin3_40_0_51: p_r0_g51_h11_t40 - x_r0_g51 - x_r0_g11 >= -1
 lin1_40_0_55: p_r0_g55_h15_t40 - x_r0_g55 <= 0
 lin2_40_0_55: p_r0_g55_h15_t40 - x_r0_g15 <= 0
 lin3_40_0_55: p_r0_g55_h15_t40 - x_r0_g55 - x_r0_g15 >= -1
 lin1_40_0_57: p_r0_g57_h17_t40 - x_r0_g57 <= 0
 lin2_40_0_57: p_r0_g57_h17_t40 - x_r0_g17 <= 0
 lin3_40_0_57: p_r0_g57_h17_t40 - x_r0_g57 - x_r0_g17 >= -1
 lin1_40_0_79: p_r0_g79_h39_t40 - x_r0_g79 <= 0
 lin2_40_0_79: p_r0_g79_h39_t40 - x_r0_g39 <= 0
 lin3_40_0_79: p_r0_g79_h39_t40 - x_r0_g79 - x_r0_g39 >= -1
 lin1_40_0_91: p_r0_g91_h51_t40 - x_r0_g91 <= 0
 lin2_40_0_91: p_r0_g91_h51_t40 - x_r0_g51 <= 0
 lin3_40_0_91: p_r0_g91_h51_t40 - x_r0_g91 - x_r0_g51 >= -1
 lin1_40_0_93: p_r0_g93_h53_t40 - x_r0_g93 <= 0
 lin2_40_0_93: p_r0_g93_h53_t40 - x_r0_g53 <= 0
 lin3_40_0_93: p_r0_g93_h53_t40 - x_r0_g93 - x_r0_g53 >= -1
 lin1_40_0_112: p_r0_g112_h72_t40 - x_r0_g112 <= 0
 lin2_40_0_112: p_r0_g112_h72_t40 - x_r0_g72 <= 0
 lin3_40_0_112: p_r0_g112_h72_t40 - x_r0_g112 - x_r0_g72 >= -1
 lin1_40_0_119: p_r0_g119_h79_t40 - x_r0_g119 <= 0
 lin2_40_0_119: p_r0_g119_h79_t40 - x_r0_g79 <= 0
 lin3_40_0_119: p_r0_g119_h79_t40 - x_r0_g119 - x_r0_g79 >= -1
 lin1_40_0_143: p_r0_g143_h103_t40 - x_r0_g143 <= 0
 lin2_40_0_143: p_r0_g143_h103_t40 - x_r0_g103 <= 0
 lin3_40_0_143: p_r0_g143_h103_t40 - x_r0_g143 - x_r0_g103 >= -1
 lin1_40_0_159: p_r0_g159_h119_t40 - x_r0_g159 <= 0
 lin2_40_0_159: p_r0_g159_h119_t40 - x_r0_g119 <= 0
 lin3_40_0_159: p_r0_g159_h119_t40 - x_r0_g159 - x_r0_g119 >= -1
 lin1_40_1_34: p_r1_g34_h161_t40 - x_r1_g34 <= 0
 lin2_40_1_34: p_r1_g34_h161_t40 - x_r1_g161 <= 0
 lin3_40_1_34: p_r1_g34_h161_t40 - x_r1_g34 - x_r1_g161 >= -1
 lin1_40_1_35: p_r1_g35_h162_t40 - x_r1_g35 <= 0
 lin2_40_1_35: p_r1_g35_h162_t40 - x_r1_g162 <= 0
 lin3_40_1_35: p_r1_g35_h162_t40 - x_r1_g35 - x_r1_g162 >= -1
 lin1_40_1_36: p_r1_g36_h163_t40 - x_r1_g36 <= 0
 lin2_40_1_36: p_r1_g36_h163_t40 - x_r1_g163 <= 0
 lin3_40_1_36: p_r1_g36_h163_t40 - x_r1_g36 - x_r1_g163 >= -1
 lin1_40_1_61: p_r1_g61_h21_t40 - x_r1_g61 <= 0
 lin2_40_1_61: p_r1_g61_h21_t40 - x_r1_g21 <= 0
 lin3_40_1_61: p_r1_g61_h21_t40 - x_r1_g61 - x_r1_g21 >= -1
 lin1_40_1_69: p_r1_g69_h29_t40 - x_r1_g69 <= 0
 lin2_40_1_69: p_r1_g69_h29_t40 - x_r1_g29 <= 0
 lin3_40_1_69: p_r1_g69_h29_t40 - x_r1_g69 - x_r1_g29 >= -1
 lin1_40_1_74: p_r1_g74_h34_t40 - x_r1_g74 <= 0
 lin2_40_1_74: p_r1_g74_h34_t40 - x_r1_g34 <= 0
 lin3_40_1_74: p_r1_g74_h34_t40 - x_r1_g74 - x_r1_g34 >= -1
 lin1_40_1_82: p_r1_g82_h42_t40 - x_r1_g82 <= 0
 lin2_40_1_82: p_r1_g82_h42_t40 - x_r1_g42 <= 0
 lin3_40_1_82: p_r1_g82_h42_t40 - x_r1_g82 - x_r1_g42 >= -1
 lin1_40_1_88: p_r1_g88_h48_t40 - x_r1_g88 <= 0
 lin2_40_1_88: p_r1_g88_h48_t40 - x_r1_g48 <= 0
 lin3_40_1_88: p_r1_g88_h48_t40 - x_r1_g88 - x_r1_g48 >= -1
 lin1_40_1_104: p_r1_g104_h64_t40 - x_r1_g104 <= 0
 lin2_40_1_104: p_r1_g104_h64_t40 - x_r1_g64 <= 0
 lin3_40_1_104: p_r1_g104_h64_t40 - x_r1_g104 - x_r1_g64 >= -1
 lin1_40_1_124: p_r1_g124_h84_t40 - x_r1_g124 <= 0
 lin2_40_1_124: p_r1_g124_h84_t40 - x_r1_g84 <= 0
 lin3_40_1_124: p_r1_g124_h84_t40 - x_r1_g124 - x_r1_g84 >= -1
 lin1_40_2_35: p_r2_g35_h162_t40 - x_r2_g35 <= 0
 lin2_40_2_35: p_r2_g35_h162_t40 - x_r2_g162 <= 0
 lin3_40_2_35: p_r2_g35_h162_t40 - x_r2_g35 - x_r2_g162 >= -1
 lin1_40_2_51: p_r2_g51_h11_t40 - x_r2_g51 <= 0
 lin2_40_2_51: p_r2_g51_h11_t40 - x_r2_g11 <= 0
 lin3_40_2_51: p_r2_g51_h11_t40 - x_r2_g51 - x_r2_g11 >= -1
 lin1_40_2_55: p_r2_g55_h15_t40 - x_r2_g55 <= 0
 lin2_40_2_55: p_r2_g55_h15_t40 - x_r2_g15 <= 0
 lin3_40_2_55: p_r2_g55_h15_t40 - x_r2_g55 - x_r2_g15 >= -1
 lin1_40_2_61: p_r2_g61_h21_t40 - x_r2_g61 <= 0
 lin2_40_2_61: p_r2_g61_h21_t40 - x_r2_g21 <= 0
 lin3_40_2_61: p_r2_g61_h21_t40 - x_r2_g61 - x_r2_g21 >= -1
 lin1_40_2_74: p_r2_g74_h34_t40 - x_r2_g74 <= 0
 lin2_40_2_74: p_r2_g74_h34_t40 - x_r2_g34 <= 0
 lin3_40_2_74: p_r2_g74_h34_t40 - x_r2_g74 - x_r2_g34 >= -1
 lin1_40_2_85: p_r2_g85_h45_t40 - x_r2_g85 <= 0
 lin2_40_2_85: p_r2_g85_h45_t40 - x_r2_g45 <= 0
 lin3_40_2_85: p_r2_g85_h45_t40 - x_r2_g85 - x_r2_g45 >= -1
 lin1_40_2_91: p_r2_g91_h51_t40 - x_r2_g91 <= 0
 lin2_40_2_91: p_r2_g91_h51_t40 - x_r2_g51 <= 0
 lin3_40_2_91: p_r2_g91_h51_t40 - x_r2_g91 - x_r2_g51 >= -1
 lin1_40_2_95: p_r2_g95_h55_t40 - x_r2_g95 <= 0
 lin2_40_2_95: p_r2_g95_h55_t40 - x_r2_g55 <= 0
 lin3_40_2_95: p_r2_g95_h55_t40 - x_r2_g95 - x_r2_g55 >= -1
 lin1_40_2_101: p_r2_g101_h61_t40 - x_r2_g101 <= 0
 lin2_40_2_101: p_r2_g101_h61_t40 - x_r2_g61 <= 0
 lin3_40_2_101: p_r2_g101_h61_t40 - x_r2_g101 - x_r2_g61 >= -1
 lin1_40_2_114: p_r2_g114_h74_t40 - x_r2_g114 <= 0
 lin2_40_2_114: p_r2_g114_h74_t40 - x_r2_g74 <= 0
 lin3_40_2_114: p_r2_g114_h74_t40 - x_r2_g114 - x_r2_g74 >= -1
 lin1_40_2_126: p_r2_g126_h86_t40 - x_r2_g126 <= 0
 lin2_40_2_126: p_r2_g126_h86_t40 - x_r2_g86 <= 0
 lin3_40_2_126: p_r2_g126_h86_t40 - x_r2_g126 - x_r2_g86 >= -1
 lin1_40_2_133: p_r2_g133_h93_t40 - x_r2_g133 <= 0
 lin2_40_2_133: p_r2_g133_h93_t40 - x_r2_g93 <= 0
 lin3_40_2_133: p_r2_g133_h93_t40 - x_r2_g133 - x_r2_g93 >= -1
 lin1_40_2_135: p_r2_g135_h95_t40 - x_r2_g135 <= 0
 lin2_40_2_135: p_r2_g135_h95_t40 - x_r2_g95 <= 0
 lin3_40_2_135: p_r2_g135_h95_t40 - x_r2_g135 - x_r2_g95 >= -1
 lin1_40_2_141: p_r2_g141_h101_t40 - x_r2_g141 <= 0
 lin2_40_2_141: p_r2_g141_h101_t40 - x_r2_g101 <= 0
 lin3_40_2_141: p_r2_g141_h101_t40 - x_r2_g141 - x_r2_g101 >= -1
 lin1_40_3_22: p_r3_g22_h149_t40 - x_r3_g22 <= 0
 lin2_40_3_22: p_r3_g22_h149_t40 - x_r3_g149 <= 0
 lin3_40_3_22: p_r3_g22_h149_t40 - x_r3_g22 - x_r3_g149 >= -1
 lin1_40_3_24: p_r3_g24_h151_t40 - x_r3_g24 <= 0
 lin2_40_3_24: p_r3_g24_h151_t40 - x_r3_g151 <= 0
 lin3_40_3_24: p_r3_g24_h151_t40 - x_r3_g24 - x_r3_g151 >= -1
 lin1_40_3_26: p_r3_g26_h153_t40 - x_r3_g26 <= 0
 lin2_40_3_26: p_r3_g26_h153_t40 - x_r3_g153 <= 0
 lin3_40_3_26: p_r3_g26_h153_t40 - x_r3_g26 - x_r3_g153 >= -1
 lin1_40_3_31: p_r3_g31_h158_t40 - x_r3_g31 <= 0
 lin2_40_3_31: p_r3_g31_h158_t40 - x_r3_g158 <= 0
 lin3_40_3_31: p_r3_g31_h158_t40 - x_r3_g31 - x_r3_g158 >= -1
 lin1_40_3_39: p_r3_g39_h166_t40 - x_r3_g39 <= 0
 lin2_40_3_39: p_r3_g39_h166_t40 - x_r3_g166 <= 0
 lin3_40_3_39: p_r3_g39_h166_t40 - x_r3_g39 - x_r3_g166 >= -1
 lin1_40_3_45: p_r3_g45_h5_t40 - x_r3_g45 <= 0
 lin2_40_3_45: p_r3_g45_h5_t40 - x_r3_g5 <= 0
 lin3_40_3_45: p_r3_g45_h5_t40 - x_r3_g45 - x_r3_g5 >= -1
 lin1_40_3_60: p_r3_g60_h20_t40 - x_r3_g60 <= 0
 lin2_40_3_60: p_r3_g60_h20_t40 - x_r3_g20 <= 0
 lin3_40_3_60: p_r3_g60_h20_t40 - x_r3_g60 - x_r3_g20 >= -1
 lin1_40_3_62: p_r3_g62_h22_t40 - x_r3_g62 <= 0
 lin2_40_3_62: p_r3_g62_h22_t40 - x_r3_g22 <= 0
 lin3_40_3_62: p_r3_g62_h22_t40 - x_r3_g62 - x_r3_g22 >= -1
 lin1_40_3_66: p_r3_g66_h26_t40 - x_r3_g66 <= 0
 lin2_40_3_66: p_r3_g66_h26_t40 - x_r3_g26 <= 0
 lin3_40_3_66: p_r3_g66_h26_t40 - x_r3_g66 - x_r3_g26 >= -1
 lin1_40_3_158: p_r3_g158_h118_t40 - x_r3_g158 <= 0
 lin2_40_3_158: p_r3_g158_h118_t40 - x_r3_g118 <= 0
 lin3_40_3_158: p_r3_g158_h118_t40 - x_r3_g158 - x_r3_g118 >= -1
 defect_40: 1 d_40 - 1 x_r0_g4 - 2 x_r0_g5 - 1 x_r0_g10 - 2 x_r0_g12 - 2 x_r0_g19 - 1 x_r0_g53 - 1 x_r0_g65 - 1 x_r0_g74 - 1 x_r0_g85 - 1 x_r0_g89 - 1 x_r0_g91 - 1 x_r0_g103 - 1 x_r0_g108 - 1 x_r0_g112 - 2 x_r0_g140 - 1 x_r0_g142 - 1 x_r1_g1 - 1 x_r1_g6 - 1 x_r1_g25 - 1 x_r1_g26 - 1 x_r1_g29 - 1 x_r1_g32 - 1 x_r1_g56 - 2 x_r1_g60 - 1 x_r1_g68 - 1 x_r1_g69 - 1 x_r1_g74 - 1 x_r1_g77 - 1 x_r1_g84 - 1 x_r1_g88 - 1 x_r1_g93 - 1 x_r1_g124 - 1 x_r1_g127 - 1 x_r1_g129 - 1 x_r1_g135 - 2 x_r1_g138 - 1 x_r1_g140 - 1 x_r1_g143 - 1 x_r1_g145 - 1 x_r1_g155 - 1 x_r1_g163 - 1 x_r2_g13 - 1 x_r2_g21 - 1 x_r2_g34 - 1 x_r2_g35 - 2 x_r2_g40 - 1 x_r2_g44 - 2 x_r2_g58 - 1 x_r2_g83 - 1 x_r2_g86 - 1 x_r2_g103 - 1 x_r2_g104 - 1 x_r2_g105 - 1 x_r2_g111 - 1 x_r2_g112 - 1 x_r2_g121 - 1 x_r2_g141 - 1 x_r2_g147 - 1 x_r2_g157 - 1 x_r2_g162 - 2 x_r3_g21 - 1 x_r3_g25 - 1 x_r3_g34 - 1 x_r3_g38 - 1 x_r3_g42 - 1 x_r3_g48 - 1 x_r3_g53 - 1 x_r3_g66 - 2 x_r3_g68 - 1 x_r3_g77 - 2 x_r3_g83 - 2 x_r3_g87 - 1 x_r3_g115 - 1 x_r3_g118 - 1 x_r3_g151 - 1 x_r3_g154 - 1 p_r0_g15_h142_t40 - 1 p_r0_g47_h7_t40 - 1 p_r0_g51_h11_t40 - 1 p_r0_g55_h15_t40 - 1 p_r0_g57_h17_t40 - 1 p_r0_g79_h39_t40 - 1 p_r0_g91_h51_t40 - 1 p_r0_g93_h53_t40 - 1 p_r0_g112_h72_t40 - 1 p_r0_g119_h79_t40 - 1 p_r0_g143_h103_t40 - 1 p_r0_g159_h119_t40 - 1 p_r1_g34_h161_t40 - 1 p_r1_g35_h162_t40 - 1 p_r1_g36_h163_t40 - 1 p_r1_g61_h21_t40 - 1 p_r1_g69_h29_t40 - 1 p_r1_g74_h34_t40 - 1 p_r1_g82_h42_t40 - 1 p_r1_g88_h48_t40 - 1 p_r1_g104_h64_t40 - 1 p_r1_g124_h84_t40 - 1 p_r2_g35_h162_t40 - 1 p_r2_g51_h11_t40 - 1 p_r2_g55_h15_t40 - 1 p_r2_g61_h21_t40 - 1 p_r2_g74_h34_t40 - 1 p_r2_g85_h45_t40 - 1 p_r2_g91_h51_t40 - 1 p_r2_g95_h55_t40 - 1 p_r2_g101_h61_t40 - 1 p_r2_g114_h74_t40 - 1 p_r2_g126_h86_t40 - 1 p_r2_g133_h93_t40 - 1 p_r2_g135_h95_t40 - 1 p_r2_g141_h101_t40 - 1 p_r3_g22_h149_t40 - 1 p_r3_g24_h151_t40 - 1 p_r3_g26_h153_t40 - 1 p_r3_g31_h158_t40 - 1 p_r3_g39_h166_t40 - 1 p_r3_g45_h5_t40 - 1 p_r3_g60_h20_t40 - 1 p_r3_g62_h22_t40 - 1 p_r3_g66_h26_t40 - 1 p_r3_g158_h118_t40 = -71
 abs_pos_40: d_40 - u_40 <= 0
 abs_neg_40: - d_40 - u_40 <= 0
 max_def_40: u_40 - M <= 0
 cap_40: u_40 <= 2
 lin1_44_0_12: p_r0_g12_h135_t44 - x_r0_g12 <= 0
 lin2_44_0_12: p_r0_g12_h135_t44 - x_r0_g135 <= 0
 lin3_44_0_12: p_r0_g12_h135_t44 - x_r0_g12 - x_r0_g135 >= -1
 lin1_44_0_17: p_r0_g17_h140_t44 - x_r0_g17 <= 0
 lin2_44_0_17: p_r0_g17_h140_t44 - x_r0_g140 <= 0
 lin3_44_0_17: p_r0_g17_h140_t44 - x_r0_g17 - x_r0_g140 >= -1
 lin1_44_0_19: p_r0_g19_h142_t44 - x_r0_g19 <= 0
 lin2_44_0_19: p_r0_g19_h142_t44 - x_r0_g142 <= 0
 lin3_44_0_19: p_r0_g19_h142_t44 - x_r0_g19 - x_r0_g142 >= -1
 lin1_44_0_51: p_r0_g51_h7_t44 - x_r0_g51 <= 0
 lin2_44_0_51: p_r0_g51_h7_t44 - x_r0_g7 <= 0
 lin3_44_0_51: p_r0_g51_h7_t44 - x_r0_g51 - x_r0_g7 >= -1
 lin1_44_0_55: p_r0_g55_h11_t44 - x_r0_g55 <= 0
 lin2_44_0_55: p_r0_g55_h11_t44 - x_r0_g11 <= 0
 lin3_44_0_55: p_r0_g55_h11_t44 - x_r0_g55 - x_r0_g11 >= -1
 lin1_44_0_56: p_r0_g56_h12_t44 - x_r0_g56 <= 0
 lin2_44_0_56: p_r0_g56_h12_t44 - x_r0_g12 <= 0
 lin3_44_0_56: p_r0_g56_h12_t44 - x_r0_g56 - x_r0_g12 >= -1
 lin1_44_0_91: p_r0_g91_h47_t44 - x_r0_g91 <= 0
 lin2_44_0_91: p_r0_g91_h47_t44 - x_r0_g47 <= 0
 lin3_44_0_91: p_r0_g91_h47_t44 - x_r0_g91 - x_r0_g47 >= -1
 lin1_44_0_135: p_r0_g135_h91_t44 - x_r0_g135 <= 0
 lin2_44_0_135: p_r0_g135_h91_t44 - x_r0_g91 <= 0
 lin3_44_0_135: p_r0_g135_h91_t44 - x_r0_g135 - x_r0_g91 >= -1
 lin1_44_1_1: p_r1_g1_h124_t44 - x_r1_g1 <= 0
 lin2_44_1_1: p_r1_g1_h124_t44 - x_r1_g124 <= 0
 lin3_44_1_1: p_r1_g1_h124_t44 - x_r1_g1 - x_r1_g124 >= -1
 lin1_44_1_6: p_r1_g6_h129_t44 - x_r1_g6 <= 0
 lin2_44_1_6: p_r1_g6_h129_t44 - x_r1_g129 <= 0
 lin3_44_1_6: p_r1_g6_h129_t44 - x_r1_g6 - x_r1_g129 >= -1
 lin1_44_1_32: p_r1_g32_h155_t44 - x_r1_g32 <= 0
 lin2_44_1_32: p_r1_g32_h155_t44 - x_r1_g155 <= 0
 lin3_44_1_32: p_r1_g32_h155_t44 - x_r1_g32 - x_r1_g155 >= -1
 lin1_44_1_69: p_r1_g69_h25_t44 - x_r1_g69 <= 0
 lin2_44_1_69: p_r1_g69_h25_t44 - x_r1_g25 <= 0
 lin3_44_1_69: p_r1_g69_h25_t44 - x_r1_g69 - x_r1_g25 >= -1
 lin1_44_1_104: p_r1_g104_h60_t44 - x_r1_g104 <= 0
 lin2_44_1_104: p_r1_g104_h60_t44 - x_r1_g60 <= 0
 lin3_44_1_104: p_r1_g104_h60_t44 - x_r1_g104 - x_r1_g60 >= -1
 lin1_44_1_129: p_r1_g129_h85_t44 - x_r1_g129 <= 0
 lin2_44_1_129: p_r1_g129_h85_t44 - x_r1_g85 <= 0
 lin3_44_1_129: p_r1_g129_h85_t44 - x_r1_g129 - x_r1_g85 >= -1
 lin1_44_1_138: p_r1_g138_h94_t44 - x_r1_g138 <= 0
 lin2_44_1_138: p_r1_g138_h94_t44 - x_r1_g94 <= 0
 lin3_44_1_138: p_r1_g138_h94_t44 - x_r1_g138 - x_r1_g94 >= -1
 lin1_44_1_143: p_r1_g143_h99_t44 - x_r1_g143 <= 0
 lin2_44_1_143: p_r1_g143_h99_t44 - x_r1_g99 <= 0
 lin3_44_1_143: p_r1_g143_h99_t44 - x_r1_g143 - x_r1_g99 >= -1
 lin1_44_2_34: p_r2_g34_h157_t44 - x_r2_g34 <= 0
 lin2_44_2_34: p_r2_g34_h157_t44 - x_r2_g157 <= 0
 lin3_44_2_34: p_r2_g34_h157_t44 - x_r2_g34 - x_r2_g157 >= -1
 lin1_44_2_55: p_r2_g55_h11_t44 - x_r2_g55 <= 0
 lin2_44_2_55: p_r2_g55_h11_t44 - x_r2_g11 <= 0
 lin3_44_2_55: p_r2_g55_h11_t44 - x_r2_g55 - x_r2_g11 >= -1
 lin1_44_2_95: p_r2_g95_h51_t44 - x_r2_g95 <= 0
 lin2_44_2_95: p_r2_g95_h51_t44 - x_r2_g51 <= 0
 lin3_44_2_95: p_r2_g95_h51_t44 - x_r2_g95 - x_r2_g51 >= -1
 lin1_44_2_102: p_r2_g102_h58_t44 - x_r2_g102 <= 0
 lin2_44_2_102: p_r2_g102_h58_t44 - x_r2_g58 <= 0
 lin3_44_2_102: p_r2_g102_h58_t44 - x_r2_g102 - x_r2_g58 >= -1
 lin1_44_2_105: p_r2_g105_h61_t44 - x_r2_g105 <= 0
 lin2_44_2_105: p_r2_g105_h61_t44 - x_r2_g61 <= 0
 lin3_44_2_105: p_r2_g105_h61_t44 - x_r2_g105 - x_r2_g61 >= -1
 lin1_44_2_135: p_r2_g135_h91_t44 - x_r2_g135 <= 0
 lin2_44_2_135: p_r2_g135_h91_t44 - x_r2_g91 <= 0
 lin3_44_2_135: p_r2_g135_h91_t44 - x_r2_g135 - x_r2_g91 >= -1
 lin1_44_2_147: p_r2_g147_h103_t44 - x_r2_g147 <= 0
 lin2_44_2_147: p_r2_g147_h103_t44 - x_r2_g103 <= 0
 lin3_44_2_147: p_r2_g147_h103_t44 - x_r2_g147 - x_r2_g103 >= -1
 lin1_44_3_26: p_r3_g26_h149_t44 - x_r3_g26 <= 0
 lin2_44_3_26: p_r3_g26_h149_t44 - x_r3_g149 <= 0
 lin3_44_3_26: p_r3_g26_h149_t44 - x_r3_g26 - x_r3_g149 >= -1
 lin1_44_3_31: p_r3_g31_h154_t44 - x_r3_g31 <= 0
 lin2_44_3_31: p_r3_g31_h154_t44 - x_r3_g154 <= 0
 lin3_44_3_31: p_r3_g31_h154_t44 - x_r3_g31 - x_r3_g154 >= -1
 lin1_44_3_66: p_r3_g66_h22_t44 - x_r3_g66 <= 0
 lin2_44_3_66: p_r3_g66_h22_t44 - x_r3_g22 <= 0
 lin3_44_3_66: p_r3_g66_h22_t44 - x_r3_g66 - x_r3_g22 >= -1
 lin1_44_3_68: p_r3_g68_h24_t44 - x_r3_g68 <= 0
 lin2_44_3_68: p_r3_g68_h24_t44 - x_r3_g24 <= 0
 lin3_44_3_68: p_r3_g68_h24_t44 - x_r3_g68 - x_r3_g24 >= -1
 lin1_44_3_69: p_r3_g69_h25_t44 - x_r3_g69 <= 0
 lin2_44_3_69: p_r3_g69_h25_t44 - x_r3_g25 <= 0
 lin3_44_3_69: p_r3_g69_h25_t44 - x_r3_g69 - x_r3_g25 >= -1
 lin1_44_3_83: p_r3_g83_h39_t44 - x_r3_g83 <= 0
 lin2_44_3_83: p_r3_g83_h39_t44 - x_r3_g39 <= 0
 lin3_44_3_83: p_r3_g83_h39_t44 - x_r3_g83 - x_r3_g39 >= -1
 defect_44: 1 d_44 - 1 x_r0_g1 - 2 x_r0_g4 - 1 x_r0_g5 - 1 x_r0_g10 - 1 x_r0_g15 - 1 x_r0_g19 - 1 x_r0_g29 - 1 x_r0_g47 - 1 x_r0_g56 - 2 x_r0_g57 - 1 x_r0_g72 - 2 x_r0_g74 - 1 x_r0_g79 - 1 x_r0_g89 - 1 x_r0_g90 - 2 x_r0_g93 - 1 x_r0_g103 - 1 x_r0_g108 - 1 x_r0_g112 - 1 x_r0_g119 - 1 x_r0_g126 - 1 x_r0_g136 - 1 x_r0_g142 - 1 x_r0_g143 - 1 x_r0_g159 - 1 x_r1_g21 - 1 x_r1_g26 - 2 x_r1_g34 - 1 x_r1_g35 - 2 x_r1_g36 - 1 x_r1_g56 - 2 x_r1_g64 - 1 x_r1_g68 - 1 x_r1_g69 - 1 x_r1_g82 - 2 x_r1_g84 - 2 x_r1_g88 - 1 x_r1_g93 - 1 x_r1_g124 - 1 x_r1_g135 - 1 x_r1_g138 - 1 x_r1_g140 - 1 x_r1_g143 - 1 x_r1_g161 - 1 x_r1_g162 - 2 x_r1_g163 - 1 x_r2_g11 - 1 x_r2_g13 - 1 x_r2_g21 - 1 x_r2_g27 - 1 x_r2_g34 - 1 x_r2_g35 - 1 x_r2_g40 - 1 x_r2_g44 - 1 x_r2_g45 - 1 x_r2_g51 - 1 x_r2_g58 - 1 x_r2_g74 - 2 x_r2_g83 - 2 x_r2_g85 - 1 x_r2_g86 - 2 x_r2_g93 - 1 x_r2_g95 - 2 x_r2_g104 - 1 x_r2_g106 - 1 x_r2_g112 - 1 x_r2_g114 - 1 x_r2_g121 - 2 x_r2_g124 - 1 x_r2_g126 - 1 x_r2_g141 - 1 x_r2_g157 - 1 x_r2_g162 - 2 x_r3_g5 - 1 x_r3_g20 - 2 x_r3_g21 - 1 x_r3_g22 - 1 x_r3_g23 - 1 x_r3_g25 - 1 x_r3_g31 - 1 x_r3_g32 - 1 x_r3_g34 - 1 x_r3_g39 - 1 x_r3_g42 - 2 x_r3_g45 - 1 x_r3_g48 - 1 x_r3_g53 - 2 x_r3_g62 - 1 x_r3_g66 - 1 x_r3_g68 - 1 x_r3_g83 - 1 x_r3_g87 - 2 x_r3_g90 - 1 x_r3_g96 - 2 x_r3_g118 - 2 x_r3_g124 - 2 x_r3_g125 - 1 x_r3_g151 - 1 x_r3_g153 - 1 x_r3_g154 - 1 x_r3_g156 - 2 x_r3_g166 - 1 p_r0_g12_h135_t44 - 1 p_r0_g17_h140_t44 - 1 p_r0_g19_h142_t44 - 1 p_r0_g51_h7_t44 - 1 p_r0_g55_h11_t44 - 1 p_r0_g56_h12_t44 - 1 p_r0_g91_h47_t44 - 1 p_r0_g135_h91_t44 - 1 p_r1_g1_h124_t44 - 1 p_r1_g6_h129_t44 - 1 p_r1_g32_h155_t44 - 1 p_r1_g69_h25_t44 - 1 p_r1_g104_h60_t44 - 1 p_r1_g129_h85_t44 - 1 p_r1_g138_h94_t44 - 1 p_r1_g143_h99_t44 - 1 p_r2_g34_h157_t44 - 1 p_r2_g55_h11_t44 - 1 p_r2_g95_h51_t44 - 1 p_r2_g102_h58_t44 - 1 p_r2_g105_h61_t44 - 1 p_r2_g135_h91_t44 - 1 p_r2_g147_h103_t44 - 1 p_r3_g26_h149_t44 - 1 p_r3_g31_h154_t44 - 1 p_r3_g66_h22_t44 - 1 p_r3_g68_h24_t44 - 1 p_r3_g69_h25_t44 - 1 p_r3_g83_h39_t44 = -85
 abs_pos_44: d_44 - u_44 <= 0
 abs_neg_44: - d_44 - u_44 <= 0
 max_def_44: u_44 - M <= 0
 cap_44: u_44 <= 2
 lin1_47_0_15: p_r0_g15_h135_t47 - x_r0_g15 <= 0
 lin2_47_0_15: p_r0_g15_h135_t47 - x_r0_g135 <= 0
 lin3_47_0_15: p_r0_g15_h135_t47 - x_r0_g15 - x_r0_g135 >= -1
 lin1_47_0_39: p_r0_g39_h159_t47 - x_r0_g39 <= 0
 lin2_47_0_39: p_r0_g39_h159_t47 - x_r0_g159 <= 0
 lin3_47_0_39: p_r0_g39_h159_t47 - x_r0_g39 - x_r0_g159 >= -1
 lin1_47_0_51: p_r0_g51_h4_t47 - x_r0_g51 <= 0
 lin2_47_0_51: p_r0_g51_h4_t47 - x_r0_g4 <= 0
 lin3_47_0_51: p_r0_g51_h4_t47 - x_r0_g51 - x_r0_g4 >= -1
 lin1_47_0_57: p_r0_g57_h10_t47 - x_r0_g57 <= 0
 lin2_47_0_57: p_r0_g57_h10_t47 - x_r0_g10 <= 0
 lin3_47_0_57: p_r0_g57_h10_t47 - x_r0_g57 - x_r0_g10 >= -1
 lin1_47_0_66: p_r0_g66_h19_t47 - x_r0_g66 <= 0
 lin2_47_0_66: p_r0_g66_h19_t47 - x_r0_g19 <= 0
 lin3_47_0_66: p_r0_g66_h19_t47 - x_r0_g66 - x_r0_g19 >= -1
 lin1_47_0_103: p_r0_g103_h56_t47 - x_r0_g103 <= 0
 lin2_47_0_103: p_r0_g103_h56_t47 - x_r0_g56 <= 0
 lin3_47_0_103: p_r0_g103_h56_t47 - x_r0_g103 - x_r0_g56 >= -1
 lin1_47_0_112: p_r0_g112_h65_t47 - x_r0_g112 <= 0
 lin2_47_0_112: p_r0_g112_h65_t47 - x_r0_g65 <= 0
 lin3_47_0_112: p_r0_g112_h65_t47 - x_r0_g112 - x_r0_g65 >= -1
 lin1_47_0_119: p_r0_g119_h72_t47 - x_r0_g119 <= 0
 lin2_47_0_119: p_r0_g119_h72_t47 - x_r0_g72 <= 0
 lin3_47_0_119: p_r0_g119_h72_t47 - x_r0_g119 - x_r0_g72 >= -1
 lin1_47_0_126: p_r0_g126_h79_t47 - x_r0_g126 <= 0
 lin2_47_0_126: p_r0_g126_h79_t47 - x_r0_g79 <= 0
 lin3_47_0_126: p_r0_g126_h79_t47 - x_r0_g126 - x_r0_g79 >= -1
 lin1_47_0_136: p_r0_g136_h89_t47 - x_r0_g136 <= 0
 lin2_47_0_136: p_r0_g136_h89_t47 - x_r0_g89 <= 0
 lin3_47_0_136: p_r0_g136_h89_t47 - x_r0_g136 - x_r0_g89 >= -1
 lin1_47_0_140: p_r0_g140_h93_t47 - x_r0_g140 <= 0
 lin2_47_0_140: p_r0_g140_h93_t47 - x_r0_g93 <= 0
 lin3_47_0_140: p_r0_g140_h93_t47 - x_r0_g140 - x_r0_g93 >= -1
 lin1_47_0_150: p_r0_g150_h103_t47 - x_r0_g150 <= 0
 lin2_47_0_150: p_r0_g150_h103_t47 - x_r0_g103 <= 0
 lin3_47_0_150: p_r0_g150_h103_t47 - x_r0_g150 - x_r0_g103 >= -1
 lin1_47_0_159: p_r0_g159_h112_t47 - x_r0_g159 <= 0
 lin2_47_0_159: p_r0_g159_h112_t47 - x_r0_g112 <= 0
 lin3_47_0_159: p_r0_g159_h112_t47 - x_r0_g159 - x_r0_g112 >= -1
 lin1_47_1_25: p_r1_g25_h145_t47 - x_r1_g25 <= 0
 lin2_47_1_25: p_r1_g25_h145_t47 - x_r1_g145 <= 0
 lin3_47_1_25: p_r1_g25_h145_t47 - x_r1_g25 - x_r1_g145 >= -1
 lin1_47_1_35: p_r1_g35_h155_t47 - x_r1_g35 <= 0
 lin2_47_1_35: p_r1_g35_h155_t47 - x_r1_g155 <= 0
 lin3_47_1_35: p_r1_g35_h155_t47 - x_r1_g35 - x_r1_g155 >= -1
 lin1_47_1_42: p_r1_g42_h162_t47 - x_r1_g42 <= 0
 lin2_47_1_42: p_r1_g42_h162_t47 - x_r1_g162 <= 0
 lin3_47_1_42: p_r1_g42_h162_t47 - x_r1_g42 - x_r1_g162 >= -1
 lin1_47_1_48: p_r1_g48_h1_t47 - x_r1_g48 <= 0
 lin2_47_1_48: p_r1_g48_h1_t47 - x_r1_g1 <= 0
 lin3_47_1_48: p_r1_g48_h1_t47 - x_r1_g48 - x_r1_g1 >= -1
 lin1_47_1_68: p_r1_g68_h21_t47 - x_r1_g68 <= 0
 lin2_47_1_68: p_r1_g68_h21_t47 - x_r1_g21 <= 0
 lin3_47_1_68: p_r1_g68_h21_t47 - x_r1_g68 - x_r1_g21 >= -1
 lin1_47_1_82: p_r1_g82_h35_t47 - x_r1_g82 <= 0
 lin2_47_1_82: p_r1_g82_h35_t47 - x_r1_g35 <= 0
 lin3_47_1_82: p_r1_g82_h35_t47 - x_r1_g82 - x_r1_g35 >= -1
 lin1_47_1_124: p_r1_g124_h77_t47 - x_r1_g124 <= 0
 lin2_47_1_124: p_r1_g124_h77_t47 - x_r1_g77 <= 0
 lin3_47_1_124: p_r1_g124_h77_t47 - x_r1_g124 - x_r1_g77 >= -1
 lin1_47_1_129: p_r1_g129_h82_t47 - x_r1_g129 <= 0
 lin2_47_1_129: p_r1_g129_h82_t47 - x_r1_g82 <= 0
 lin3_47_1_129: p_r1_g129_h82_t47 - x_r1_g129 - x_r1_g82 >= -1
 lin1_47_1_135: p_r1_g135_h88_t47 - x_r1_g135 <= 0
 lin2_47_1_135: p_r1_g135_h88_t47 - x_r1_g88 <= 0
 lin3_47_1_135: p_r1_g135_h88_t47 - x_r1_g135 - x_r1_g88 >= -1
 lin1_47_1_140: p_r1_g140_h93_t47 - x_r1_g140 <= 0
 lin2_47_1_140: p_r1_g140_h93_t47 - x_r1_g93 <= 0
 lin3_47_1_140: p_r1_g140_h93_t47 - x_r1_g140 - x_r1_g93 >= -1
 lin1_47_2_13: p_r2_g13_h133_t47 - x_r2_g13 <= 0
 lin2_47_2_13: p_r2_g13_h133_t47 - x_r2_g133 <= 0
 lin3_47_2_13: p_r2_g13_h133_t47 - x_r2_g13 - x_r2_g133 >= -1
 lin1_47_2_15: p_r2_g15_h135_t47 - x_r2_g15 <= 0
 lin2_47_2_15: p_r2_g15_h135_t47 - x_r2_g135 <= 0
 lin3_47_2_15: p_r2_g15_h135_t47 - x_r2_g15 - x_r2_g135 >= -1
 lin1_47_2_21: p_r2_g21_h141_t47 - x_r2_g21 <= 0
 lin2_47_2_21: p_r2_g21_h141_t47 - x_r2_g141 <= 0
 lin3_47_2_21: p_r2_g21_h141_t47 - x_r2_g21 - x_r2_g141 >= -1
 lin1_47_2_27: p_r2_g27_h147_t47 - x_r2_g27 <= 0
 lin2_47_2_27: p_r2_g27_h147_t47 - x_r2_g147 <= 0
 lin3_47_2_27: p_r2_g27_h147_t47 - x_r2_g27 - x_r2_g147 >= -1
 lin1_47_2_58: p_r2_g58_h11_t47 - x_r2_g58 <= 0
 lin2_47_2_58: p_r2_g58_h11_t47 - x_r2_g11 <= 0
 lin3_47_2_58: p_r2_g58_h11_t47 - x_r2_g58 - x_r2_g11 >= -1
 lin1_47_2_74: p_r2_g74_h27_t47 - x_r2_g74 <= 0
 lin2_47_2_74: p_r2_g74_h27_t47 - x_r2_g27 <= 0
 lin3_47_2_74: p_r2_g74_h27_t47 - x_r2_g74 - x_r2_g27 >= -1
 lin1_47_2_91: p_r2_g91_h44_t47 - x_r2_g91 <= 0
 lin2_47_2_91: p_r2_g91_h44_t47 - x_r2_g44 <= 0
 lin3_47_2_91: p_r2_g91_h44_t47 - x_r2_g91 - x_r2_g44 >= -1
 lin1_47_2_102: p_r2_g102_h55_t47 - x_r2_g102 <= 0
 lin2_47_2_102: p_r2_g102_h55_t47 - x_r2_g55 <= 0
 lin3_47_2_102: p_r2_g102_h55_t47 - x_r2_g102 - x_r2_g55 >= -1
 lin1_47_2_105: p_r2_g105_h58_t47 - x_r2_g105 <= 0
 lin2_47_2_105: p_r2_g105_h58_t47 - x_r2_g58 <= 0
 lin3_47_2_105: p_r2_g105_h58_t47 - x_r2_g105 - x_r2_g58 >= -1
 lin1_47_2_121: p_r2_g121_h74_t47 - x_r2_g121 <= 0
 lin2_47_2_121: p_r2_g121_h74_t47 - x_r2_g74 <= 0
 lin3_47_2_121: p_r2_g121_h74_t47 - x_r2_g121 - x_r2_g74 >= -1
 lin1_47_2_133: p_r2_g133_h86_t47 - x_r2_g133 <= 0
 lin2_47_2_133: p_r2_g133_h86_t47 - x_r2_g86 <= 0
 lin3_47_2_133: p_r2_g133_h86_t47 - x_r2_g133 - x_r2_g86 >= -1
 lin1_47_3_5: p_r3_g5_h125_t47 - x_r3_g5 <= 0
 lin2_47_3_5: p_r3_g5_h125_t47 - x_r3_g125 <= 0
 lin3_47_3_5: p_r3_g5_h125_t47 - x_r3_g5 - x_r3_g125 >= -1
 lin1_47_3_31: p_r3_g31_h151_t47 - x_r3_g31 <= 0
 lin2_47_3_31: p_r3_g31_h151_t47 - x_r3_g151 <= 0
 lin3_47_3_31: p_r3_g31_h151_t47 - x_r3_g31 - x_r3_g151 >= -1
 lin1_47_3_34: p_r3_g34_h154_t47 - x_r3_g34 <= 0
 lin2_47_3_34: p_r3_g34_h154_t47 - x_r3_g154 <= 0
 lin3_47_3_34: p_r3_g34_h154_t47 - x_r3_g34 - x_r3_g154 >= -1
 lin1_47_3_38: p_r3_g38_h158_t47 - x_r3_g38 <= 0
 lin2_47_3_38: p_r3_g38_h158_t47 - x_r3_g158 <= 0
 lin3_47_3_38: p_r3_g38_h158_t47 - x_r3_g38 - x_r3_g158 >= -1
 lin1_47_3_68: p_r3_g68_h21_t47 - x_r3_g68 <= 0
 lin2_47_3_68: p_r3_g68_h21_t47 - x_r3_g21 <= 0
 lin3_47_3_68: p_r3_g68_h21_t47 - x_r3_g68 - x_r3_g21 >= -1
 lin1_47_3_69: p_r3_g69_h22_t47 - x_r3_g69 <= 0
 lin2_47_3_69: p_r3_g69_h22_t47 - x_r3_g22 <= 0
 lin3_47_3_69: p_r3_g69_h22_t47 - x_r3_g69 - x_r3_g22 >= -1
 lin1_47_3_73: p_r3_g73_h26_t47 - x_r3_g73 <= 0
 lin2_47_3_73: p_r3_g73_h26_t47 - x_r3_g26 <= 0
 lin3_47_3_73: p_r3_g73_h26_t47 - x_r3_g73 - x_r3_g26 >= -1
 lin1_47_3_115: p_r3_g115_h68_t47 - x_r3_g115 <= 0
 lin2_47_3_115: p_r3_g115_h68_t47 - x_r3_g68 <= 0
 lin3_47_3_115: p_r3_g115_h68_t47 - x_r3_g115 - x_r3_g68 >= -1
 lin1_47_3_124: p_r3_g124_h77_t47 - x_r3_g124 <= 0
 lin2_47_3_124: p_r3_g124_h77_t47 - x_r3_g77 <= 0
 lin3_47_3_124: p_r3_g124_h77_t47 - x_r3_g124 - x_r3_g77 >= -1
 defect_47: 1 d_47 - 1 x_r0_g1 - 1 x_r0_g5 - 2 x_r0_g7 - 2 x_r0_g11 - 2 x_r0_g12 - 1 x_r0_g15 - 1 x_r0_g17 - 1 x_r0_g19 - 1 x_r0_g29 - 1 x_r0_g51 - 2 x_r0_g53 - 1 x_r0_g55 - 1 x_r0_g66 - 1 x_r0_g72 - 2 x_r0_g85 - 1 x_r0_g89 - 2 x_r0_g90 - 1 x_r0_g93 - 1 x_r0_g108 - 1 x_r0_g126 - 1 x_r0_g135 - 1 x_r0_g140 - 1 x_r0_g150 - 1 x_r1_g6 - 1 x_r1_g21 - 1 x_r1_g26 - 1 x_r1_g32 - 2 x_r1_g34 - 1 x_r1_g36 - 1 x_r1_g42 - 1 x_r1_g48 - 1 x_r1_g56 - 1 x_r1_g60 - 1 x_r1_g61 - 1 x_r1_g68 - 1 x_r1_g74 - 1 x_r1_g84 - 2 x_r1_g85 - 1 x_r1_g93 - 1 x_r1_g94 - 1 x_r1_g99 - 1 x_r1_g104 - 1 x_r1_g127 - 1 x_r1_g135 - 2 x_r1_g138 - 1 x_r1_g140 - 1 x_r1_g143 - 1 x_r1_g145 - 1 x_r1_g155 - 1 x_r1_g161 - 1 x_r1_g162 - 1 x_r2_g13 - 1 x_r2_g21 - 1 x_r2_g32 - 1 x_r2_g35 - 1 x_r2_g40 - 1 x_r2_g45 - 2 x_r2_g51 - 1 x_r2_g61 - 1 x_r2_g83 - 1 x_r2_g85 - 1 x_r2_g86 - 2 x_r2_g93 - 1 x_r2_g95 - 1 x_r2_g101 - 2 x_r2_g103 - 1 x_r2_g104 - 1 x_r2_g105 - 1 x_r2_g106 - 2 x_r2_g111 - 1 x_r2_g112 - 1 x_r2_g114 - 1 x_r2_g121 - 1 x_r2_g124 - 1 x_r2_g141 - 1 x_r2_g157 - 1 x_r2_g162 - 1 x_r3_g20 - 1 x_r3_g22 - 1 x_r3_g23 - 1 x_r3_g24 - 1 x_r3_g25 - 1 x_r3_g26 - 1 x_r3_g31 - 1 x_r3_g34 - 1 x_r3_g39 - 2 x_r3_g42 - 1 x_r3_g48 - 2 x_r3_g51 - 1 x_r3_g53 - 1 x_r3_g60 - 1 x_r3_g66 - 1 x_r3_g77 - 1 x_r3_g83 - 2 x_r3_g87 - 2 x_r3_g90 - 2 x_r3_g96 - 1 x_r3_g115 - 1 x_r3_g124 - 1 x_r3_g125 - 1 x_r3_g153 - 1 x_r3_g156 - 1 x_r3_g158 - 2 x_r3_g166 - 1 p_r0_g15_h135_t47 - 1 p_r0_g39_h159_t47 - 1 p_r0_g51_h4_t47 - 1 p_r0_g57_h10_t47 - 1 p_r0_g66_h19_t47 - 1 p_r0_g103_h56_t47 - 1 p_r0_g112_h65_t47 - 1 p_r0_g119_h72_t47 - 1 p_r0_g126_h79_t47 - 1 p_r0_g136_h89_t47 - 1 p_r0_g140_h93_t47 - 1 p_r0_g150_h103_t47 - 1 p_r0_g159_h112_t47 - 1 p_r1_g25_h145_t47 - 1 p_r1_g35_h155_t47 - 1 p_r1_g42_h162_t47 - 1 p_r1_g48_h1_t47 - 1 p_r1_g68_h21_t47 - 1 p_r1_g82_h35_t47 - 1 p_r1_g124_h77_t47 - 1 p_r1_g129_h82_t47 - 1 p_r1_g135_h88_t47 - 1 p_r1_g140_h93_t47 - 1 p_r2_g13_h133_t47 - 1 p_r2_g15_h135_t47 - 1 p_r2_g21_h141_t47 - 1 p_r2_g27_h147_t47 - 1 p_r2_g58_h11_t47 - 1 p_r2_g74_h27_t47 - 1 p_r2_g91_h44_t47 - 1 p_r2_g102_h55_t47 - 1 p_r2_g105_h58_t47 - 1 p_r2_g121_h74_t47 - 1 p_r2_g133_h86_t47 - 1 p_r3_g5_h125_t47 - 1 p_r3_g31_h151_t47 - 1 p_r3_g34_h154_t47 - 1 p_r3_g38_h158_t47 - 1 p_r3_g68_h21_t47 - 1 p_r3_g69_h22_t47 - 1 p_r3_g73_h26_t47 - 1 p_r3_g115_h68_t47 - 1 p_r3_g124_h77_t47 = -57
 abs_pos_47: d_47 - u_47 <= 0
 abs_neg_47: - d_47 - u_47 <= 0
 max_def_47: u_47 - M <= 0
 cap_47: u_47 <= 2
 lin1_50_0_19: p_r0_g19_h136_t50 - x_r0_g19 <= 0
 lin2_50_0_19: p_r0_g19_h136_t50 - x_r0_g136 <= 0
 lin3_50_0_19: p_r0_g19_h136_t50 - x_r0_g19 - x_r0_g136 >= -1
 lin1_50_0_51: p_r0_g51_h1_t50 - x_r0_g51 <= 0
 lin2_50_0_51: p_r0_g51_h1_t50 - x_r0_g1 <= 0
 lin3_50_0_51: p_r0_g51_h1_t50 - x_r0_g51 - x_r0_g1 >= -1
 lin1_50_0_55: p_r0_g55_h5_t50 - x_r0_g55 <= 0
 lin2_50_0_55: p_r0_g55_h5_t50 - x_r0_g5 <= 0
 lin3_50_0_55: p_r0_g55_h5_t50 - x_r0_g55 - x_r0_g5 >= -1
 lin1_50_0_57: p_r0_g57_h7_t50 - x_r0_g57 <= 0
 lin2_50_0_57: p_r0_g57_h7_t50 - x_r0_g7 <= 0
 lin3_50_0_57: p_r0_g57_h7_t50 - x_r0_g57 - x_r0_g7 >= -1
 lin1_50_0_65: p_r0_g65_h15_t50 - x_r0_g65 <= 0
 lin2_50_0_65: p_r0_g65_h15_t50 - x_r0_g15 <= 0
 lin3_50_0_65: p_r0_g65_h15_t50 - x_r0_g65 - x_r0_g15 >= -1
 lin1_50_0_79: p_r0_g79_h29_t50 - x_r0_g79 <= 0
 lin2_50_0_79: p_r0_g79_h29_t50 - x_r0_g29 <= 0
 lin3_50_0_79: p_r0_g79_h29_t50 - x_r0_g79 - x_r0_g29 >= -1
 lin1_50_0_89: p_r0_g89_h39_t50 - x_r0_g89 <= 0
 lin2_50_0_89: p_r0_g89_h39_t50 - x_r0_g39 <= 0
 lin3_50_0_89: p_r0_g89_h39_t50 - x_r0_g89 - x_r0_g39 >= -1
 lin1_50_0_103: p_r0_g103_h53_t50 - x_r0_g103 <= 0
 lin2_50_0_103: p_r0_g103_h53_t50 - x_r0_g53 <= 0
 lin3_50_0_103: p_r0_g103_h53_t50 - x_r0_g103 - x_r0_g53 >= -1
 lin1_50_0_135: p_r0_g135_h85_t50 - x_r0_g135 <= 0
 lin2_50_0_135: p_r0_g135_h85_t50 - x_r0_g85 <= 0
 lin3_50_0_135: p_r0_g135_h85_t50 - x_r0_g135 - x_r0_g85 >= -1
 lin1_50_0_140: p_r0_g140_h90_t50 - x_r0_g140 <= 0
 lin2_50_0_140: p_r0_g140_h90_t50 - x_r0_g90 <= 0
 lin3_50_0_140: p_r0_g140_h90_t50 - x_r0_g140 - x_r0_g90 >= -1
 lin1_50_0_143: p_r0_g143_h93_t50 - x_r0_g143 <= 0
 lin2_50_0_143: p_r0_g143_h93_t50 - x_r0_g93 <= 0
 lin3_50_0_143: p_r0_g143_h93_t50 - x_r0_g143 - x_r0_g93 >= -1
 lin1_50_1_21: p_r1_g21_h138_t50 - x_r1_g21 <= 0
 lin2_50_1_21: p_r1_g21_h138_t50 - x_r1_g138 <= 0
 lin3_50_1_21: p_r1_g21_h138_t50 - x_r1_g21 - x_r1_g138 >= -1
 lin1_50_1_26: p_r1_g26_h143_t50 - x_r1_g26 <= 0
 lin2_50_1_26: p_r1_g26_h143_t50 - x_r1_g143 <= 0
 lin3_50_1_26: p_r1_g26_h143_t50 - x_r1_g26 - x_r1_g143 >= -1
 lin1_50_1_56: p_r1_g56_h6_t50 - x_r1_g56 <= 0
 lin2_50_1_56: p_r1_g56_h6_t50 - x_r1_g6 <= 0
 lin3_50_1_56: p_r1_g56_h6_t50 - x_r1_g56 - x_r1_g6 >= -1
 lin1_50_1_82: p_r1_g82_h32_t50 - x_r1_g82 <= 0
 lin2_50_1_82: p_r1_g82_h32_t50 - x_r1_g32 <= 0
 lin3_50_1_82: p_r1_g82_h32_t50 - x_r1_g82 - x_r1_g32 >= -1
 lin1_50_1_84: p_r1_g84_h34_t50 - x_r1_g84 <= 0
 lin2_50_1_84: p_r1_g84_h34_t50 - x_r1_g34 <= 0
 lin3_50_1_84: p_r1_g84_h34_t50 - x_r1_g84 - x_r1_g34 >= -1
 lin1_50_1_85: p_r1_g85_h35_t50 - x_r1_g85 <= 0
 lin2_50_1_85: p_r1_g85_h35_t50 - x_r1_g35 <= 0
 lin3_50_1_85: p_r1_g85_h35_t50 - x_r1_g85 - x_r1_g35 >= -1
 lin1_50_1_124: p_r1_g124_h74_t50 - x_r1_g124 <= 0
 lin2_50_1_124: p_r1_g124_h74_t50 - x_r1_g74 <= 0
 lin3_50_1_124: p_r1_g124_h74_t50 - x_r1_g124 - x_r1_g74 >= -1
 lin1_50_1_127: p_r1_g127_h77_t50 - x_r1_g127 <= 0
 lin2_50_1_127: p_r1_g127_h77_t50 - x_r1_g77 <= 0
 lin3_50_1_127: p_r1_g127_h77_t50 - x_r1_g127 - x_r1_g77 >= -1
 lin1_50_1_135: p_r1_g135_h85_t50 - x_r1_g135 <= 0
 lin2_50_1_135: p_r1_g135_h85_t50 - x_r1_g85 <= 0
 lin3_50_1_135: p_r1_g135_h85_t50 - x_r1_g135 - x_r1_g85 >= -1
 lin1_50_1_138: p_r1_g138_h88_t50 - x_r1_g138 <= 0
 lin2_50_1_138: p_r1_g138_h88_t50 - x_r1_g88 <= 0
 lin3_50_1_138: p_r1_g138_h88_t50 - x_r1_g138 - x_r1_g88 >= -1
 lin1_50_1_143: p_r1_g143_h93_t50 - x_r1_g143 <= 0
 lin2_50_1_143: p_r1_g143_h93_t50 - x_r1_g93 <= 0
 lin3_50_1_143: p_r1_g143_h93_t50 - x_r1_g143 - x_r1_g93 >= -1
 lin1_50_2_40: p_r2_g40_h157_t50 - x_r2_g40 <= 0
 lin2_50_2_40: p_r2_g40_h157_t50 - x_r2_g157 <= 0
 lin3_50_2_40: p_r2_g40_h157_t50 - x_r2_g40 - x_r2_g157 >= -1
 lin1_50_2_45: p_r2_g45_h162_t50 - x_r2_g45 <= 0
 lin2_50_2_45: p_r2_g45_h162_t50 - x_r2_g162 <= 0
 lin3_50_2_45: p_r2_g45_h162_t50 - x_r2_g45 - x_r2_g162 >= -1
 lin1_50_2_61: p_r2_g61_h11_t50 - x_r2_g61 <= 0
 lin2_50_2_61: p_r2_g61_h11_t50 - x_r2_g11 <= 0
 lin3_50_2_61: p_r2_g61_h11_t50 - x_r2_g61 - x_r2_g11 >= -1
 lin1_50_2_85: p_r2_g85_h35_t50 - x_r2_g85 <= 0
 lin2_50_2_85: p_r2_g85_h35_t50 - x_r2_g35 <= 0
 lin3_50_2_85: p_r2_g85_h35_t50 - x_r2_g85 - x_r2_g35 >= -1
 lin1_50_2_95: p_r2_g95_h45_t50 - x_r2_g95 <= 0
 lin2_50_2_95: p_r2_g95_h45_t50 - x_r2_g45 <= 0
 lin3_50_2_95: p_r2_g95_h45_t50 - x_r2_g95 - x_r2_g45 >= -1
 lin1_50_2_101: p_r2_g101_h51_t50 - x_r2_g101 <= 0
 lin2_50_2_101: p_r2_g101_h51_t50 - x_r2_g51 <= 0
 lin3_50_2_101: p_r2_g101_h51_t50 - x_r2_g101 - x_r2_g51 >= -1
 lin1_50_2_105: p_r2_g105_h55_t50 - x_r2_g105 <= 0
 lin2_50_2_105: p_r2_g105_h55_t50 - x_r2_g55 <= 0
 lin3_50_2_105: p_r2_g105_h55_t50 - x_r2_g105 - x_r2_g55 >= -1
 lin1_50_2_111: p_r2_g111_h61_t50 - x_r2_g111 <= 0
 lin2_50_2_111: p_r2_g111_h61_t50 - x_r2_g61 <= 0
 lin3_50_2_111: p_r2_g111_h61_t50 - x_r2_g111 - x_r2_g61 >= -1
 lin1_50_2_124: p_r2_g124_h74_t50 - x_r2_g124 <= 0
 lin2_50_2_124: p_r2_g124_h74_t50 - x_r2_g74 <= 0
 lin3_50_2_124: p_r2_g124_h74_t50 - x_r2_g124 - x_r2_g74 >= -1
 lin1_50_2_133: p_r2_g133_h83_t50 - x_r2_g133 <= 0
 lin2_50_2_133: p_r2_g133_h83_t50 - x_r2_g83 <= 0
 lin3_50_2_133: p_r2_g133_h83_t50 - x_r2_g133 - x_r2_g83 >= -1
 lin1_50_2_135: p_r2_g135_h85_t50 - x_r2_g135 <= 0
 lin2_50_2_135: p_r2_g135_h85_t50 - x_r2_g85 <= 0
 lin3_50_2_135: p_r2_g135_h85_t50 - x_r2_g135 - x_r2_g85 >= -1
 lin1_50_2_141: p_r2_g141_h91_t50 - x_r2_g141 <= 0
 lin2_50_2_141: p_r2_g141_h91_t50 - x_r2_g91 <= 0
 lin3_50_2_141: p_r2_g141_h91_t50 - x_r2_g141 - x_r2_g91 >= -1
 lin1_50_2_162: p_r2_g162_h112_t50 - x_r2_g162 <= 0
 lin2_50_2_162: p_r2_g162_h112_t50 - x_r2_g112 <= 0
 lin3_50_2_162: p_r2_g162_h112_t50 - x_r2_g162 - x_r2_g112 >= -1
 lin1_50_3_32: p_r3_g32_h149_t50 - x_r3_g32 <= 0
 lin2_50_3_32: p_r3_g32_h149_t50 - x_r3_g149 <= 0
 lin3_50_3_32: p_r3_g32_h149_t50 - x_r3_g32 - x_r3_g149 >= -1
 lin1_50_3_34: p_r3_g34_h151_t50 - x_r3_g34 <= 0
 lin2_50_3_34: p_r3_g34_h151_t50 - x_r3_g151 <= 0
 lin3_50_3_34: p_r3_g34_h151_t50 - x_r3_g34 - x_r3_g151 >= -1
 lin1_50_3_39: p_r3_g39_h156_t50 - x_r3_g39 <= 0
 lin2_50_3_39: p_r3_g39_h156_t50 - x_r3_g156 <= 0
 lin3_50_3_39: p_r3_g39_h156_t50 - x_r3_g39 - x_r3_g156 >= -1
 lin1_50_3_73: p_r3_g73_h23_t50 - x_r3_g73 <= 0
 lin2_50_3_73: p_r3_g73_h23_t50 - x_r3_g23 <= 0
 lin3_50_3_73: p_r3_g73_h23_t50 - x_r3_g73 - x_r3_g23 >= -1
 lin1_50_3_118: p_r3_g118_h68_t50 - x_r3_g118 <= 0
 lin2_50_3_118: p_r3_g118_h68_t50 - x_r3_g68 <= 0
 lin3_50_3_118: p_r3_g118_h68_t50 - x_r3_g118 - x_r3_g68 >= -1
 defect_50: 1 d_50 - 1 x_r0_g1 - 1 x_r0_g4 - 1 x_r0_g5 - 1 x_r0_g10 - 1 x_r0_g12 - 1 x_r0_g15 - 1 x_r0_g17 - 1 x_r0_g29 - 1 x_r0_g51 - 1 x_r0_g53 - 1 x_r0_g56 - 1 x_r0_g66 - 1 x_r0_g72 - 1 x_r0_g89 - 1 x_r0_g90 - 1 x_r0_g93 - 2 x_r0_g108 - 1 x_r0_g112 - 1 x_r0_g142 - 1 x_r0_g150 - 1 x_r0_g159 - 1 x_r1_g6 - 2 x_r1_g29 - 1 x_r1_g42 - 1 x_r1_g48 - 1 x_r1_g60 - 1 x_r1_g61 - 1 x_r1_g64 - 1 x_r1_g68 - 1 x_r1_g69 - 1 x_r1_g77 - 1 x_r1_g82 - 1 x_r1_g88 - 1 x_r1_g94 - 1 x_r1_g99 - 1 x_r1_g104 - 1 x_r1_g127 - 1 x_r1_g129 - 1 x_r1_g135 - 1 x_r1_g140 - 1 x_r1_g145 - 1 x_r1_g155 - 1 x_r1_g161 - 1 x_r1_g162 - 2 x_r1_g163 - 1 x_r2_g11 - 2 x_r2_g13 - 2 x_r2_g15 - 1 x_r2_g32 - 1 x_r2_g34 - 1 x_r2_g35 - 1 x_r2_g40 - 2 x_r2_g44 - 1 x_r2_g51 - 1 x_r2_g83 - 1 x_r2_g86 - 1 x_r2_g91 - 1 x_r2_g93 - 1 x_r2_g101 - 1 x_r2_g102 - 1 x_r2_g103 - 1 x_r2_g106 - 1 x_r2_g111 - 1 x_r2_g114 - 1 x_r2_g121 - 1 x_r2_g124 - 1 x_r2_g135 - 1 x_r2_g147 - 2 x_r3_g5 - 1 x_r3_g20 - 1 x_r3_g21 - 1 x_r3_g22 - 1 x_r3_g23 - 1 x_r3_g24 - 2 x_r3_g25 - 2 x_r3_g26 - 2 x_r3_g31 - 1 x_r3_g39 - 1 x_r3_g45 - 1 x_r3_g48 - 1 x_r3_g51 - 1 x_r3_g60 - 2 x_r3_g62 - 1 x_r3_g68 - 2 x_r3_g69 - 1 x_r3_g73 - 2 x_r3_g77 - 2 x_r3_g87 - 2 x_r3_g90 - 2 x_r3_g96 - 1 x_r3_g115 - 1 x_r3_g118 - 1 x_r3_g124 - 2 x_r3_g125 - 1 x_r3_g149 - 1 x_r3_g153 - 1 x_r3_g154 - 1 x_r3_g156 - 2 x_r3_g158 - 1 x_r3_g166 - 1 p_r0_g19_h136_t50 - 1 p_r0_g51_h1_t50 - 1 p_r0_g55_h5_t50 - 1 p_r0_g57_h7_t50 - 1 p_r0_g65_h15_t50 - 1 p_r0_g79_h29_t50 - 1 p_r0_g89_h39_t50 - 1 p_r0_g103_h53_t50 - 1 p_r0_g135_h85_t50 - 1 p_r0_g140_h90_t50 - 1 p_r0_g143_h93_t50 - 1 p_r1_g21_h138_t50 - 1 p_r1_g26_h143_t50 - 1 p_r1_g56_h6_t50 - 1 p_r1_g82_h32_t50 - 1 p_r1_g84_h34_t50 - 1 p_r1_g85_h35_t50 - 1 p_r1_g124_h74_t50 - 1 p_r1_g127_h77_t50 - 1 p_r1_g135_h85_t50 - 1 p_r1_g138_h88_t50 - 1 p_r1_g143_h93_t50 - 1 p_r2_g40_h157_t50 - 1 p_r2_g45_h162_t50 - 1 p_r2_g61_h11_t50 - 1 p_r2_g85_h35_t50 - 1 p_r2_g95_h45_t50 - 1 p_r2_g101_h51_t50 - 1 p_r2_g105_h55_t50 - 1 p_r2_g111_h61_t50 - 1 p_r2_g124_h74_t50 - 1 p_r2_g133_h83_t50 - 1 p_r2_g135_h85_t50 - 1 p_r2_g141_h91_t50 - 1 p_r2_g162_h112_t50 - 1 p_r3_g32_h149_t50 - 1 p_r3_g34_h151_t50 - 1 p_r3_g39_h156_t50 - 1 p_r3_g73_h23_t50 - 1 p_r3_g118_h68_t50 = -53
 abs_pos_50: d_50 - u_50 <= 0
 abs_neg_50: - d_50 - u_50 <= 0
 max_def_50: u_50 - M <= 0
 cap_50: u_50 <= 2
 lin1_56_0_1: p_r0_g1_h112_t56 - x_r0_g1 <= 0
 lin2_56_0_1: p_r0_g1_h112_t56 - x_r0_g112 <= 0
 lin3_56_0_1: p_r0_g1_h112_t56 - x_r0_g1 - x_r0_g112 >= -1
 lin1_56_0_15: p_r0_g15_h126_t56 - x_r0_g15 <= 0
 lin2_56_0_15: p_r0_g15_h126_t56 - x_r0_g126 <= 0
 lin3_56_0_15: p_r0_g15_h126_t56 - x_r0_g15 - x_r0_g126 >= -1
 lin1_56_0_29: p_r0_g29_h140_t56 - x_r0_g29 <= 0
 lin2_56_0_29: p_r0_g29_h140_t56 - x_r0_g140 <= 0
 lin3_56_0_29: p_r0_g29_h140_t56 - x_r0_g29 - x_r0_g140 >= -1
 lin1_56_0_39: p_r0_g39_h150_t56 - x_r0_g39 <= 0
 lin2_56_0_39: p_r0_g39_h150_t56 - x_r0_g150 <= 0
 lin3_56_0_39: p_r0_g39_h150_t56 - x_r0_g39 - x_r0_g150 >= -1
 lin1_56_0_57: p_r0_g57_h1_t56 - x_r0_g57 <= 0
 lin2_56_0_57: p_r0_g57_h1_t56 - x_r0_g1 <= 0
 lin3_56_0_57: p_r0_g57_h1_t56 - x_r0_g57 - x_r0_g1 >= -1
 lin1_56_0_66: p_r0_g66_h10_t56 - x_r0_g66 <= 0
 lin2_56_0_66: p_r0_g66_h10_t56 - x_r0_g10 <= 0
 lin3_56_0_66: p_r0_g66_h10_t56 - x_r0_g66 - x_r0_g10 >= -1
 lin1_56_0_85: p_r0_g85_h29_t56 - x_r0_g85 <= 0
 lin2_56_0_85: p_r0_g85_h29_t56 - x_r0_g29 <= 0
 lin3_56_0_85: p_r0_g85_h29_t56 - x_r0_g85 - x_r0_g29 >= -1
 lin1_56_0_103: p_r0_g103_h47_t56 - x_r0_g103 <= 0
 lin2_56_0_103: p_r0_g103_h47_t56 - x_r0_g47 <= 0
 lin3_56_0_103: p_r0_g103_h47_t56 - x_r0_g103 - x_r0_g47 >= -1
 lin1_56_0_112: p_r0_g112_h56_t56 - x_r0_g112 <= 0
 lin2_56_0_112: p_r0_g112_h56_t56 - x_r0_g56 <= 0
 lin3_56_0_112: p_r0_g112_h56_t56 - x_r0_g112 - x_r0_g56 >= -1
 lin1_56_0_135: p_r0_g135_h79_t56 - x_r0_g135 <= 0
 lin2_56_0_135: p_r0_g135_h79_t56 - x_r0_g79 <= 0
 lin3_56_0_135: p_r0_g135_h79_t56 - x_r0_g135 - x_r0_g79 >= -1
 lin1_56_0_159: p_r0_g159_h103_t56 - x_r0_g159 <= 0
 lin2_56_0_159: p_r0_g159_h103_t56 - x_r0_g103 <= 0
 lin3_56_0_159: p_r0_g159_h103_t56 - x_r0_g159 - x_r0_g103 >= -1
 lin1_56_1_29: p_r1_g29_h140_t56 - x_r1_g29 <= 0
 lin2_56_1_29: p_r1_g29_h140_t56 - x_r1_g140 <= 0
 lin3_56_1_29: p_r1_g29_h140_t56 - x_r1_g29 - x_r1_g140 >= -1
 lin1_56_1_32: p_r1_g32_h143_t56 - x_r1_g32 <= 0
 lin2_56_1_32: p_r1_g32_h143_t56 - x_r1_g143 <= 0
 lin3_56_1_32: p_r1_g32_h143_t56 - x_r1_g32 - x_r1_g143 >= -1
 lin1_56_1_34: p_r1_g34_h145_t56 - x_r1_g34 <= 0
 lin2_56_1_34: p_r1_g34_h145_t56 - x_r1_g145 <= 0
 lin3_56_1_34: p_r1_g34_h145_t56 - x_r1_g34 - x_r1_g145 >= -1
 lin1_56_1_77: p_r1_g77_h21_t56 - x_r1_g77 <= 0
 lin2_56_1_77: p_r1_g77_h21_t56 - x_r1_g21 <= 0
 lin3_56_1_77: p_r1_g77_h21_t56 - x_r1_g77 - x_r1_g21 >= -1
 lin1_56_1_82: p_r1_g82_h26_t56 - x_r1_g82 <= 0
 lin2_56_1_82: p_r1_g82_h26_t56 - x_r1_g26 <= 0
 lin3_56_1_82: p_r1_g82_h26_t56 - x_r1_g82 - x_r1_g26 >= -1
 lin1_56_1_85: p_r1_g85_h29_t56 - x_r1_g85 <= 0
 lin2_56_1_85: p_r1_g85_h29_t56 - x_r1_g29 <= 0
 lin3_56_1_85: p_r1_g85_h29_t56 - x_r1_g85 - x_r1_g29 >= -1
 lin1_56_1_88: p_r1_g88_h32_t56 - x_r1_g88 <= 0
 lin2_56_1_88: p_r1_g88_h32_t56 - x_r1_g32 <= 0
 lin3_56_1_88: p_r1_g88_h32_t56 - x_r1_g88 - x_r1_g32 >= -1
 lin1_56_1_104: p_r1_g104_h48_t56 - x_r1_g104 <= 0
 lin2_56_1_104: p_r1_g104_h48_t56 - x_r1_g48 <= 0
 lin3_56_1_104: p_r1_g104_h48_t56 - x_r1_g104 - x_r1_g48 >= -1
 lin1_56_1_124: p_r1_g124_h68_t56 - x_r1_g124 <= 0
 lin2_56_1_124: p_r1_g124_h68_t56 - x_r1_g68 <= 0
 lin3_56_1_124: p_r1_g124_h68_t56 - x_r1_g124 - x_r1_g68 >= -1
 lin1_56_1_138: p_r1_g138_h82_t56 - x_r1_g138 <= 0
 lin2_56_1_138: p_r1_g138_h82_t56 - x_r1_g82 <= 0
 lin3_56_1_138: p_r1_g138_h82_t56 - x_r1_g138 - x_r1_g82 >= -1
 lin1_56_1_140: p_r1_g140_h84_t56 - x_r1_g140 <= 0
 lin2_56_1_140: p_r1_g140_h84_t56 - x_r1_g84 <= 0
 lin3_56_1_140: p_r1_g140_h84_t56 - x_r1_g140 - x_r1_g84 >= -1
 lin1_56_1_155: p_r1_g155_h99_t56 - x_r1_g155 <= 0
 lin2_56_1_155: p_r1_g155_h99_t56 - x_r1_g99 <= 0
 lin3_56_1_155: p_r1_g155_h99_t56 - x_r1_g155 - x_r1_g99 >= -1
 lin1_56_2_13: p_r2_g13_h124_t56 - x_r2_g13 <= 0
 lin2_56_2_13: p_r2_g13_h124_t56 - x_r2_g124 <= 0
 lin3_56_2_13: p_r2_g13_h124_t56 - x_r2_g13 - x_r2_g124 >= -1
 lin1_56_2_15: p_r2_g15_h126_t56 - x_r2_g15 <= 0
 lin2_56_2_15: p_r2_g15_h126_t56 - x_r2_g126 <= 0
 lin3_56_2_15: p_r2_g15_h126_t56 - x_r2_g15 - x_r2_g126 >= -1
 lin1_56_2_51: p_r2_g51_h162_t56 - x_r2_g51 <= 0
 lin2_56_2_51: p_r2_g51_h162_t56 - x_r2_g162 <= 0
 lin3_56_2_51: p_r2_g51_h162_t56 - x_r2_g51 - x_r2_g162 >= -1
 lin1_56_2_83: p_r2_g83_h27_t56 - x_r2_g83 <= 0
 lin2_56_2_83: p_r2_g83_h27_t56 - x_r2_g27 <= 0
 lin3_56_2_83: p_r2_g83_h27_t56 - x_r2_g83 - x_r2_g27 >= -1
 lin1_56_2_91: p_r2_g91_h35_t56 - x_r2_g91 <= 0
 lin2_56_2_91: p_r2_g91_h35_t56 - x_r2_g35 <= 0
 lin3_56_2_91: p_r2_g91_h35_t56 - x_r2_g91 - x_r2_g35 >= -1
 lin1_56_2_101: p_r2_g101_h45_t56 - x_r2_g101 <= 0
 lin2_56_2_101: p_r2_g101_h45_t56 - x_r2_g45 <= 0
 lin3_56_2_101: p_r2_g101_h45_t56 - x_r2_g101 - x_r2_g45 >= -1
 lin1_56_2_111: p_r2_g111_h55_t56 - x_r2_g111 <= 0
 lin2_56_2_111: p_r2_g111_h55_t56 - x_r2_g55 <= 0
 lin3_56_2_111: p_r2_g111_h55_t56 - x_r2_g111 - x_r2_g55 >= -1
 lin1_56_2_114: p_r2_g114_h58_t56 - x_r2_g114 <= 0
 lin2_56_2_114: p_r2_g114_h58_t56 - x_r2_g58 <= 0
 lin3_56_2_114: p_r2_g114_h58_t56 - x_r2_g114 - x_r2_g58 >= -1
 lin1_56_2_141: p_r2_g141_h85_t56 - x_r2_g141 <= 0
 lin2_56_2_141: p_r2_g141_h85_t56 - x_r2_g85 <= 0
 lin3_56_2_141: p_r2_g141_h85_t56 - x_r2_g141 - x_r2_g85 >= -1
 lin1_56_2_147: p_r2_g147_h91_t56 - x_r2_g147 <= 0
 lin2_56_2_147: p_r2_g147_h91_t56 - x_r2_g91 <= 0
 lin3_56_2_147: p_r2_g147_h91_t56 - x_r2_g147 - x_r2_g91 >= -1
 lin1_56_2_157: p_r2_g157_h101_t56 - x_r2_g157 <= 0
 lin2_56_2_157: p_r2_g157_h101_t56 - x_r2_g101 <= 0
 lin3_56_2_157: p_r2_g157_h101_t56 - x_r2_g157 - x_r2_g101 >= -1
 lin1_56_2_162: p_r2_g162_h106_t56 - x_r2_g162 <= 0
 lin2_56_2_162: p_r2_g162_h106_t56 - x_r2_g106 <= 0
 lin3_56_2_162: p_r2_g162_h106_t56 - x_r2_g162 - x_r2_g106 >= -1
 lin1_56_3_38: p_r3_g38_h149_t56 - x_r3_g38 <= 0
 lin2_56_3_38: p_r3_g38_h149_t56 - x_r3_g149 <= 0
 lin3_56_3_38: p_r3_g38_h149_t56 - x_r3_g38 - x_r3_g149 >= -1
 lin1_56_3_42: p_r3_g42_h153_t56 - x_r3_g42 <= 0
 lin2_56_3_42: p_r3_g42_h153_t56 - x_r3_g153 <= 0
 lin3_56_3_42: p_r3_g42_h153_t56 - x_r3_g42 - x_r3_g153 >= -1
 lin1_56_3_45: p_r3_g45_h156_t56 - x_r3_g45 <= 0
 lin2_56_3_45: p_r3_g45_h156_t56 - x_r3_g156 <= 0
 lin3_56_3_45: p_r3_g45_h156_t56 - x_r3_g45 - x_r3_g156 >= -1
 lin1_56_3_77: p_r3_g77_h21_t56 - x_r3_g77 <= 0
 lin2_56_3_77: p_r3_g77_h21_t56 - x_r3_g21 <= 0
 lin3_56_3_77: p_r3_g77_h21_t56 - x_r3_g77 - x_r3_g21 >= -1
 lin1_56_3_87: p_r3_g87_h31_t56 - x_r3_g87 <= 0
 lin2_56_3_87: p_r3_g87_h31_t56 - x_r3_g31 <= 0
 lin3_56_3_87: p_r3_g87_h31_t56 - x_r3_g87 - x_r3_g31 >= -1
 lin1_56_3_90: p_r3_g90_h34_t56 - x_r3_g90 <= 0
 lin2_56_3_90: p_r3_g90_h34_t56 - x_r3_g34 <= 0
 lin3_56_3_90: p_r3_g90_h34_t56 - x_r3_g90 - x_r3_g34 >= -1
 lin1_56_3_118: p_r3_g118_h62_t56 - x_r3_g118 <= 0
 lin2_56_3_118: p_r3_g118_h62_t56 - x_r3_g62 <= 0
 lin3_56_3_118: p_r3_g118_h62_t56 - x_r3_g118 - x_r3_g62 >= -1
 lin1_56_3_124: p_r3_g124_h68_t56 - x_r3_g124 <= 0
 lin2_56_3_124: p_r3_g124_h68_t56 - x_r3_g68 <= 0
 lin3_56_3_124: p_r3_g124_h68_t56 - x_r3_g124 - x_r3_g68 >= -1
 lin1_56_3_125: p_r3_g125_h69_t56 - x_r3_g125 <= 0
 lin2_56_3_125: p_r3_g125_h69_t56 - x_r3_g69 <= 0
 lin3_56_3_125: p_r3_g125_h69_t56 - x_r3_g125 - x_r3_g69 >= -1
 defect_56: 1 d_56 - 1 x_r0_g5 - 2 x_r0_g7 - 2 x_r0_g11 - 2 x_r0_g12 - 1 x_r0_g47 - 1 x_r0_g55 - 1 x_r0_g57 - 1 x_r0_g66 - 2 x_r0_g90 - 2 x_r0_g93 - 1 x_r0_g108 - 1 x_r0_g119 - 1 x_r0_g126 - 1 x_r0_g136 - 1 x_r0_g159 - 2 x_r1_g1 - 1 x_r1_g6 - 1 x_r1_g21 - 1 x_r1_g25 - 1 x_r1_g34 - 2 x_r1_g35 - 1 x_r1_g42 - 1 x_r1_g48 - 1 x_r1_g56 - 2 x_r1_g74 - 1 x_r1_g85 - 1 x_r1_g93 - 1 x_r1_g94 - 1 x_r1_g104 - 1 x_r1_g129 - 1 x_r1_g135 - 1 x_r1_g138 - 1 x_r1_g143 - 1 x_r1_g145 - 1 x_r1_g155 - 1 x_r1_g163 - 1 x_r2_g11 - 1 x_r2_g21 - 1 x_r2_g34 - 1 x_r2_g40 - 2 x_r2_g74 - 1 x_r2_g83 - 1 x_r2_g86 - 2 x_r2_g95 - 2 x_r2_g102 - 2 x_r2_g104 - 2 x_r2_g105 - 1 x_r2_g111 - 2 x_r2_g112 - 1 x_r2_g121 - 1 x_r2_g124 - 1 x_r2_g141 - 1 x_r2_g157 - 1 x_r3_g5 - 1 x_r3_g20 - 1 x_r3_g22 - 1 x_r3_g23 - 1 x_r3_g24 - 1 x_r3_g25 - 1 x_r3_g26 - 1 x_r3_g31 - 1 x_r3_g32 - 1 x_r3_g34 - 1 x_r3_g38 - 1 x_r3_g42 - 1 x_r3_g51 - 1 x_r3_g60 - 1 x_r3_g62 - 1 x_r3_g66 - 1 x_r3_g68 - 1 x_r3_g69 - 2 x_r3_g73 - 2 x_r3_g83 - 1 x_r3_g87 - 1 x_r3_g90 - 1 x_r3_g96 - 2 x_r3_g115 - 1 x_r3_g124 - 1 x_r3_g151 - 2 x_r3_g154 - 1 x_r3_g158 - 2 x_r3_g166 - 1 p_r0_g1_h112_t56 - 1 p_r0_g15_h126_t56 - 1 p_r0_g29_h140_t56 - 1 p_r0_g39_h150_t56 - 1 p_r0_g57_h1_t56 - 1 p_r0_g66_h10_t56 - 1 p_r0_g85_h29_t56 - 1 p_r0_g103_h47_t56 - 1 p_r0_g112_h56_t56 - 1 p_r0_g135_h79_t56 - 1 p_r0_g159_h103_t56 - 1 p_r1_g29_h140_t56 - 1 p_r1_g32_h143_t56 - 1 p_r1_g34_h145_t56 - 1 p_r1_g77_h21_t56 - 1 p_r1_g82_h26_t56 - 1 p_r1_g85_h29_t56 - 1 p_r1_g88_h32_t56 - 1 p_r1_g104_h48_t56 - 1 p_r1_g124_h68_t56 - 1 p_r1_g138_h82_t56 - 1 p_r1_g140_h84_t56 - 1 p_r1_g155_h99_t56 - 1 p_r2_g13_h124_t56 - 1 p_r2_g15_h126_t56 - 1 p_r2_g51_h162_t56 - 1 p_r2_g83_h27_t56 - 1 p_r2_g91_h35_t56 - 1 p_r2_g101_h45_t56 - 1 p_r2_g111_h55_t56 - 1 p_r2_g114_h58_t56 - 1 p_r2_g141_h85_t56 - 1 p_r2_g147_h91_t56 - 1 p_r2_g157_h101_t56 - 1 p_r2_g162_h106_t56 - 1 p_r3_g38_h149_t56 - 1 p_r3_g42_h153_t56 - 1 p_r3_g45_h156_t56 - 1 p_r3_g77_h21_t56 - 1 p_r3_g87_h31_t56 - 1 p_r3_g90_h34_t56 - 1 p_r3_g118_h62_t56 - 1 p_r3_g124_h68_t56 - 1 p_r3_g125_h69_t56 = -73
 abs_pos_56: d_56 - u_56 <= 0
 abs_neg_56: - d_56 - u_56 <= 0
 max_def_56: u_56 - M <= 0
 cap_56: u_56 <= 2
 lin1_64_0_5: p_r0_g5_h108_t64 - x_r0_g5 <= 0
 lin2_64_0_5: p_r0_g5_h108_t64 - x_r0_g108 <= 0
 lin3_64_0_5: p_r0_g5_h108_t64 - x_r0_g5 - x_r0_g108 >= -1
 lin1_64_0_39: p_r0_g39_h142_t64 - x_r0_g39 <= 0
 lin2_64_0_39: p_r0_g39_h142_t64 - x_r0_g142 <= 0
 lin3_64_0_39: p_r0_g39_h142_t64 - x_r0_g39 - x_r0_g142 >= -1
 lin1_64_0_47: p_r0_g47_h150_t64 - x_r0_g47 <= 0
 lin2_64_0_47: p_r0_g47_h150_t64 - x_r0_g150 <= 0
 lin3_64_0_47: p_r0_g47_h150_t64 - x_r0_g47 - x_r0_g150 >= -1
 lin1_64_0_56: p_r0_g56_h159_t64 - x_r0_g56 <= 0
 lin2_64_0_56: p_r0_g56_h159_t64 - x_r0_g159 <= 0
 lin3_64_0_56: p_r0_g56_h159_t64 - x_r0_g56 - x_r0_g159 >= -1
 lin1_64_0_65: p_r0_g65_h1_t64 - x_r0_g65 <= 0
 lin2_64_0_65: p_r0_g65_h1_t64 - x_r0_g1 <= 0
 lin3_64_0_65: p_r0_g65_h1_t64 - x_r0_g65 - x_r0_g1 >= -1
 lin1_64_0_74: p_r0_g74_h10_t64 - x_r0_g74 <= 0
 lin2_64_0_74: p_r0_g74_h10_t64 - x_r0_g10 <= 0
 lin3_64_0_74: p_r0_g74_h10_t64 - x_r0_g74 - x_r0_g10 >= -1
 lin1_64_0_79: p_r0_g79_h15_t64 - x_r0_g79 <= 0
 lin2_64_0_79: p_r0_g79_h15_t64 - x_r0_g15 <= 0
 lin3_64_0_79: p_r0_g79_h15_t64 - x_r0_g79 - x_r0_g15 >= -1
 lin1_64_0_93: p_r0_g93_h29_t64 - x_r0_g93 <= 0
 lin2_64_0_93: p_r0_g93_h29_t64 - x_r0_g29 <= 0
 lin3_64_0_93: p_r0_g93_h29_t64 - x_r0_g93 - x_r0_g29 >= -1
 lin1_64_0_103: p_r0_g103_h39_t64 - x_r0_g103 <= 0
 lin2_64_0_103: p_r0_g103_h39_t64 - x_r0_g39 <= 0
 lin3_64_0_103: p_r0_g103_h39_t64 - x_r0_g103 - x_r0_g39 >= -1
 lin1_64_0_119: p_r0_g119_h55_t64 - x_r0_g119 <= 0
 lin2_64_0_119: p_r0_g119_h55_t64 - x_r0_g55 <= 0
 lin3_64_0_119: p_r0_g119_h55_t64 - x_r0_g119 - x_r0_g55 >= -1
 lin1_64_0_136: p_r0_g136_h72_t64 - x_r0_g136 <= 0
 lin2_64_0_136: p_r0_g136_h72_t64 - x_r0_g72 <= 0
 lin3_64_0_136: p_r0_g136_h72_t64 - x_r0_g136 - x_r0_g72 >= -1
 lin1_64_0_143: p_r0_g143_h79_t64 - x_r0_g143 <= 0
 lin2_64_0_143: p_r0_g143_h79_t64 - x_r0_g79 <= 0
 lin3_64_0_143: p_r0_g143_h79_t64 - x_r0_g143 - x_r0_g79 >= -1
 lin1_64_1_1: p_r1_g1_h104_t64 - x_r1_g1 <= 0
 lin2_64_1_1: p_r1_g1_h104_t64 - x_r1_g104 <= 0
 lin3_64_1_1: p_r1_g1_h104_t64 - x_r1_g1 - x_r1_g104 >= -1
 lin1_64_1_21: p_r1_g21_h124_t64 - x_r1_g21 <= 0
 lin2_64_1_21: p_r1_g21_h124_t64 - x_r1_g124 <= 0
 lin3_64_1_21: p_r1_g21_h124_t64 - x_r1_g21 - x_r1_g124 >= -1
 lin1_64_1_26: p_r1_g26_h129_t64 - x_r1_g26 <= 0
 lin2_64_1_26: p_r1_g26_h129_t64 - x_r1_g129 <= 0
 lin3_64_1_26: p_r1_g26_h129_t64 - x_r1_g26 - x_r1_g129 >= -1
 lin1_64_1_32: p_r1_g32_h135_t64 - x_r1_g32 <= 0
 lin2_64_1_32: p_r1_g32_h135_t64 - x_r1_g135 <= 0
 lin3_64_1_32: p_r1_g32_h135_t64 - x_r1_g32 - x_r1_g135 >= -1
 lin1_64_1_35: p_r1_g35_h138_t64 - x_r1_g35 <= 0
 lin2_64_1_35: p_r1_g35_h138_t64 - x_r1_g138 <= 0
 lin3_64_1_35: p_r1_g35_h138_t64 - x_r1_g35 - x_r1_g138 >= -1
 lin1_64_1_42: p_r1_g42_h145_t64 - x_r1_g42 <= 0
 lin2_64_1_42: p_r1_g42_h145_t64 - x_r1_g145 <= 0
 lin3_64_1_42: p_r1_g42_h145_t64 - x_r1_g42 - x_r1_g145 >= -1
 lin1_64_1_60: p_r1_g60_h163_t64 - x_r1_g60 <= 0
 lin2_64_1_60: p_r1_g60_h163_t64 - x_r1_g163 <= 0
 lin3_64_1_60: p_r1_g60_h163_t64 - x_r1_g60 - x_r1_g163 >= -1
 lin1_64_1_85: p_r1_g85_h21_t64 - x_r1_g85 <= 0
 lin2_64_1_85: p_r1_g85_h21_t64 - x_r1_g21 <= 0
 lin3_64_1_85: p_r1_g85_h21_t64 - x_r1_g85 - x_r1_g21 >= -1
 lin1_64_1_93: p_r1_g93_h29_t64 - x_r1_g93 <= 0
 lin2_64_1_93: p_r1_g93_h29_t64 - x_r1_g29 <= 0
 lin3_64_1_93: p_r1_g93_h29_t64 - x_r1_g93 - x_r1_g29 >= -1
 lin1_64_1_99: p_r1_g99_h35_t64 - x_r1_g99 <= 0
 lin2_64_1_99: p_r1_g99_h35_t64 - x_r1_g35 <= 0
 lin3_64_1_99: p_r1_g99_h35_t64 - x_r1_g99 - x_r1_g35 >= -1
 lin1_64_1_124: p_r1_g124_h60_t64 - x_r1_g124 <= 0
 lin2_64_1_124: p_r1_g124_h60_t64 - x_r1_g60 <= 0
 lin3_64_1_124: p_r1_g124_h60_t64 - x_r1_g124 - x_r1_g60 >= -1
 lin1_64_1_138: p_r1_g138_h74_t64 - x_r1_g138 <= 0
 lin2_64_1_138: p_r1_g138_h74_t64 - x_r1_g74 <= 0
 lin3_64_1_138: p_r1_g138_h74_t64 - x_r1_g138 - x_r1_g74 >= -1
 lin1_64_1_163: p_r1_g163_h99_t64 - x_r1_g163 <= 0
 lin2_64_1_163: p_r1_g163_h99_t64 - x_r1_g99 <= 0
 lin3_64_1_163: p_r1_g163_h99_t64 - x_r1_g163 - x_r1_g99 >= -1
 lin1_64_2_11: p_r2_g11_h114_t64 - x_r2_g11 <= 0
 lin2_64_2_11: p_r2_g11_h114_t64 - x_r2_g114 <= 0
 lin3_64_2_11: p_r2_g11_h114_t64 - x_r2_g11 - x_r2_g114 >= -1
 lin1_64_2_21: p_r2_g21_h124_t64 - x_r2_g21 <= 0
 lin2_64_2_21: p_r2_g21_h124_t64 - x_r2_g124 <= 0
 lin3_64_2_21: p_r2_g21_h124_t64 - x_r2_g21 - x_r2_g124 >= -1
 lin1_64_2_32: p_r2_g32_h135_t64 - x_r2_g32 <= 0
 lin2_64_2_32: p_r2_g32_h135_t64 - x_r2_g135 <= 0
 lin3_64_2_32: p_r2_g32_h135_t64 - x_r2_g32 - x_r2_g135 >= -1
 lin1_64_2_44: p_r2_g44_h147_t64 - x_r2_g44 <= 0
 lin2_64_2_44: p_r2_g44_h147_t64 - x_r2_g147 <= 0
 lin3_64_2_44: p_r2_g44_h147_t64 - x_r2_g44 - x_r2_g147 >= -1
 lin1_64_2_85: p_r2_g85_h21_t64 - x_r2_g85 <= 0
 lin2_64_2_85: p_r2_g85_h21_t64 - x_r2_g21 <= 0
 lin3_64_2_85: p_r2_g85_h21_t64 - x_r2_g85 - x_r2_g21 >= -1
 lin1_64_2_91: p_r2_g91_h27_t64 - x_r2_g91 <= 0
 lin2_64_2_91: p_r2_g91_h27_t64 - x_r2_g27 <= 0
 lin3_64_2_91: p_r2_g91_h27_t64 - x_r2_g91 - x_r2_g27 >= -1
 lin1_64_2_104: p_r2_g104_h40_t64 - x_r2_g104 <= 0
 lin2_64_2_104: p_r2_g104_h40_t64 - x_r2_g40 <= 0
 lin3_64_2_104: p_r2_g104_h40_t64 - x_r2_g104 - x_r2_g40 >= -1
 lin1_64_2_147: p_r2_g147_h83_t64 - x_r2_g147 <= 0
 lin2_64_2_147: p_r2_g147_h83_t64 - x_r2_g83 <= 0
 lin3_64_2_147: p_r2_g147_h83_t64 - x_r2_g147 - x_r2_g83 >= -1
 lin1_64_2_157: p_r2_g157_h93_t64 - x_r2_g157 <= 0
 lin2_64_2_157: p_r2_g157_h93_t64 - x_r2_g93 <= 0
 lin3_64_2_157: p_r2_g157_h93_t64 - x_r2_g157 - x_r2_g93 >= -1
 lin1_64_3_21: p_r3_g21_h124_t64 - x_r3_g21 <= 0
 lin2_64_3_21: p_r3_g21_h124_t64 - x_r3_g124 <= 0
 lin3_64_3_21: p_r3_g21_h124_t64 - x_r3_g21 - x_r3_g124 >= -1
 lin1_64_3_22: p_r3_g22_h125_t64 - x_r3_g22 <= 0
 lin2_64_3_22: p_r3_g22_h125_t64 - x_r3_g125 <= 0
 lin3_64_3_22: p_r3_g22_h125_t64 - x_r3_g22 - x_r3_g125 >= -1
 lin1_64_3_48: p_r3_g48_h151_t64 - x_r3_g48 <= 0
 lin2_64_3_48: p_r3_g48_h151_t64 - x_r3_g151 <= 0
 lin3_64_3_48: p_r3_g48_h151_t64 - x_r3_g48 - x_r3_g151 >= -1
 lin1_64_3_51: p_r3_g51_h154_t64 - x_r3_g51 <= 0
 lin2_64_3_51: p_r3_g51_h154_t64 - x_r3_g154 <= 0
 lin3_64_3_51: p_r3_g51_h154_t64 - x_r3_g51 - x_r3_g154 >= -1
 lin1_64_3_53: p_r3_g53_h156_t64 - x_r3_g53 <= 0
 lin2_64_3_53: p_r3_g53_h156_t64 - x_r3_g156 <= 0
 lin3_64_3_53: p_r3_g53_h156_t64 - x_r3_g53 - x_r3_g156 >= -1
 lin1_64_3_69: p_r3_g69_h5_t64 - x_r3_g69 <= 0
 lin2_64_3_69: p_r3_g69_h5_t64 - x_r3_g5 <= 0
 lin3_64_3_69: p_r3_g69_h5_t64 - x_r3_g69 - x_r3_g5 >= -1
 lin1_64_3_87: p_r3_g87_h23_t64 - x_r3_g87 <= 0
 lin2_64_3_87: p_r3_g87_h23_t64 - x_r3_g23 <= 0
 lin3_64_3_87: p_r3_g87_h23_t64 - x_r3_g87 - x_r3_g23 >= -1
 lin1_64_3_90: p_r3_g90_h26_t64 - x_r3_g90 <= 0
 lin2_64_3_90: p_r3_g90_h26_t64 - x_r3_g26 <= 0
 lin3_64_3_90: p_r3_g90_h26_t64 - x_r3_g90 - x_r3_g26 >= -1
 lin1_64_3_96: p_r3_g96_h32_t64 - x_r3_g96 <= 0
 lin2_64_3_96: p_r3_g96_h32_t64 - x_r3_g32 <= 0
 lin3_64_3_96: p_r3_g96_h32_t64 - x_r3_g96 - x_r3_g32 >= -1
 lin1_64_3_115: p_r3_g115_h51_t64 - x_r3_g115 <= 0
 lin2_64_3_115: p_r3_g115_h51_t64 - x_r3_g51 <= 0
 lin3_64_3_115: p_r3_g115_h51_t64 - x_r3_g115 - x_r3_g51 >= -1
 lin1_64_3_124: p_r3_g124_h60_t64 - x_r3_g124 <= 0
 lin2_64_3_124: p_r3_g124_h60_t64 - x_r3_g60 <= 0
 lin3_64_3_124: p_r3_g124_h60_t64 - x_r3_g124 - x_r3_g60 >= -1
 lin1_64_3_151: p_r3_g151_h87_t64 - x_r3_g151 <= 0
 lin2_64_3_151: p_r3_g151_h87_t64 - x_r3_g87 <= 0
 lin3_64_3_151: p_r3_g151_h87_t64 - x_r3_g151 - x_r3_g87 >= -1
 lin1_64_3_154: p_r3_g154_h90_t64 - x_r3_g154 <= 0
 lin2_64_3_154: p_r3_g154_h90_t64 - x_r3_g90 <= 0
 lin3_64_3_154: p_r3_g154_h90_t64 - x_r3_g154 - x_r3_g90 >= -1
 defect_64: 1 d_64 - 1 x_r0_g4 - 1 x_r0_g10 - 1 x_r0_g15 - 1 x_r0_g17 - 1 x_r0_g19 - 1 x_r0_g29 - 1 x_r0_g47 - 1 x_r0_g55 - 1 x_r0_g56 - 1 x_r0_g57 - 1 x_r0_g85 - 1 x_r0_g89 - 1 x_r0_g91 - 1 x_r0_g93 - 1 x_r0_g112 - 1 x_r0_g126 - 1 x_r0_g140 - 1 x_r0_g143 - 1 x_r1_g1 - 2 x_r1_g6 - 2 x_r1_g25 - 1 x_r1_g26 - 1 x_r1_g29 - 1 x_r1_g32 - 1 x_r1_g34 - 1 x_r1_g36 - 1 x_r1_g48 - 1 x_r1_g56 - 1 x_r1_g61 - 1 x_r1_g64 - 1 x_r1_g68 - 1 x_r1_g74 - 1 x_r1_g77 - 2 x_r1_g82 - 1 x_r1_g84 - 1 x_r1_g93 - 1 x_r1_g104 - 1 x_r1_g129 - 1 x_r1_g140 - 2 x_r1_g143 - 1 x_r1_g145 - 1 x_r1_g155 - 1 x_r1_g162 - 1 x_r2_g11 - 1 x_r2_g13 - 1 x_r2_g27 - 2 x_r2_g34 - 1 x_r2_g45 - 1 x_r2_g51 - 2 x_r2_g55 - 2 x_r2_g58 - 1 x_r2_g86 - 1 x_r2_g95 - 1 x_r2_g101 - 2 x_r2_g103 - 1 x_r2_g104 - 1 x_r2_g105 - 1 x_r2_g112 - 1 x_r2_g121 - 1 x_r2_g124 - 1 x_r2_g133 - 1 x_r2_g162 - 1 x_r3_g5 - 1 x_r3_g20 - 1 x_r3_g22 - 1 x_r3_g24 - 2 x_r3_g25 - 1 x_r3_g26 - 1 x_r3_g31 - 2 x_r3_g34 - 1 x_r3_g39 - 2 x_r3_g42 - 1 x_r3_g45 - 1 x_r3_g48 - 1 x_r3_g60 - 1 x_r3_g66 - 1 x_r3_g68 - 2 x_r3_g73 - 1 x_r3_g77 - 1 x_r3_g83 - 1 x_r3_g96 - 1 x_r3_g115 - 1 x_r3_g125 - 1 x_r3_g149 - 1 x_r3_g153 - 2 x_r3_g158 - 1 p_r0_g5_h108_t64 - 1 p_r0_g39_h142_t64 - 1 p_r0_g47_h150_t64 - 1 p_r0_g56_h159_t64 - 1 p_r0_g65_h1_t64 - 1 p_r0_g74_h10_t64 - 1 p_r0_g79_h15_t64 - 1 p_r0_g93_h29_t64 - 1 p_r0_g103_h39_t64 - 1 p_r0_g119_h55_t64 - 1 p_r0_g136_h72_t64 - 1 p_r0_g143_h79_t64 - 1 p_r1_g1_h104_t64 - 1 p_r1_g21_h124_t64 - 1 p_r1_g26_h129_t64 - 1 p_r1_g32_h135_t64 - 1 p_r1_g35_h138_t64 - 1 p_r1_g42_h145_t64 - 1 p_r1_g60_h163_t64 - 1 p_r1_g85_h21_t64 - 1 p_r1_g93_h29_t64 - 1 p_r1_g99_h35_t64 - 1 p_r1_g124_h60_t64 - 1 p_r1_g138_h74_t64 - 1 p_r1_g163_h99_t64 - 1 p_r2_g11_h114_t64 - 1 p_r2_g21_h124_t64 - 1 p_r2_g32_h135_t64 - 1 p_r2_g44_h147_t64 - 1 p_r2_g85_h21_t64 - 1 p_r2_g91_h27_t64 - 1 p_r2_g104_h40_t64 - 1 p_r2_g147_h83_t64 - 1 p_r2_g157_h93_t64 - 1 p_r3_g21_h124_t64 - 1 p_r3_g22_h125_t64 - 1 p_r3_g48_h151_t64 - 1 p_r3_g51_h154_t64 - 1 p_r3_g53_h156_t64 - 1 p_r3_g69_h5_t64 - 1 p_r3_g87_h23_t64 - 1 p_r3_g90_h26_t64 - 1 p_r3_g96_h32_t64 - 1 p_r3_g115_h51_t64 - 1 p_r3_g124_h60_t64 - 1 p_r3_g151_h87_t64 - 1 p_r3_g154_h90_t64 = -48
 abs_pos_64: d_64 - u_64 <= 0
 abs_neg_64: - d_64 - u_64 <= 0
 max_def_64: u_64 - M <= 0
 cap_64: u_64 <= 2
 lin1_70_0_11: p_r0_g11_h108_t70 - x_r0_g11 <= 0
 lin2_70_0_11: p_r0_g11_h108_t70 - x_r0_g108 <= 0
 lin3_70_0_11: p_r0_g11_h108_t70 - x_r0_g11 - x_r0_g108 >= -1
 lin1_70_0_15: p_r0_g15_h112_t70 - x_r0_g15 <= 0
 lin2_70_0_15: p_r0_g15_h112_t70 - x_r0_g112 <= 0
 lin3_70_0_15: p_r0_g15_h112_t70 - x_r0_g15 - x_r0_g112 >= -1
 lin1_70_0_29: p_r0_g29_h126_t70 - x_r0_g29 <= 0
 lin2_70_0_29: p_r0_g29_h126_t70 - x_r0_g126 <= 0
 lin3_70_0_29: p_r0_g29_h126_t70 - x_r0_g29 - x_r0_g126 >= -1
 lin1_70_0_39: p_r0_g39_h136_t70 - x_r0_g39 <= 0
 lin2_70_0_39: p_r0_g39_h136_t70 - x_r0_g136 <= 0
 lin3_70_0_39: p_r0_g39_h136_t70 - x_r0_g39 - x_r0_g136 >= -1
 lin1_70_0_53: p_r0_g53_h150_t70 - x_r0_g53 <= 0
 lin2_70_0_53: p_r0_g53_h150_t70 - x_r0_g150 <= 0
 lin3_70_0_53: p_r0_g53_h150_t70 - x_r0_g53 - x_r0_g150 >= -1
 lin1_70_0_74: p_r0_g74_h4_t70 - x_r0_g74 <= 0
 lin2_70_0_74: p_r0_g74_h4_t70 - x_r0_g4 <= 0
 lin3_70_0_74: p_r0_g74_h4_t70 - x_r0_g74 - x_r0_g4 >= -1
 lin1_70_0_85: p_r0_g85_h15_t70 - x_r0_g85 <= 0
 lin2_70_0_85: p_r0_g85_h15_t70 - x_r0_g15 <= 0
 lin3_70_0_85: p_r0_g85_h15_t70 - x_r0_g85 - x_r0_g15 >= -1
 lin1_70_0_89: p_r0_g89_h19_t70 - x_r0_g89 <= 0
 lin2_70_0_89: p_r0_g89_h19_t70 - x_r0_g19 <= 0
 lin3_70_0_89: p_r0_g89_h19_t70 - x_r0_g89 - x_r0_g19 >= -1
 lin1_70_0_126: p_r0_g126_h56_t70 - x_r0_g126 <= 0
 lin2_70_0_126: p_r0_g126_h56_t70 - x_r0_g56 <= 0
 lin3_70_0_126: p_r0_g126_h56_t70 - x_r0_g126 - x_r0_g56 >= -1
 lin1_70_0_135: p_r0_g135_h65_t70 - x_r0_g135 <= 0
 lin2_70_0_135: p_r0_g135_h65_t70 - x_r0_g65 <= 0
 lin3_70_0_135: p_r0_g135_h65_t70 - x_r0_g135 - x_r0_g65 >= -1
 lin1_70_0_136: p_r0_g136_h66_t70 - x_r0_g136 <= 0
 lin2_70_0_136: p_r0_g136_h66_t70 - x_r0_g66 <= 0
 lin3_70_0_136: p_r0_g136_h66_t70 - x_r0_g136 - x_r0_g66 >= -1
 lin1_70_0_142: p_r0_g142_h72_t70 - x_r0_g142 <= 0
 lin2_70_0_142: p_r0_g142_h72_t70 - x_r0_g72 <= 0
 lin3_70_0_142: p_r0_g142_h72_t70 - x_r0_g142 - x_r0_g72 >= -1
 lin1_70_0_159: p_r0_g159_h89_t70 - x_r0_g159 <= 0
 lin2_70_0_159: p_r0_g159_h89_t70 - x_r0_g89 <= 0
 lin3_70_0_159: p_r0_g159_h89_t70 - x_r0_g159 - x_r0_g89 >= -1
 lin1_70_1_32: p_r1_g32_h129_t70 - x_r1_g32 <= 0
 lin2_70_1_32: p_r1_g32_h129_t70 - x_r1_g129 <= 0
 lin3_70_1_32: p_r1_g32_h129_t70 - x_r1_g32 - x_r1_g129 >= -1
 lin1_70_1_48: p_r1_g48_h145_t70 - x_r1_g48 <= 0
 lin2_70_1_48: p_r1_g48_h145_t70 - x_r1_g145 <= 0
 lin3_70_1_48: p_r1_g48_h145_t70 - x_r1_g48 - x_r1_g145 >= -1
 lin1_70_1_64: p_r1_g64_h161_t70 - x_r1_g64 <= 0
 lin2_70_1_64: p_r1_g64_h161_t70 - x_r1_g161 <= 0
 lin3_70_1_64: p_r1_g64_h161_t70 - x_r1_g64 - x_r1_g161 >= -1
 lin1_70_1_99: p_r1_g99_h29_t70 - x_r1_g99 <= 0
 lin2_70_1_99: p_r1_g99_h29_t70 - x_r1_g29 <= 0
 lin3_70_1_99: p_r1_g99_h29_t70 - x_r1_g99 - x_r1_g29 >= -1
 lin1_70_1_104: p_r1_g104_h34_t70 - x_r1_g104 <= 0
 lin2_70_1_104: p_r1_g104_h34_t70 - x_r1_g34 <= 0
 lin3_70_1_104: p_r1_g104_h34_t70 - x_r1_g104 - x_r1_g34 >= -1
 lin1_70_1_138: p_r1_g138_h68_t70 - x_r1_g138 <= 0
 lin2_70_1_138: p_r1_g138_h68_t70 - x_r1_g68 <= 0
 lin3_70_1_138: p_r1_g138_h68_t70 - x_r1_g138 - x_r1_g68 >= -1
 lin1_70_1_155: p_r1_g155_h85_t70 - x_r1_g155 <= 0
 lin2_70_1_155: p_r1_g155_h85_t70 - x_r1_g85 <= 0
 lin3_70_1_155: p_r1_g155_h85_t70 - x_r1_g155 - x_r1_g85 >= -1
 lin1_70_1_163: p_r1_g163_h93_t70 - x_r1_g163 <= 0
 lin2_70_1_163: p_r1_g163_h93_t70 - x_r1_g93 <= 0
 lin3_70_1_163: p_r1_g163_h93_t70 - x_r1_g163 - x_r1_g93 >= -1
 lin1_70_2_15: p_r2_g15_h112_t70 - x_r2_g15 <= 0
 lin2_70_2_15: p_r2_g15_h112_t70 - x_r2_g112 <= 0
 lin3_70_2_15: p_r2_g15_h112_t70 - x_r2_g15 - x_r2_g112 >= -1
 lin1_70_2_27: p_r2_g27_h124_t70 - x_r2_g27 <= 0
 lin2_70_2_27: p_r2_g27_h124_t70 - x_r2_g124 <= 0
 lin3_70_2_27: p_r2_g27_h124_t70 - x_r2_g27 - x_r2_g124 >= -1
 lin1_70_2_44: p_r2_g44_h141_t70 - x_r2_g44 <= 0
 lin2_70_2_44: p_r2_g44_h141_t70 - x_r2_g141 <= 0
 lin3_70_2_44: p_r2_g44_h141_t70 - x_r2_g44 - x_r2_g141 >= -1
 lin1_70_2_83: p_r2_g83_h13_t70 - x_r2_g83 <= 0
 lin2_70_2_83: p_r2_g83_h13_t70 - x_r2_g13 <= 0
 lin3_70_2_83: p_r2_g83_h13_t70 - x_r2_g83 - x_r2_g13 >= -1
 lin1_70_2_85: p_r2_g85_h15_t70 - x_r2_g85 <= 0
 lin2_70_2_85: p_r2_g85_h15_t70 - x_r2_g15 <= 0
 lin3_70_2_85: p_r2_g85_h15_t70 - x_r2_g85 - x_r2_g15 >= -1
 lin1_70_2_91: p_r2_g91_h21_t70 - x_r2_g91 <= 0
 lin2_70_2_91: p_r2_g91_h21_t70 - x_r2_g21 <= 0
 lin3_70_2_91: p_r2_g91_h21_t70 - x_r2_g91 - x_r2_g21 >= -1
 lin1_70_2_102: p_r2_g102_h32_t70 - x_r2_g102 <= 0
 lin2_70_2_102: p_r2_g102_h32_t70 - x_r2_g32 <= 0
 lin3_70_2_102: p_r2_g102_h32_t70 - x_r2_g102 - x_r2_g32 >= -1
 lin1_70_2_104: p_r2_g104_h34_t70 - x_r2_g104 <= 0
 lin2_70_2_104: p_r2_g104_h34_t70 - x_r2_g34 <= 0
 lin3_70_2_104: p_r2_g104_h34_t70 - x_r2_g104 - x_r2_g34 >= -1
 lin1_70_2_105: p_r2_g105_h35_t70 - x_r2_g105 <= 0
 lin2_70_2_105: p_r2_g105_h35_t70 - x_r2_g35 <= 0
 lin3_70_2_105: p_r2_g105_h35_t70 - x_r2_g105 - x_r2_g35 >= -1
 lin1_70_2_114: p_r2_g114_h44_t70 - x_r2_g114 <= 0
 lin2_70_2_114: p_r2_g114_h44_t70 - x_r2_g44 <= 0
 lin3_70_2_114: p_r2_g114_h44_t70 - x_r2_g114 - x_r2_g44 >= -1
 lin1_70_2_121: p_r2_g121_h51_t70 - x_r2_g121 <= 0
 lin2_70_2_121: p_r2_g121_h51_t70 - x_r2_g51 <= 0
 lin3_70_2_121: p_r2_g121_h51_t70 - x_r2_g121 - x_r2_g51 >= -1
 lin1_70_3_21: p_r3_g21_h118_t70 - x_r3_g21 <= 0
 lin2_70_3_21: p_r3_g21_h118_t70 - x_r3_g118 <= 0
 lin3_70_3_21: p_r3_g21_h118_t70 - x_r3_g21 - x_r3_g118 >= -1
 lin1_70_3_69: p_r3_g69_h166_t70 - x_r3_g69 <= 0
 lin2_70_3_69: p_r3_g69_h166_t70 - x_r3_g166 <= 0
 lin3_70_3_69: p_r3_g69_h166_t70 - x_r3_g69 - x_r3_g166 >= -1
 lin1_70_3_90: p_r3_g90_h20_t70 - x_r3_g90 <= 0
 lin2_70_3_90: p_r3_g90_h20_t70 - x_r3_g20 <= 0
 lin3_70_3_90: p_r3_g90_h20_t70 - x_r3_g90 - x_r3_g20 >= -1
 lin1_70_3_96: p_r3_g96_h26_t70 - x_r3_g96 <= 0
 lin2_70_3_96: p_r3_g96_h26_t70 - x_r3_g26 <= 0
 lin3_70_3_96: p_r3_g96_h26_t70 - x_r3_g96 - x_r3_g26 >= -1
 lin1_70_3_115: p_r3_g115_h45_t70 - x_r3_g115 <= 0
 lin2_70_3_115: p_r3_g115_h45_t70 - x_r3_g45 <= 0
 lin3_70_3_115: p_r3_g115_h45_t70 - x_r3_g115 - x_r3_g45 >= -1
 lin1_70_3_118: p_r3_g118_h48_t70 - x_r3_g118 <= 0
 lin2_70_3_118: p_r3_g118_h48_t70 - x_r3_g48 <= 0
 lin3_70_3_118: p_r3_g118_h48_t70 - x_r3_g118 - x_r3_g48 >= -1
 lin1_70_3_153: p_r3_g153_h83_t70 - x_r3_g153 <= 0
 lin2_70_3_153: p_r3_g153_h83_t70 - x_r3_g83 <= 0
 lin3_70_3_153: p_r3_g153_h83_t70 - x_r3_g153 - x_r3_g83 >= -1
 lin1_70_3_166: p_r3_g166_h96_t70 - x_r3_g166 <= 0
 lin2_70_3_166: p_r3_g166_h96_t70 - x_r3_g96 <= 0
 lin3_70_3_166: p_r3_g166_h96_t70 - x_r3_g166 - x_r3_g96 >= -1
 defect_70: 1 d_70 - 1 x_r0_g1 - 1 x_r0_g4 - 1 x_r0_g5 - 1 x_r0_g7 - 1 x_r0_g19 - 1 x_r0_g53 - 1 x_r0_g55 - 1 x_r0_g57 - 1 x_r0_g66 - 1 x_r0_g79 - 1 x_r0_g85 - 2 x_r0_g90 - 1 x_r0_g93 - 1 x_r0_g103 - 1 x_r0_g108 - 1 x_r0_g112 - 1 x_r0_g119 - 1 x_r0_g135 - 2 x_r0_g140 - 1 x_r0_g142 - 1 x_r0_g143 - 1 x_r0_g159 - 1 x_r1_g1 - 1 x_r1_g6 - 1 x_r1_g21 - 1 x_r1_g25 - 2 x_r1_g26 - 1 x_r1_g35 - 1 x_r1_g42 - 2 x_r1_g60 - 1 x_r1_g69 - 1 x_r1_g84 - 1 x_r1_g85 - 1 x_r1_g88 - 1 x_r1_g94 - 1 x_r1_g124 - 1 x_r1_g127 - 2 x_r1_g135 - 1 x_r1_g140 - 1 x_r1_g143 - 1 x_r1_g161 - 1 x_r1_g162 - 1 x_r1_g163 - 1 x_r2_g13 - 1 x_r2_g32 - 1 x_r2_g35 - 2 x_r2_g40 - 1 x_r2_g45 - 1 x_r2_g51 - 1 x_r2_g55 - 1 x_r2_g58 - 1 x_r2_g61 - 1 x_r2_g74 - 1 x_r2_g83 - 1 x_r2_g91 - 1 x_r2_g93 - 2 x_r2_g95 - 2 x_r2_g101 - 1 x_r2_g103 - 1 x_r2_g104 - 2 x_r2_g111 - 1 x_r2_g126 - 1 x_r2_g133 - 1 x_r2_g135 - 1 x_r2_g157 - 1 x_r2_g162 - 1 x_r3_g5 - 1 x_r3_g22 - 1 x_r3_g24 - 1 x_r3_g25 - 1 x_r3_g26 - 1 x_r3_g31 - 1 x_r3_g32 - 1 x_r3_g38 - 2 x_r3_g42 - 1 x_r3_g45 - 1 x_r3_g48 - 1 x_r3_g51 - 1 x_r3_g53 - 1 x_r3_g66 - 1 x_r3_g68 - 1 x_r3_g69 - 1 x_r3_g73 - 1 x_r3_g83 - 1 x_r3_g87 - 1 x_r3_g90 - 1 x_r3_g115 - 1 x_r3_g124 - 2 x_r3_g125 - 1 x_r3_g151 - 2 x_r3_g156 - 1 x_r3_g158 - 1 p_r0_g11_h108_t70 - 1 p_r0_g15_h112_t70 - 1 p_r0_g29_h126_t70 - 1 p_r0_g39_h136_t70 - 1 p_r0_g53_h150_t70 - 1 p_r0_g74_h4_t70 - 1 p_r0_g85_h15_t70 - 1 p_r0_g89_h19_t70 - 1 p_r0_g126_h56_t70 - 1 p_r0_g135_h65_t70 - 1 p_r0_g136_h66_t70 - 1 p_r0_g142_h72_t70 - 1 p_r0_g159_h89_t70 - 1 p_r1_g32_h129_t70 - 1 p_r1_g48_h145_t70 - 1 p_r1_g64_h161_t70 - 1 p_r1_g99_h29_t70 - 1 p_r1_g104_h34_t70 - 1 p_r1_g138_h68_t70 - 1 p_r1_g155_h85_t70 - 1 p_r1_g163_h93_t70 - 1 p_r2_g15_h112_t70 - 1 p_r2_g27_h124_t70 - 1 p_r2_g44_h141_t70 - 1 p_r2_g83_h13_t70 - 1 p_r2_g85_h15_t70 - 1 p_r2_g91_h21_t70 - 1 p_r2_g102_h32_t70 - 1 p_r2_g104_h34_t70 - 1 p_r2_g105_h35_t70 - 1 p_r2_g114_h44_t70 - 1 p_r2_g121_h51_t70 - 1 p_r3_g21_h118_t70 - 1 p_r3_g69_h166_t70 - 1 p_r3_g90_h20_t70 - 1 p_r3_g96_h26_t70 - 1 p_r3_g115_h45_t70 - 1 p_r3_g118_h48_t70 - 1 p_r3_g153_h83_t70 - 1 p_r3_g166_h96_t70 = -49
 abs_pos_70: d_70 - u_70 <= 0
 abs_neg_70: - d_70 - u_70 <= 0
 max_def_70: u_70 - M <= 0
 cap_70: u_70 <= 2
 lin1_71_0_7: p_r0_g7_h103_t71 - x_r0_g7 <= 0
 lin2_71_0_7: p_r0_g7_h103_t71 - x_r0_g103 <= 0
 lin3_71_0_7: p_r0_g7_h103_t71 - x_r0_g7 - x_r0_g103 >= -1
 lin1_71_0_12: p_r0_g12_h108_t71 - x_r0_g12 <= 0
 lin2_71_0_12: p_r0_g12_h108_t71 - x_r0_g108 <= 0
 lin3_71_0_12: p_r0_g12_h108_t71 - x_r0_g12 - x_r0_g108 >= -1
 lin1_71_0_39: p_r0_g39_h135_t71 - x_r0_g39 <= 0
 lin2_71_0_39: p_r0_g39_h135_t71 - x_r0_g135 <= 0
 lin3_71_0_39: p_r0_g39_h135_t71 - x_r0_g39 - x_r0_g135 >= -1
 lin1_71_0_47: p_r0_g47_h143_t71 - x_r0_g47 <= 0
 lin2_71_0_47: p_r0_g47_h143_t71 - x_r0_g143 <= 0
 lin3_71_0_47: p_r0_g47_h143_t71 - x_r0_g47 - x_r0_g143 >= -1
 lin1_71_0_72: p_r0_g72_h1_t71 - x_r0_g72 <= 0
 lin2_71_0_72: p_r0_g72_h1_t71 - x_r0_g1 <= 0
 lin3_71_0_72: p_r0_g72_h1_t71 - x_r0_g72 - x_r0_g1 >= -1
 lin1_71_0_90: p_r0_g90_h19_t71 - x_r0_g90 <= 0
 lin2_71_0_90: p_r0_g90_h19_t71 - x_r0_g19 <= 0
 lin3_71_0_90: p_r0_g90_h19_t71 - x_r0_g90 - x_r0_g19 >= -1
 lin1_71_0_126: p_r0_g126_h55_t71 - x_r0_g126 <= 0
 lin2_71_0_126: p_r0_g126_h55_t71 - x_r0_g55 <= 0
 lin3_71_0_126: p_r0_g126_h55_t71 - x_r0_g126 - x_r0_g55 >= -1
 lin1_71_0_136: p_r0_g136_h65_t71 - x_r0_g136 <= 0
 lin2_71_0_136: p_r0_g136_h65_t71 - x_r0_g65 <= 0
 lin3_71_0_136: p_r0_g136_h65_t71 - x_r0_g136 - x_r0_g65 >= -1
 lin1_71_0_143: p_r0_g143_h72_t71 - x_r0_g143 <= 0
 lin2_71_0_143: p_r0_g143_h72_t71 - x_r0_g72 <= 0
 lin3_71_0_143: p_r0_g143_h72_t71 - x_r0_g143 - x_r0_g72 >= -1
 lin1_71_0_150: p_r0_g150_h79_t71 - x_r0_g150 <= 0
 lin2_71_0_150: p_r0_g150_h79_t71 - x_r0_g79 <= 0
 lin3_71_0_150: p_r0_g150_h79_t71 - x_r0_g150 - x_r0_g79 >= -1
 lin1_71_1_42: p_r1_g42_h138_t71 - x_r1_g42 <= 0
 lin2_71_1_42: p_r1_g42_h138_t71 - x_r1_g138 <= 0
 lin3_71_1_42: p_r1_g42_h138_t71 - x_r1_g42 - x_r1_g138 >= -1
 lin1_71_1_77: p_r1_g77_h6_t71 - x_r1_g77 <= 0
 lin2_71_1_77: p_r1_g77_h6_t71 - x_r1_g6 <= 0
 lin3_71_1_77: p_r1_g77_h6_t71 - x_r1_g77 - x_r1_g6 >= -1
 lin1_71_1_127: p_r1_g127_h56_t71 - x_r1_g127 <= 0
 lin2_71_1_127: p_r1_g127_h56_t71 - x_r1_g56 <= 0
 lin3_71_1_127: p_r1_g127_h56_t71 - x_r1_g127 - x_r1_g56 >= -1
 lin1_71_1_135: p_r1_g135_h64_t71 - x_r1_g135 <= 0
 lin2_71_1_135: p_r1_g135_h64_t71 - x_r1_g64 <= 0
 lin3_71_1_135: p_r1_g135_h64_t71 - x_r1_g135 - x_r1_g64 >= -1
 lin1_71_1_140: p_r1_g140_h69_t71 - x_r1_g140 <= 0
 lin2_71_1_140: p_r1_g140_h69_t71 - x_r1_g69 <= 0
 lin3_71_1_140: p_r1_g140_h69_t71 - x_r1_g140 - x_r1_g69 >= -1
 lin1_71_1_145: p_r1_g145_h74_t71 - x_r1_g145 <= 0
 lin2_71_1_145: p_r1_g145_h74_t71 - x_r1_g74 <= 0
 lin3_71_1_145: p_r1_g145_h74_t71 - x_r1_g145 - x_r1_g74 >= -1
 lin1_71_1_155: p_r1_g155_h84_t71 - x_r1_g155 <= 0
 lin2_71_1_155: p_r1_g155_h84_t71 - x_r1_g84 <= 0
 lin3_71_1_155: p_r1_g155_h84_t71 - x_r1_g155 - x_r1_g84 >= -1
 lin1_71_2_15: p_r2_g15_h111_t71 - x_r2_g15 <= 0
 lin2_71_2_15: p_r2_g15_h111_t71 - x_r2_g111 <= 0
 lin3_71_2_15: p_r2_g15_h111_t71 - x_r2_g15 - x_r2_g111 >= -1
 lin1_71_2_45: p_r2_g45_h141_t71 - x_r2_g45 <= 0
 lin2_71_2_45: p_r2_g45_h141_t71 - x_r2_g141 <= 0
 lin3_71_2_45: p_r2_g45_h141_t71 - x_r2_g45 - x_r2_g141 >= -1
 lin1_71_2_51: p_r2_g51_h147_t71 - x_r2_g51 <= 0
 lin2_71_2_51: p_r2_g51_h147_t71 - x_r2_g147 <= 0
 lin3_71_2_51: p_r2_g51_h147_t71 - x_r2_g51 - x_r2_g147 >= -1
 lin1_71_2_61: p_r2_g61_h157_t71 - x_r2_g61 <= 0
 lin2_71_2_61: p_r2_g61_h157_t71 - x_r2_g157 <= 0
 lin3_71_2_61: p_r2_g61_h157_t71 - x_r2_g61 - x_r2_g157 >= -1
 lin1_71_2_86: p_r2_g86_h15_t71 - x_r2_g86 <= 0
 lin2_71_2_86: p_r2_g86_h15_t71 - x_r2_g15 <= 0
 lin3_71_2_86: p_r2_g86_h15_t71 - x_r2_g86 - x_r2_g15 >= -1
 lin1_71_2_103: p_r2_g103_h32_t71 - x_r2_g103 <= 0
 lin2_71_2_103: p_r2_g103_h32_t71 - x_r2_g32 <= 0
 lin3_71_2_103: p_r2_g103_h32_t71 - x_r2_g103 - x_r2_g32 >= -1
 lin1_71_2_105: p_r2_g105_h34_t71 - x_r2_g105 <= 0
 lin2_71_2_105: p_r2_g105_h34_t71 - x_r2_g34 <= 0
 lin3_71_2_105: p_r2_g105_h34_t71 - x_r2_g105 - x_r2_g34 >= -1
 lin1_71_2_106: p_r2_g106_h35_t71 - x_r2_g106 <= 0
 lin2_71_2_106: p_r2_g106_h35_t71 - x_r2_g35 <= 0
 lin3_71_2_106: p_r2_g106_h35_t71 - x_r2_g106 - x_r2_g35 >= -1
 lin1_71_2_111: p_r2_g111_h40_t71 - x_r2_g111 <= 0
 lin2_71_2_111: p_r2_g111_h40_t71 - x_r2_g40 <= 0
 lin3_71_2_111: p_r2_g111_h40_t71 - x_r2_g111 - x_r2_g40 >= -1
 lin1_71_2_126: p_r2_g126_h55_t71 - x_r2_g126 <= 0
 lin2_71_2_126: p_r2_g126_h55_t71 - x_r2_g55 <= 0
 lin3_71_2_126: p_r2_g126_h55_t71 - x_r2_g126 - x_r2_g55 >= -1
 lin1_71_2_157: p_r2_g157_h86_t71 - x_r2_g157 <= 0
 lin2_71_2_157: p_r2_g157_h86_t71 - x_r2_g86 <= 0
 lin3_71_2_157: p_r2_g157_h86_t71 - x_r2_g157 - x_r2_g86 >= -1
 lin1_71_2_162: p_r2_g162_h91_t71 - x_r2_g162 <= 0
 lin2_71_2_162: p_r2_g162_h91_t71 - x_r2_g91 <= 0
 lin3_71_2_162: p_r2_g162_h91_t71 - x_r2_g162 - x_r2_g91 >= -1
 lin1_71_3_22: p_r3_g22_h118_t71 - x_r3_g22 <= 0
 lin2_71_3_22: p_r3_g22_h118_t71 - x_r3_g118 <= 0
 lin3_71_3_22: p_r3_g22_h118_t71 - x_r3_g22 - x_r3_g118 >= -1
 lin1_71_3_53: p_r3_g53_h149_t71 - x_r3_g53 <= 0
 lin2_71_3_53: p_r3_g53_h149_t71 - x_r3_g149 <= 0
 lin3_71_3_53: p_r3_g53_h149_t71 - x_r3_g53 - x_r3_g149 >= -1
 lin1_71_3_60: p_r3_g60_h156_t71 - x_r3_g60 <= 0
 lin2_71_3_60: p_r3_g60_h156_t71 - x_r3_g156 <= 0
 lin3_71_3_60: p_r3_g60_h156_t71 - x_r3_g60 - x_r3_g156 >= -1
 lin1_71_3_62: p_r3_g62_h158_t71 - x_r3_g62 <= 0
 lin2_71_3_62: p_r3_g62_h158_t71 - x_r3_g158 <= 0
 lin3_71_3_62: p_r3_g62_h158_t71 - x_r3_g62 - x_r3_g158 >= -1
 lin1_71_3_96: p_r3_g96_h25_t71 - x_r3_g96 <= 0
 lin2_71_3_96: p_r3_g96_h25_t71 - x_r3_g25 <= 0
 lin3_71_3_96: p_r3_g96_h25_t71 - x_r3_g96 - x_r3_g25 >= -1
 lin1_71_3_124: p_r3_g124_h53_t71 - x_r3_g124 <= 0
 lin2_71_3_124: p_r3_g124_h53_t71 - x_r3_g53 <= 0
 lin3_71_3_124: p_r3_g124_h53_t71 - x_r3_g124 - x_r3_g53 >= -1
 lin1_71_3_154: p_r3_g154_h83_t71 - x_r3_g154 <= 0
 lin2_71_3_154: p_r3_g154_h83_t71 - x_r3_g83 <= 0
 lin3_71_3_154: p_r3_g154_h83_t71 - x_r3_g154 - x_r3_g83 >= -1
 lin1_71_3_158: p_r3_g158_h87_t71 - x_r3_g158 <= 0
 lin2_71_3_158: p_r3_g158_h87_t71 - x_r3_g87 <= 0
 lin3_71_3_158: p_r3_g158_h87_t71 - x_r3_g158 - x_r3_g87 >= -1
 defect_71: 1 d_71 - 1 x_r0_g4 - 1 x_r0_g5 - 1 x_r0_g15 - 2 x_r0_g17 - 1 x_r0_g29 - 1 x_r0_g47 - 1 x_r0_g51 - 1 x_r0_g53 - 1 x_r0_g55 - 2 x_r0_g56 - 1 x_r0_g66 - 1 x_r0_g74 - 1 x_r0_g85 - 1 x_r0_g89 - 1 x_r0_g91 - 1 x_r0_g108 - 1 x_r0_g119 - 1 x_r0_g126 - 1 x_r0_g136 - 1 x_r0_g142 - 1 x_r0_g150 - 2 x_r0_g159 - 1 x_r1_g25 - 1 x_r1_g29 - 2 x_r1_g32 - 1 x_r1_g34 - 2 x_r1_g36 - 1 x_r1_g42 - 1 x_r1_g48 - 1 x_r1_g60 - 2 x_r1_g61 - 1 x_r1_g64 - 1 x_r1_g68 - 1 x_r1_g74 - 1 x_r1_g82 - 1 x_r1_g85 - 1 x_r1_g88 - 1 x_r1_g93 - 1 x_r1_g99 - 1 x_r1_g124 - 1 x_r1_g127 - 1 x_r1_g135 - 1 x_r1_g140 - 1 x_r1_g145 - 2 x_r1_g161 - 2 x_r1_g162 - 1 x_r2_g11 - 1 x_r2_g27 - 1 x_r2_g32 - 1 x_r2_g34 - 1 x_r2_g40 - 2 x_r2_g44 - 1 x_r2_g45 - 1 x_r2_g51 - 1 x_r2_g55 - 1 x_r2_g58 - 1 x_r2_g61 - 1 x_r2_g85 - 1 x_r2_g91 - 1 x_r2_g101 - 1 x_r2_g102 - 1 x_r2_g103 - 1 x_r2_g104 - 1 x_r2_g112 - 2 x_r2_g114 - 1 x_r2_g121 - 1 x_r2_g124 - 1 x_r2_g126 - 2 x_r2_g135 - 1 x_r3_g5 - 2 x_r3_g23 - 1 x_r3_g26 - 1 x_r3_g31 - 1 x_r3_g32 - 1 x_r3_g38 - 1 x_r3_g39 - 1 x_r3_g42 - 2 x_r3_g48 - 1 x_r3_g51 - 2 x_r3_g66 - 1 x_r3_g68 - 1 x_r3_g69 - 2 x_r3_g73 - 2 x_r3_g77 - 1 x_r3_g83 - 1 x_r3_g90 - 1 x_r3_g115 - 1 x_r3_g118 - 1 x_r3_g124 - 1 x_r3_g149 - 2 x_r3_g151 - 1 p_r0_g7_h103_t71 - 1 p_r0_g12_h108_t71 - 1 p_r0_g39_h135_t71 - 1 p_r0_g47_h143_t71 - 1 p_r0_g72_h1_t71 - 1 p_r0_g90_h19_t71 - 1 p_r0_g126_h55_t71 - 1 p_r0_g136_h65_t71 - 1 p_r0_g143_h72_t71 - 1 p_r0_g150_h79_t71 - 1 p_r1_g42_h138_t71 - 1 p_r1_g77_h6_t71 - 1 p_r1_g127_h56_t71 - 1 p_r1_g135_h64_t71 - 1 p_r1_g140_h69_t71 - 1 p_r1_g145_h74_t71 - 1 p_r1_g155_h84_t71 - 1 p_r2_g15_h111_t71 - 1 p_r2_g45_h141_t71 - 1 p_r2_g51_h147_t71 - 1 p_r2_g61_h157_t71 - 1 p_r2_g86_h15_t71 - 1 p_r2_g103_h32_t71 - 1 p_r2_g105_h34_t71 - 1 p_r2_g106_h35_t71 - 1 p_r2_g111_h40_t71 - 1 p_r2_g126_h55_t71 - 1 p_r2_g157_h86_t71 - 1 p_r2_g162_h91_t71 - 1 p_r3_g22_h118_t71 - 1 p_r3_g53_h149_t71 - 1 p_r3_g60_h156_t71 - 1 p_r3_g62_h158_t71 - 1 p_r3_g96_h25_t71 - 1 p_r3_g124_h53_t71 - 1 p_r3_g154_h83_t71 - 1 p_r3_g158_h87_t71 = -72
 abs_pos_71: d_71 - u_71 <= 0
 abs_neg_71: - d_71 - u_71 <= 0
 max_def_71: u_71 - M <= 0
 cap_71: u_71 <= 2
 tier_M_cap: M <= 3
 weighted_cap: 10 u_5 + 10 u_27 + 1 u_34 + 1 u_36 + 1 u_40 + 1 u_44 + 1 u_47 + 1 u_50 + 1 u_56 + 1 u_64 + 1 u_70 + 1 u_71 <= 59
 flip_def: 1 F - 1 x_r0_g1 - 1 x_r0_g4 - 1 x_r0_g10 - 1 x_r0_g17 - 1 x_r0_g29 - 1 x_r0_g39 - 1 x_r0_g53 - 1 x_r0_g56 - 1 x_r0_g57 - 1 x_r0_g66 - 1 x_r0_g72 - 1 x_r0_g79 - 1 x_r0_g85 - 1 x_r0_g89 - 1 x_r0_g93 - 1 x_r0_g108 - 1 x_r0_g112 - 1 x_r0_g135 - 1 x_r0_g140 - 1 x_r0_g150 - 1 x_r1_g6 - 1 x_r1_g21 - 1 x_r1_g34 - 1 x_r1_g35 - 1 x_r1_g48 - 1 x_r1_g60 - 1 x_r1_g61 - 1 x_r1_g74 - 1 x_r1_g77 - 1 x_r1_g85 - 1 x_r1_g93 - 1 x_r1_g94 - 1 x_r1_g99 - 1 x_r1_g104 - 1 x_r1_g129 - 1 x_r1_g135 - 1 x_r1_g143 - 1 x_r1_g145 - 1 x_r1_g161 - 1 x_r1_g162 - 1 x_r2_g11 - 1 x_r2_g13 - 1 x_r2_g15 - 1 x_r2_g32 - 1 x_r2_g35 - 1 x_r2_g40 - 1 x_r2_g44 - 1 x_r2_g51 - 1 x_r2_g55 - 1 x_r2_g91 - 1 x_r2_g93 - 1 x_r2_g95 - 1 x_r2_g103 - 1 x_r2_g106 - 1 x_r2_g111 - 1 x_r2_g124 - 1 x_r2_g133 - 1 x_r2_g135 - 1 x_r2_g147 - 1 x_r2_g162 - 1 x_r3_g21 - 1 x_r3_g24 - 1 x_r3_g25 - 1 x_r3_g31 - 1 x_r3_g34 - 1 x_r3_g42 - 1 x_r3_g48 - 1 x_r3_g51 - 1 x_r3_g60 - 1 x_r3_g69 - 1 x_r3_g73 - 1 x_r3_g77 - 1 x_r3_g87 - 1 x_r3_g90 - 1 x_r3_g96 - 1 x_r3_g115 - 1 x_r3_g125 - 1 x_r3_g153 - 1 x_r3_g156 - 1 x_r3_g158 + 1 x_r0_g5 + 1 x_r0_g7 + 1 x_r0_g11 + 1 x_r0_g12 + 1 x_r0_g15 + 1 x_r0_g19 + 1 x_r0_g47 + 1 x_r0_g51 + 1 x_r0_g55 + 1 x_r0_g65 + 1 x_r0_g74 + 1 x_r0_g90 + 1 x_r0_g91 + 1 x_r0_g103 + 1 x_r0_g119 + 1 x_r0_g126 + 1 x_r0_g136 + 1 x_r0_g142 + 1 x_r0_g143 + 1 x_r0_g159 + 1 x_r1_g1 + 1 x_r1_g25 + 1 x_r1_g26 + 1 x_r1_g29 + 1 x_r1_g32 + 1 x_r1_g36 + 1 x_r1_g42 + 1 x_r1_g56 + 1 x_r1_g64 + 1 x_r1_g68 + 1 x_r1_g69 + 1 x_r1_g82 + 1 x_r1_g84 + 1 x_r1_g88 + 1 x_r1_g124 + 1 x_r1_g127 + 1 x_r1_g138 + 1 x_r1_g140 + 1 x_r1_g155 + 1 x_r1_g163 + 1 x_r2_g21 + 1 x_r2_g27 + 1 x_r2_g34 + 1 x_r2_g45 + 1 x_r2_g58 + 1 x_r2_g61 + 1 x_r2_g74 + 1 x_r2_g83 + 1 x_r2_g85 + 1 x_r2_g86 + 1 x_r2_g101 + 1 x_r2_g102 + 1 x_r2_g104 + 1 x_r2_g105 + 1 x_r2_g112 + 1 x_r2_g114 + 1 x_r2_g121 + 1 x_r2_g126 + 1 x_r2_g141 + 1 x_r2_g157 + 1 x_r3_g5 + 1 x_r3_g20 + 1 x_r3_g22 + 1 x_r3_g23 + 1 x_r3_g26 + 1 x_r3_g32 + 1 x_r3_g38 + 1 x_r3_g39 + 1 x_r3_g45 + 1 x_r3_g53 + 1 x_r3_g62 + 1 x_r3_g66 + 1 x_r3_g68 + 1 x_r3_g83 + 1 x_r3_g118 + 1 x_r3_g124 + 1 x_r3_g149 + 1 x_r3_g151 + 1 x_r3_g154 + 1 x_r3_g166 = 80
 flip_cap: F <= 8
Bounds
 d_5 free
 0 <= u_5
 d_27 free
 0 <= u_27
 d_34 free
 0 <= u_34
 d_36 free
 0 <= u_36
 d_40 free
 0 <= u_40
 d_44 free
 0 <= u_44
 d_47 free
 0 <= u_47
 d_50 free
 0 <= u_50
 d_56 free
 0 <= u_56
 d_64 free
 0 <= u_64
 d_70 free
 0 <= u_70
 d_71 free
 0 <= u_71
 0 <= M
 0 <= F
Binaries
 x_r0_g1
 x_r0_g4
 x_r0_g5
 x_r0_g7
 x_r0_g10
 x_r0_g11
 x_r0_g12
 x_r0_g15
 x_r0_g17
 x_r0_g19
 x_r0_g29
 x_r0_g39
 x_r0_g47
 x_r0_g51
 x_r0_g53
 x_r0_g55
 x_r0_g56
 x_r0_g57
 x_r0_g65
 x_r0_g66
 x_r0_g72
 x_r0_g74
 x_r0_g79
 x_r0_g85
 x_r0_g89
 x_r0_g90
 x_r0_g91
 x_r0_g93
 x_r0_g103
 x_r0_g108
 x_r0_g112
 x_r0_g119
 x_r0_g126
 x_r0_g135
 x_r0_g136
 x_r0_g140
 x_r0_g142
 x_r0_g143
 x_r0_g150
 x_r0_g159
 x_r1_g1
 x_r1_g6
 x_r1_g21
 x_r1_g25
 x_r1_g26
 x_r1_g29
 x_r1_g32
 x_r1_g34
 x_r1_g35
 x_r1_g36
 x_r1_g42
 x_r1_g48
 x_r1_g56
 x_r1_g60
 x_r1_g61
 x_r1_g64
 x_r1_g68
 x_r1_g69
 x_r1_g74
 x_r1_g77
 x_r1_g82
 x_r1_g84
 x_r1_g85
 x_r1_g88
 x_r1_g93
 x_r1_g94
 x_r1_g99
 x_r1_g104
 x_r1_g124
 x_r1_g127
 x_r1_g129
 x_r1_g135
 x_r1_g138
 x_r1_g140
 x_r1_g143
 x_r1_g145
 x_r1_g155
 x_r1_g161
 x_r1_g162
 x_r1_g163
 x_r2_g11
 x_r2_g13
 x_r2_g15
 x_r2_g21
 x_r2_g27
 x_r2_g32
 x_r2_g34
 x_r2_g35
 x_r2_g40
 x_r2_g44
 x_r2_g45
 x_r2_g51
 x_r2_g55
 x_r2_g58
 x_r2_g61
 x_r2_g74
 x_r2_g83
 x_r2_g85
 x_r2_g86
 x_r2_g91
 x_r2_g93
 x_r2_g95
 x_r2_g101
 x_r2_g102
 x_r2_g103
 x_r2_g104
 x_r2_g105
 x_r2_g106
 x_r2_g111
 x_r2_g112
 x_r2_g114
 x_r2_g121
 x_r2_g124
 x_r2_g126
 x_r2_g133
 x_r2_g135
 x_r2_g141
 x_r2_g147
 x_r2_g157
 x_r2_g162
 x_r3_g5
 x_r3_g20
 x_r3_g21
 x_r3_g22
 x_r3_g23
 x_r3_g24
 x_r3_g25
 x_r3_g26
 x_r3_g31
 x_r3_g32
 x_r3_g34
 x_r3_g38
 x_r3_g39
 x_r3_g42
 x_r3_g45
 x_r3_g48
 x_r3_g51
 x_r3_g53
 x_r3_g60
 x_r3_g62
 x_r3_g66
 x_r3_g68
 x_r3_g69
 x_r3_g73
 x_r3_g77
 x_r3_g83
 x_r3_g87
 x_r3_g90
 x_r3_g96
 x_r3_g115
 x_r3_g118
 x_r3_g124
 x_r3_g125
 x_r3_g149
 x_r3_g151
 x_r3_g153
 x_r3_g154
 x_r3_g156
 x_r3_g158
 x_r3_g166
 p_r0_g10_h5_t5
 p_r0_g12_h7_t5
 p_r0_g15_h10_t5
 p_r0_g17_h12_t5
 p_r0_g56_h51_t5
 p_r0_g79_h74_t5
 p_r0_g90_h85_t5
 p_r0_g108_h103_t5
 p_r0_g140_h135_t5
 p_r1_g1_h163_t5
 p_r1_g6_h1_t5
 p_r1_g26_h21_t5
 p_r1_g34_h29_t5
 p_r1_g61_h56_t5
 p_r1_g69_h64_t5
 p_r1_g74_h69_t5
 p_r1_g82_h77_t5
 p_r1_g93_h88_t5
 p_r1_g99_h94_t5
 p_r1_g104_h99_t5
 p_r1_g129_h124_t5
 p_r1_g140_h135_t5
 p_r1_g143_h138_t5
 p_r1_g145_h140_t5
 p_r2_g32_h27_t5
 p_r2_g40_h35_t5
 p_r2_g45_h40_t5
 p_r2_g91_h86_t5
 p_r2_g106_h101_t5
 p_r2_g111_h106_t5
 p_r2_g126_h121_t5
 p_r2_g162_h157_t5
 p_r3_g25_h20_t5
 p_r3_g26_h21_t5
 p_r3_g31_h26_t5
 p_r3_g39_h34_t5
 p_r3_g53_h48_t5
 p_r3_g73_h68_t5
 p_r3_g154_h149_t5
 p_r3_g156_h151_t5
 p_r3_g158_h153_t5
 p_r0_g10_h150_t27
 p_r0_g19_h159_t27
 p_r0_g39_h12_t27
 p_r0_g56_h29_t27
 p_r0_g66_h39_t27
 p_r0_g74_h47_t27
 p_r0_g93_h66_t27
 p_r0_g112_h85_t27
 p_r0_g135_h108_t27
 p_r1_g21_h161_t27
 p_r1_g48_h21_t27
 p_r1_g56_h29_t27
 p_r1_g61_h34_t27
 p_r1_g69_h42_t27
 p_r1_g88_h61_t27
 p_r1_g104_h77_t27
 p_r1_g162_h135_t27
 p_r2_g40_h13_t27
 p_r2_g61_h34_t27
 p_r2_g85_h58_t27
 p_r2_g101_h74_t27
 p_r2_g112_h85_t27
 p_r2_g133_h106_t27
 p_r2_g141_h114_t27
 p_r2_g162_h135_t27
 p_r3_g26_h166_t27
 p_r3_g32_h5_t27
 p_r3_g48_h21_t27
 p_r3_g51_h24_t27
 p_r3_g53_h26_t27
 p_r3_g66_h39_t27
 p_r3_g69_h42_t27
 p_r3_g87_h60_t27
 p_r3_g96_h69_t27
 p_r3_g151_h124_t27
 p_r0_g7_h140_t34
 p_r0_g10_h143_t34
 p_r0_g17_h150_t34
 p_r0_g39_h5_t34
 p_r0_g51_h17_t34
 p_r0_g53_h19_t34
 p_r0_g85_h51_t34
 p_r0_g89_h55_t34
 p_r0_g90_h56_t34
 p_r0_g91_h57_t34
 p_r0_g108_h74_t34
 p_r0_g119_h85_t34
 p_r0_g142_h108_t34
 p_r1_g29_h162_t34
 p_r1_g35_h1_t34
 p_r1_g60_h26_t34
 p_r1_g68_h34_t34
 p_r1_g69_h35_t34
 p_r1_g82_h48_t34
 p_r1_g94_h60_t34
 p_r1_g127_h93_t34
 p_r1_g138_h104_t34
 p_r1_g161_h127_t34
 p_r1_g163_h129_t34
 p_r2_g45_h11_t34
 p_r2_g55_h21_t34
 p_r2_g61_h27_t34
 p_r2_g74_h40_t34
 p_r2_g85_h51_t34
 p_r2_g95_h61_t34
 p_r2_g135_h101_t34
 p_r3_g20_h153_t34
 p_r3_g21_h154_t34
 p_r3_g23_h156_t34
 p_r3_g25_h158_t34
 p_r3_g39_h5_t34
 p_r3_g60_h26_t34
 p_r3_g66_h32_t34
 p_r3_g68_h34_t34
 p_r3_g73_h39_t34
 p_r3_g87_h53_t34
 p_r3_g96_h62_t34
 p_r3_g124_h90_t34
 p_r3_g149_h115_t34
 p_r3_g158_h124_t34
 p_r0_g4_h135_t36
 p_r0_g5_h136_t36
 p_r0_g11_h142_t36
 p_r0_g12_h143_t36
 p_r0_g19_h150_t36
 p_r0_g47_h11_t36
 p_r0_g51_h15_t36
 p_r0_g53_h17_t36
 p_r0_g55_h19_t36
 p_r0_g65_h29_t36
 p_r0_g89_h53_t36
 p_r0_g91_h55_t36
 p_r0_g93_h57_t36
 p_r0_g108_h72_t36
 p_r0_g126_h90_t36
 p_r1_g32_h163_t36
 p_r1_g42_h6_t36
 p_r1_g61_h25_t36
 p_r1_g68_h32_t36
 p_r1_g84_h48_t36
 p_r1_g104_h68_t36
 p_r1_g124_h88_t36
 p_r1_g129_h93_t36
 p_r1_g135_h99_t36
 p_r1_g140_h104_t36
 p_r1_g163_h127_t36
 p_r2_g51_h15_t36
 p_r2_g91_h55_t36
 p_r2_g121_h85_t36
 p_r2_g141_h105_t36
 p_r2_g147_h111_t36
 p_r2_g157_h121_t36
 p_r2_g162_h126_t36
 p_r3_g20_h151_t36
 p_r3_g22_h153_t36
 p_r3_g23_h154_t36
 p_r3_g25_h156_t36
 p_r3_g60_h24_t36
 p_r3_g62_h26_t36
 p_r3_g68_h32_t36
 p_r3_g87_h51_t36
 p_r3_g96_h60_t36
 p_r3_g151_h115_t36
 p_r3_g154_h118_t36
 p_r0_g15_h142_t40
 p_r0_g47_h7_t40
 p_r0_g51_h11_t40
 p_r0_g55_h15_t40
 p_r0_g57_h17_t40
 p_r0_g79_h39_t40
 p_r0_g91_h51_t40
 p_r0_g93_h53_t40
 p_r0_g112_h72_t40
 p_r0_g119_h79_t40
 p_r0_g143_h103_t40
 p_r0_g159_h119_t40
 p_r1_g34_h161_t40
 p_r1_g35_h162_t40
 p_r1_g36_h163_t40
 p_r1_g61_h21_t40
 p_r1_g69_h29_t40
 p_r1_g74_h34_t40
 p_r1_g82_h42_t40
 p_r1_g88_h48_t40
 p_r1_g104_h64_t40
 p_r1_g124_h84_t40
 p_r2_g35_h162_t40
 p_r2_g51_h11_t40
 p_r2_g55_h15_t40
 p_r2_g61_h21_t40
 p_r2_g74_h34_t40
 p_r2_g85_h45_t40
 p_r2_g91_h51_t40
 p_r2_g95_h55_t40
 p_r2_g101_h61_t40
 p_r2_g114_h74_t40
 p_r2_g126_h86_t40
 p_r2_g133_h93_t40
 p_r2_g135_h95_t40
 p_r2_g141_h101_t40
 p_r3_g22_h149_t40
 p_r3_g24_h151_t40
 p_r3_g26_h153_t40
 p_r3_g31_h158_t40
 p_r3_g39_h166_t40
 p_r3_g45_h5_t40
 p_r3_g60_h20_t40
 p_r3_g62_h22_t40
 p_r3_g66_h26_t40
 p_r3_g158_h118_t40
 p_r0_g12_h135_t44
 p_r0_g17_h140_t44
 p_r0_g19_h142_t44
 p_r0_g51_h7_t44
 p_r0_g55_h11_t44
 p_r0_g56_h12_t44
 p_r0_g91_h47_t44
 p_r0_g135_h91_t44
 p_r1_g1_h124_t44
 p_r1_g6_h129_t44
 p_r1_g32_h155_t44
 p_r1_g69_h25_t44
 p_r1_g104_h60_t44
 p_r1_g129_h85_t44
 p_r1_g138_h94_t44
 p_r1_g143_h99_t44
 p_r2_g34_h157_t44
 p_r2_g55_h11_t44
 p_r2_g95_h51_t44
 p_r2_g102_h58_t44
 p_r2_g105_h61_t44
 p_r2_g135_h91_t44
 p_r2_g147_h103_t44
 p_r3_g26_h149_t44
 p_r3_g31_h154_t44
 p_r3_g66_h22_t44
 p_r3_g68_h24_t44
 p_r3_g69_h25_t44
 p_r3_g83_h39_t44
 p_r0_g15_h135_t47
 p_r0_g39_h159_t47
 p_r0_g51_h4_t47
 p_r0_g57_h10_t47
 p_r0_g66_h19_t47
 p_r0_g103_h56_t47
 p_r0_g112_h65_t47
 p_r0_g119_h72_t47
 p_r0_g126_h79_t47
 p_r0_g136_h89_t47
 p_r0_g140_h93_t47
 p_r0_g150_h103_t47
 p_r0_g159_h112_t47
 p_r1_g25_h145_t47
 p_r1_g35_h155_t47
 p_r1_g42_h162_t47
 p_r1_g48_h1_t47
 p_r1_g68_h21_t47
 p_r1_g82_h35_t47
 p_r1_g124_h77_t47
 p_r1_g129_h82_t47
 p_r1_g135_h88_t47
 p_r1_g140_h93_t47
 p_r2_g13_h133_t47
 p_r2_g15_h135_t47
 p_r2_g21_h141_t47
 p_r2_g27_h147_t47
 p_r2_g58_h11_t47
 p_r2_g74_h27_t47
 p_r2_g91_h44_t47
 p_r2_g102_h55_t47
 p_r2_g105_h58_t47
 p_r2_g121_h74_t47
 p_r2_g133_h86_t47
 p_r3_g5_h125_t47
 p_r3_g31_h151_t47
 p_r3_g34_h154_t47
 p_r3_g38_h158_t47
 p_r3_g68_h21_t47
 p_r3_g69_h22_t47
 p_r3_g73_h26_t47
 p_r3_g115_h68_t47
 p_r3_g124_h77_t47
 p_r0_g19_h136_t50
 p_r0_g51_h1_t50
 p_r0_g55_h5_t50
 p_r0_g57_h7_t50
 p_r0_g65_h15_t50
 p_r0_g79_h29_t50
 p_r0_g89_h39_t50
 p_r0_g103_h53_t50
 p_r0_g135_h85_t50
 p_r0_g140_h90_t50
 p_r0_g143_h93_t50
 p_r1_g21_h138_t50
 p_r1_g26_h143_t50
 p_r1_g56_h6_t50
 p_r1_g82_h32_t50
 p_r1_g84_h34_t50
 p_r1_g85_h35_t50
 p_r1_g124_h74_t50
 p_r1_g127_h77_t50
 p_r1_g135_h85_t50
 p_r1_g138_h88_t50
 p_r1_g143_h93_t50
 p_r2_g40_h157_t50
 p_r2_g45_h162_t50
 p_r2_g61_h11_t50
 p_r2_g85_h35_t50
 p_r2_g95_h45_t50
 p_r2_g101_h51_t50
 p_r2_g105_h55_t50
 p_r2_g111_h61_t50
 p_r2_g124_h74_t50
 p_r2_g133_h83_t50
 p_r2_g135_h85_t50
 p_r2_g141_h91_t50
 p_r2_g162_h112_t50
 p_r3_g32_h149_t50
 p_r3_g34_h151_t50
 p_r3_g39_h156_t50
 p_r3_g73_h23_t50
 p_r3_g118_h68_t50
 p_r0_g1_h112_t56
 p_r0_g15_h126_t56
 p_r0_g29_h140_t56
 p_r0_g39_h150_t56
 p_r0_g57_h1_t56
 p_r0_g66_h10_t56
 p_r0_g85_h29_t56
 p_r0_g103_h47_t56
 p_r0_g112_h56_t56
 p_r0_g135_h79_t56
 p_r0_g159_h103_t56
 p_r1_g29_h140_t56
 p_r1_g32_h143_t56
 p_r1_g34_h145_t56
 p_r1_g77_h21_t56
 p_r1_g82_h26_t56
 p_r1_g85_h29_t56
 p_r1_g88_h32_t56
 p_r1_g104_h48_t56
 p_r1_g124_h68_t56
 p_r1_g138_h82_t56
 p_r1_g140_h84_t56
 p_r1_g155_h99_t56
 p_r2_g13_h124_t56
 p_r2_g15_h126_t56
 p_r2_g51_h162_t56
 p_r2_g83_h27_t56
 p_r2_g91_h35_t56
 p_r2_g101_h45_t56
 p_r2_g111_h55_t56
 p_r2_g114_h58_t56
 p_r2_g141_h85_t56
 p_r2_g147_h91_t56
 p_r2_g157_h101_t56
 p_r2_g162_h106_t56
 p_r3_g38_h149_t56
 p_r3_g42_h153_t56
 p_r3_g45_h156_t56
 p_r3_g77_h21_t56
 p_r3_g87_h31_t56
 p_r3_g90_h34_t56
 p_r3_g118_h62_t56
 p_r3_g124_h68_t56
 p_r3_g125_h69_t56
 p_r0_g5_h108_t64
 p_r0_g39_h142_t64
 p_r0_g47_h150_t64
 p_r0_g56_h159_t64
 p_r0_g65_h1_t64
 p_r0_g74_h10_t64
 p_r0_g79_h15_t64
 p_r0_g93_h29_t64
 p_r0_g103_h39_t64
 p_r0_g119_h55_t64
 p_r0_g136_h72_t64
 p_r0_g143_h79_t64
 p_r1_g1_h104_t64
 p_r1_g21_h124_t64
 p_r1_g26_h129_t64
 p_r1_g32_h135_t64
 p_r1_g35_h138_t64
 p_r1_g42_h145_t64
 p_r1_g60_h163_t64
 p_r1_g85_h21_t64
 p_r1_g93_h29_t64
 p_r1_g99_h35_t64
 p_r1_g124_h60_t64
 p_r1_g138_h74_t64
 p_r1_g163_h99_t64
 p_r2_g11_h114_t64
 p_r2_g21_h124_t64
 p_r2_g32_h135_t64
 p_r2_g44_h147_t64
 p_r2_g85_h21_t64
 p_r2_g91_h27_t64
 p_r2_g104_h40_t64
 p_r2_g147_h83_t64
 p_r2_g157_h93_t64
 p_r3_g21_h124_t64
 p_r3_g22_h125_t64
 p_r3_g48_h151_t64
 p_r3_g51_h154_t64
 p_r3_g53_h156_t64
 p_r3_g69_h5_t64
 p_r3_g87_h23_t64
 p_r3_g90_h26_t64
 p_r3_g96_h32_t64
 p_r3_g115_h51_t64
 p_r3_g124_h60_t64
 p_r3_g151_h87_t64
 p_r3_g154_h90_t64
 p_r0_g11_h108_t70
 p_r0_g15_h112_t70
 p_r0_g29_h126_t70
 p_r0_g39_h136_t70
 p_r0_g53_h150_t70
 p_r0_g74_h4_t70
 p_r0_g85_h15_t70
 p_r0_g89_h19_t70
 p_r0_g126_h56_t70
 p_r0_g135_h65_t70
 p_r0_g136_h66_t70
 p_r0_g142_h72_t70
 p_r0_g159_h89_t70
 p_r1_g32_h129_t70
 p_r1_g48_h145_t70
 p_r1_g64_h161_t70
 p_r1_g99_h29_t70
 p_r1_g104_h34_t70
 p_r1_g138_h68_t70
 p_r1_g155_h85_t70
 p_r1_g163_h93_t70
 p_r2_g15_h112_t70
 p_r2_g27_h124_t70
 p_r2_g44_h141_t70
 p_r2_g83_h13_t70
 p_r2_g85_h15_t70
 p_r2_g91_h21_t70
 p_r2_g102_h32_t70
 p_r2_g104_h34_t70
 p_r2_g105_h35_t70
 p_r2_g114_h44_t70
 p_r2_g121_h51_t70
 p_r3_g21_h118_t70
 p_r3_g69_h166_t70
 p_r3_g90_h20_t70
 p_r3_g96_h26_t70
 p_r3_g115_h45_t70
 p_r3_g118_h48_t70
 p_r3_g153_h83_t70
 p_r3_g166_h96_t70
 p_r0_g7_h103_t71
 p_r0_g12_h108_t71
 p_r0_g39_h135_t71
 p_r0_g47_h143_t71
 p_r0_g72_h1_t71
 p_r0_g90_h19_t71
 p_r0_g126_h55_t71
 p_r0_g136_h65_t71
 p_r0_g143_h72_t71
 p_r0_g150_h79_t71
 p_r1_g42_h138_t71
 p_r1_g77_h6_t71
 p_r1_g127_h56_t71
 p_r1_g135_h64_t71
 p_r1_g140_h69_t71
 p_r1_g145_h74_t71
 p_r1_g155_h84_t71
 p_r2_g15_h111_t71
 p_r2_g45_h141_t71
 p_r2_g51_h147_t71
 p_r2_g61_h157_t71
 p_r2_g86_h15_t71
 p_r2_g103_h32_t71
 p_r2_g105_h34_t71
 p_r2_g106_h35_t71
 p_r2_g111_h40_t71
 p_r2_g126_h55_t71
 p_r2_g157_h86_t71
 p_r2_g162_h91_t71
 p_r3_g22_h118_t71
 p_r3_g53_h149_t71
 p_r3_g60_h156_t71
 p_r3_g62_h158_t71
 p_r3_g96_h25_t71
 p_r3_g124_h53_t71
 p_r3_g154_h83_t71
 p_r3_g158_h87_t71
Generals
 d_5
 d_27
 d_34
 d_36
 d_40
 d_44
 d_47
 d_50
 d_56
 d_64
 d_70
 d_71
 u_5
 u_27
 u_34
 u_36
 u_40
 u_44
 u_47
 u_50
 u_56
 u_64
 u_70
 u_71
 M
 F
End
