* #variable= 658 #constraint= 1484
* int d_1 d_8 d_34 d_41 d_43 d_46 d_49 d_67 d_68 d_71 d_73 d_80 u_1 u_8 u_34 u_41 u_43 u_46 u_49 u_67 u_68 u_71 u_73 u_80 M F ;
min: 1 M ;
1 x_r0_g6 1 x_r0_g22 1 x_r0_g23 1 x_r0_g25 1 x_r0_g35 1 x_r0_g39 1 x_r0_g40 1 x_r0_g44 1 x_r0_g46 1 x_r0_g47 1 x_r0_g49 1 x_r0_g50 1 x_r0_g52 1 x_r0_g54 1 x_r0_g57 1 x_r0_g73 1 x_r0_g74 1 x_r0_g75 1 x_r0_g77 1 x_r0_g80 1 x_r0_g88 1 x_r0_g95 1 x_r0_g101 1 x_r0_g103 1 x_r0_g111 1 x_r0_g112 1 x_r0_g116 1 x_r0_g117 1 x_r0_g128 1 x_r0_g132 1 x_r0_g135 1 x_r0_g136 1 x_r0_g137 1 x_r0_g139 1 x_r0_g144 1 x_r0_g150 1 x_r0_g152 1 x_r0_g162 1 x_r0_g163 1 x_r0_g164 = 20 ;
1 x_r1_g0 1 x_r1_g2 1 x_r1_g15 1 x_r1_g16 1 x_r1_g20 1 x_r1_g28 1 x_r1_g29 1 x_r1_g35 1 x_r1_g36 1 x_r1_g38 1 x_r1_g42 1 x_r1_g43 1 x_r1_g44 1 x_r1_g45 1 x_r1_g46 1 x_r1_g48 1 x_r1_g58 1 x_r1_g71 1 x_r1_g76 1 x_r1_g77 1 x_r1_g78 1 x_r1_g89 1 x_r1_g91 1 x_r1_g92 1 x_r1_g94 1 x_r1_g99 1 x_r1_g101 1 x_r1_g104 1 x_r1_g114 1 x_r1_g115 1 x_r1_g116 1 x_r1_g119 1 x_r1_g120 1 x_r1_g128 1 x_r1_g130 1 x_r1_g131 1 x_r1_g138 1 x_r1_g148 1 x_r1_g160 1 x_r1_g164 = 20 ;
1 x_r2_g6 1 x_r2_g7 1 x_r2_g13 1 x_r2_g14 1 x_r2_g22 1 x_r2_g29 1 x_r2_g34 1 x_r2_g35 1 x_r2_g41 1 x_r2_g47 1 x_r2_g56 1 x_r2_g61 1 x_r2_g63 1 x_r2_g75 1 x_r2_g76 1 x_r2_g80 1 x_r2_g84 1 x_r2_g87 1 x_r2_g90 1 x_r2_g93 1 x_r2_g98 1 x_r2_g106 1 x_r2_g107 1 x_r2_g108 1 x_r2_g111 1 x_r2_g112 1 x_r2_g114 1 x_r2_g116 1 x_r2_g118 1 x_r2_g119 1 x_r2_g125 1 x_r2_g127 1 x_r2_g138 1 x_r2_g139 1 x_r2_g141 1 x_r2_g145 1 x_r2_g146 1 x_r2_g149 1 x_r2_g161 1 x_r2_g166 = 20 ;
1 x_r3_g0 1 x_r3_g3 1 x_r3_g4 1 x_r3_g5 1 x_r3_g6 1 x_r3_g7 1 x_r3_g12 1 x_r3_g27 1 x_r3_g29 1 x_r3_g31 1 x_r3_g43 1 x_r3_g44 1 x_r3_g49 1 x_r3_g53 1 x_r3_g54 1 x_r3_g56 1 x_r3_g60 1 x_r3_g61 1 x_r3_g63 1 x_r3_g66 1 x_r3_g77 1 x_r3_g78 1 x_r3_g82 1 x_r3_g83 1 x_r3_g84 1 x_r3_g89 1 x_r3_g97 1 x_r3_g107 1 x_r3_g108 1 x_r3_g121 1 x_r3_g122 1 x_r3_g124 1 x_r3_g125 1 x_r3_g131 1 x_r3_g132 1 x_r3_g136 1 x_r3_g139 1 x_r3_g141 1 x_r3_g145 1 x_r3_g150 = 20 ;
1 p_r0_g23_h22_t1 -1 x_r0_g23 <= 0 ;
1 p_r0_g23_h22_t1 -1 x_r0_g22 <= 0 ;
1 p_r0_g23_h22_t1 -1 x_r0_g23 -1 x_r0_g22 >= -1 ;
1 p_r0_g40_h39_t1 -1 x_r0_g40 <= 0 ;
1 p_r0_g40_h39_t1 -1 x_r0_g39 <= 0 ;
1 p_r0_g40_h39_t1 -1 x_r0_g40 -1 x_r0_g39 >= -1 ;
1 p_r0_g47_h46_t1 -1 x_r0_g47 <= 0 ;
1 p_r0_g47_h46_t1 -1 x_r0_g46 <= 0 ;
1 p_r0_g47_h46_t1 -1 x_r0_g47 -1 x_r0_g46 >= -1 ;
1 p_r0_g50_h49_t1 -1 x_r0_g50 <= 0 ;
1 p_r0_g50_h49_t1 -1 x_r0_g49 <= 0 ;
1 p_r0_g50_h49_t1 -1 x_r0_g50 -1 x_r0_g49 >= -1 ;
1 p_r0_g74_h73_t1 -1 x_r0_g74 <= 0 ;
1 p_r0_g74_h73_t1 -1 x_r0_g73 <= 0 ;
1 p_r0_g74_h73_t1 -1 x_r0_g74 -1 x_r0_g73 >= -1 ;
1 p_r0_g75_h74_t1 -1 x_r0_g75 <= 0 ;
1 p_r0_g75_h74_t1 -1 x_r0_g74 <= 0 ;
1 p_r0_g75_h74_t1 -1 x_r0_g75 -1 x_r0_g74 >= -1 ;
1 p_r0_g112_h111_t1 -1 x_r0_g112 <= 0 ;
1 p_r0_g112_h111_t1 -1 x_r0_g111 <= 0 ;
1 p_r0_g112_h111_t1 -1 x_r0_g112 -1 x_r0_g111 >= -1 ;
1 p_r0_g117_h116_t1 -1 x_r0_g117 <= 0 ;
1 p_r0_g117_h116_t1 -1 x_r0_g116 <= 0 ;
1 p_r0_g117_h116_t1 -1 x_r0_g117 -1 x_r0_g116 >= -1 ;
1 p_r0_g136_h135_t1 -1 x_r0_g136 <= 0 ;
1 p_r0_g136_h135_t1 -1 x_r0_g135 <= 0 ;
1 p_r0_g136_h135_t1 -1 x_r0_g136 -1 x_r0_g135 >= -1 ;
1 p_r0_g137_h136_t1 -1 x_r0_g137 <= 0 ;
1 p_r0_g137_h136_t1 -1 x_r0_g136 <= 0 ;
1 p_r0_g137_h136_t1 -1 x_r0_g137 -1 x_r0_g136 >= -1 ;
1 p_r0_g163_h162_t1 -1 x_r0_g163 <= 0 ;
1 p_r0_g163_h162_t1 -1 x_r0_g162 <= 0 ;
1 p_r0_g163_h162_t1 -1 x_r0_g163 -1 x_r0_g162 >= -1 ;
1 p_r0_g164_h163_t1 -1 x_r0_g164 <= 0 ;
1 p_r0_g164_h163_t1 -1 x_r0_g163 <= 0 ;
1 p_r0_g164_h163_t1 -1 x_r0_g164 -1 x_r0_g163 >= -1 ;
1 p_r1_g16_h15_t1 -1 x_r1_g16 <= 0 ;
1 p_r1_g16_h15_t1 -1 x_r1_g15 <= 0 ;
1 p_r1_g16_h15_t1 -1 x_r1_g16 -1 x_r1_g15 >= -1 ;
1 p_r1_g29_h28_t1 -1 x_r1_g29 <= 0 ;
1 p_r1_g29_h28_t1 -1 x_r1_g28 <= 0 ;
1 p_r1_g29_h28_t1 -1 x_r1_g29 -1 x_r1_g28 >= -1 ;
1 p_r1_g36_h35_t1 -1 x_r1_g36 <= 0 ;
1 p_r1_g36_h35_t1 -1 x_r1_g35 <= 0 ;
1 p_r1_g36_h35_t1 -1 x_r1_g36 -1 x_r1_g35 >= -1 ;
1 p_r1_g43_h42_t1 -1 x_r1_g43 <= 0 ;
1 p_r1_g43_h42_t1 -1 x_r1_g42 <= 0 ;
1 p_r1_g43_h42_t1 -1 x_r1_g43 -1 x_r1_g42 >= -1 ;
1 p_r1_g44_h43_t1 -1 x_r1_g44 <= 0 ;
1 p_r1_g44_h43_t1 -1 x_r1_g43 <= 0 ;
1 p_r1_g44_h43_t1 -1 x_r1_g44 -1 x_r1_g43 >= -1 ;
1 p_r1_g45_h44_t1 -1 x_r1_g45 <= 0 ;
1 p_r1_g45_h44_t1 -1 x_r1_g44 <= 0 ;
1 p_r1_g45_h44_t1 -1 x_r1_g45 -1 x_r1_g44 >= -1 ;
1 p_r1_g46_h45_t1 -1 x_r1_g46 <= 0 ;
1 p_r1_g46_h45_t1 -1 x_r1_g45 <= 0 ;
1 p_r1_g46_h45_t1 -1 x_r1_g46 -1 x_r1_g45 >= -1 ;
1 p_r1_g77_h76_t1 -1 x_r1_g77 <= 0 ;
1 p_r1_g77_h76_t1 -1 x_r1_g76 <= 0 ;
1 p_r1_g77_h76_t1 -1 x_r1_g77 -1 x_r1_g76 >= -1 ;
1 p_r1_g78_h77_t1 -1 x_r1_g78 <= 0 ;
1 p_r1_g78_h77_t1 -1 x_r1_g77 <= 0 ;
1 p_r1_g78_h77_t1 -1 x_r1_g78 -1 x_r1_g77 >= -1 ;
1 p_r1_g92_h91_t1 -1 x_r1_g92 <= 0 ;
1 p_r1_g92_h91_t1 -1 x_r1_g91 <= 0 ;
1 p_r1_g92_h91_t1 -1 x_r1_g92 -1 x_r1_g91 >= -1 ;
1 p_r1_g115_h114_t1 -1 x_r1_g115 <= 0 ;
1 p_r1_g115_h114_t1 -1 x_r1_g114 <= 0 ;
1 p_r1_g115_h114_t1 -1 x_r1_g115 -1 x_r1_g114 >= -1 ;
1 p_r1_g116_h115_t1 -1 x_r1_g116 <= 0 ;
1 p_r1_g116_h115_t1 -1 x_r1_g115 <= 0 ;
1 p_r1_g116_h115_t1 -1 x_r1_g116 -1 x_r1_g115 >= -1 ;
1 p_r1_g120_h119_t1 -1 x_r1_g120 <= 0 ;
1 p_r1_g120_h119_t1 -1 x_r1_g119 <= 0 ;
1 p_r1_g120_h119_t1 -1 x_r1_g120 -1 x_r1_g119 >= -1 ;
1 p_r1_g131_h130_t1 -1 x_r1_g131 <= 0 ;
1 p_r1_g131_h130_t1 -1 x_r1_g130 <= 0 ;
1 p_r1_g131_h130_t1 -1 x_r1_g131 -1 x_r1_g130 >= -1 ;
1 p_r2_g7_h6_t1 -1 x_r2_g7 <= 0 ;
1 p_r2_g7_h6_t1 -1 x_r2_g6 <= 0 ;
1 p_r2_g7_h6_t1 -1 x_r2_g7 -1 x_r2_g6 >= -1 ;
1 p_r2_g14_h13_t1 -1 x_r2_g14 <= 0 ;
1 p_r2_g14_h13_t1 -1 x_r2_g13 <= 0 ;
1 p_r2_g14_h13_t1 -1 x_r2_g14 -1 x_r2_g13 >= -1 ;
1 p_r2_g35_h34_t1 -1 x_r2_g35 <= 0 ;
1 p_r2_g35_h34_t1 -1 x_r2_g34 <= 0 ;
1 p_r2_g35_h34_t1 -1 x_r2_g35 -1 x_r2_g34 >= -1 ;
1 p_r2_g76_h75_t1 -1 x_r2_g76 <= 0 ;
1 p_r2_g76_h75_t1 -1 x_r2_g75 <= 0 ;
1 p_r2_g76_h75_t1 -1 x_r2_g76 -1 x_r2_g75 >= -1 ;
1 p_r2_g107_h106_t1 -1 x_r2_g107 <= 0 ;
1 p_r2_g107_h106_t1 -1 x_r2_g106 <= 0 ;
1 p_r2_g107_h106_t1 -1 x_r2_g107 -1 x_r2_g106 >= -1 ;
1 p_r2_g108_h107_t1 -1 x_r2_g108 <= 0 ;
1 p_r2_g108_h107_t1 -1 x_r2_g107 <= 0 ;
1 p_r2_g108_h107_t1 -1 x_r2_g108 -1 x_r2_g107 >= -1 ;
1 p_r2_g112_h111_t1 -1 x_r2_g112 <= 0 ;
1 p_r2_g112_h111_t1 -1 x_r2_g111 <= 0 ;
1 p_r2_g112_h111_t1 -1 x_r2_g112 -1 x_r2_g111 >= -1 ;
1 p_r2_g119_h118_t1 -1 x_r2_g119 <= 0 ;
1 p_r2_g119_h118_t1 -1 x_r2_g118 <= 0 ;
1 p_r2_g119_h118_t1 -1 x_r2_g119 -1 x_r2_g118 >= -1 ;
1 p_r2_g139_h138_t1 -1 x_r2_g139 <= 0 ;
1 p_r2_g139_h138_t1 -1 x_r2_g138 <= 0 ;
1 p_r2_g139_h138_t1 -1 x_r2_g139 -1 x_r2_g138 >= -1 ;
1 p_r2_g146_h145_t1 -1 x_r2_g146 <= 0 ;
1 p_r2_g146_h145_t1 -1 x_r2_g145 <= 0 ;
1 p_r2_g146_h145_t1 -1 x_r2_g146 -1 x_r2_g145 >= -1 ;
1 p_r3_g4_h3_t1 -1 x_r3_g4 <= 0 ;
1 p_r3_g4_h3_t1 -1 x_r3_g3 <= 0 ;
1 p_r3_g4_h3_t1 -1 x_r3_g4 -1 x_r3_g3 >= -1 ;
1 p_r3_g5_h4_t1 -1 x_r3_g5 <= 0 ;
1 p_r3_g5_h4_t1 -1 x_r3_g4 <= 0 ;
1 p_r3_g5_h4_t1 -1 x_r3_g5 -1 x_r3_g4 >= -1 ;
1 p_r3_g6_h5_t1 -1 x_r3_g6 <= 0 ;
1 p_r3_g6_h5_t1 -1 x_r3_g5 <= 0 ;
1 p_r3_g6_h5_t1 -1 x_r3_g6 -1 x_r3_g5 >= -1 ;
1 p_r3_g7_h6_t1 -1 x_r3_g7 <= 0 ;
1 p_r3_g7_h6_t1 -1 x_r3_g6 <= 0 ;
1 p_r3_g7_h6_t1 -1 x_r3_g7 -1 x_r3_g6 >= -1 ;
1 p_r3_g44_h43_t1 -1 x_r3_g44 <= 0 ;
1 p_r3_g44_h43_t1 -1 x_r3_g43 <= 0 ;
1 p_r3_g44_h43_t1 -1 x_r3_g44 -1 x_r3_g43 >= -1 ;
1 p_r3_g54_h53_t1 -1 x_r3_g54 <= 0 ;
1 p_r3_g54_h53_t1 -1 x_r3_g53 <= 0 ;
1 p_r3_g54_h53_t1 -1 x_r3_g54 -1 x_r3_g53 >= -1 ;
1 p_r3_g61_h60_t1 -1 x_r3_g61 <= 0 ;
1 p_r3_g61_h60_t1 -1 x_r3_g60 <= 0 ;
1 p_r3_g61_h60_t1 -1 x_r3_g61 -1 x_r3_g60 >= -1 ;
1 p_r3_g78_h77_t1 -1 x_r3_g78 <= 0 ;
1 p_r3_g78_h77_t1 -1 x_r3_g77 <= 0 ;
1 p_r3_g78_h77_t1 -1 x_r3_g78 -1 x_r3_g77 >= -1 ;
1 p_r3_g83_h82_t1 -1 x_r3_g83 <= 0 ;
1 p_r3_g83_h82_t1 -1 x_r3_g82 <= 0 ;
1 p_r3_g83_h82_t1 -1 x_r3_g83 -1 x_r3_g82 >= -1 ;
1 p_r3_g84_h83_t1 -1 x_r3_g84 <= 0 ;
1 p_r3_g84_h83_t1 -1 x_r3_g83 <= 0 ;
1 p_r3_g84_h83_t1 -1 x_r3_g84 -1 x_r3_g83 >= -1 ;
1 p_r3_g108_h107_t1 -1 x_r3_g108 <= 0 ;
1 p_r3_g108_h107_t1 -1 x_r3_g107 <= 0 ;
1 p_r3_g108_h107_t1 -1 x_r3_g108 -1 x_r3_g107 >= -1 ;
1 p_r3_g122_h121_t1 -1 x_r3_g122 <= 0 ;
1 p_r3_g122_h121_t1 -1 x_r3_g121 <= 0 ;
1 p_r3_g122_h121_t1 -1 x_r3_g122 -1 x_r3_g121 >= -1 ;
1 p_r3_g125_h124_t1 -1 x_r3_g125 <= 0 ;
1 p_r3_g125_h124_t1 -1 x_r3_g124 <= 0 ;
1 p_r3_g125_h124_t1 -1 x_r3_g125 -1 x_r3_g124 >= -1 ;
1 p_r3_g132_h131_t1 -1 x_r3_g132 <= 0 ;
1 p_r3_g132_h131_t1 -1 x_r3_g131 <= 0 ;
1 p_r3_g132_h131_t1 -1 x_r3_g132 -1 x_r3_g131 >= -1 ;
1 d_1 -2 x_r0_g6 -2 x_r0_g35 -1 x_r0_g39 -2 x_r0_g44 -1 x_r0_g46 -1 x_r0_g47 -1 x_r0_g49 -1 x_r0_g50 -1 x_r0_g52 -1 x_r0_g54 -1 x_r0_g57 -2 x_r0_g101 -1 x_r0_g103 -1 x_r0_g112 -1 x_r0_g117 -1 x_r0_g128 -1 x_r0_g132 -1 x_r0_g144 -2 x_r0_g150 -1 x_r0_g152 -1 x_r0_g164 -2 x_r1_g0 -2 x_r1_g2 -1 x_r1_g28 -1 x_r1_g36 -2 x_r1_g38 -1 x_r1_g48 -1 x_r1_g58 -1 x_r1_g71 -1 x_r1_g78 -2 x_r1_g89 -1 x_r1_g91 -1 x_r1_g94 -2 x_r1_g99 -1 x_r1_g101 -1 x_r1_g104 -1 x_r1_g114 -1 x_r1_g128 -1 x_r1_g131 -1 x_r1_g160 -1 x_r1_g164 -1 x_r2_g22 -2 x_r2_g29 -1 x_r2_g34 -2 x_r2_g47 -1 x_r2_g61 -1 x_r2_g63 -1 x_r2_g75 -2 x_r2_g84 -1 x_r2_g87 -1 x_r2_g93 -1 x_r2_g106 -1 x_r2_g111 -1 x_r2_g112 -2 x_r2_g114 -1 x_r2_g116 -1 x_r2_g119 -1 x_r2_g125 -2 x_r2_g127 -1 x_r2_g138 -1 x_r2_g139 -1 x_r2_g141 -2 x_r2_g149 -1 x_r2_g161 -2 x_r2_g166 -2 x_r3_g0 -1 x_r3_g3 -1 x_r3_g7 -1 x_r3_g12 -2 x_r3_g27 -2 x_r3_g29 -2 x_r3_g31 -1 x_r3_g44 -1 x_r3_g54 -1 x_r3_g56 -1 x_r3_g60 -1 x_r3_g61 -1 x_r3_g63 -1 x_r3_g66 -1 x_r3_g77 -1 x_r3_g82 -1 x_r3_g97 -1 x_r3_g107 -1 x_r3_g122 -1 x_r3_g124 -1 x_r3_g136 -2 x_r3_g139 -2 x_r3_g141 -1 x_r3_g145 -2 x_r3_g150 -1 p_r0_g23_h22_t1 -1 p_r0_g40_h39_t1 -1 p_r0_g47_h46_t1 -1 p_r0_g50_h49_t1 -1 p_r0_g74_h73_t1 -1 p_r0_g75_h74_t1 -1 p_r0_g112_h111_t1 -1 p_r0_g117_h116_t1 -1 p_r0_g136_h135_t1 -1 p_r0_g137_h136_t1 -1 p_r0_g163_h162_t1 -1 p_r0_g164_h163_t1 -1 p_r1_g16_h15_t1 -1 p_r1_g29_h28_t1 -1 p_r1_g36_h35_t1 -1 p_r1_g43_h42_t1 -1 p_r1_g44_h43_t1 -1 p_r1_g45_h44_t1 -1 p_r1_g46_h45_t1 -1 p_r1_g77_h76_t1 -1 p_r1_g78_h77_t1 -1 p_r1_g92_h91_t1 -1 p_r1_g115_h114_t1 -1 p_r1_g116_h115_t1 -1 p_r1_g120_h119_t1 -1 p_r1_g131_h130_t1 -1 p_r2_g7_h6_t1 -1 p_r2_g14_h13_t1 -1 p_r2_g35_h34_t1 -1 p_r2_g76_h75_t1 -1 p_r2_g107_h106_t1 -1 p_r2_g108_h107_t1 -1 p_r2_g112_h111_t1 -1 p_r2_g119_h118_t1 -1 p_r2_g139_h138_t1 -1 p_r2_g146_h145_t1 -1 p_r3_g4_h3_t1 -1 p_r3_g5_h4_t1 -1 p_r3_g6_h5_t1 -1 p_r3_g7_h6_t1 -1 p_r3_g44_h43_t1 -1 p_r3_g54_h53_t1 -1 p_r3_g61_h60_t1 -1 p_r3_g78_h77_t1 -1 p_r3_g83_h82_t1 -1 p_r3_g84_h83_t1 -1 p_r3_g108_h107_t1 -1 p_r3_g122_h121_t1 -1 p_r3_g125_h124_t1 -1 p_r3_g132_h131_t1 = -55 ;
1 d_1 -1 u_1 <= 0 ;
-1 d_1 -1 u_1 <= 0 ;
1 u_1 -1 M <= 0 ;
1 u_1 <= 2 ;
1 p_r0_g47_h39_t8 -1 x_r0_g47 <= 0 ;
1 p_r0_g47_h39_t8 -1 x_r0_g39 <= 0 ;
1 p_r0_g47_h39_t8 -1 x_r0_g47 -1 x_r0_g39 >= -1 ;
1 p_r0_g52_h44_t8 -1 x_r0_g52 <= 0 ;
1 p_r0_g52_h44_t8 -1 x_r0_g44 <= 0 ;
1 p_r0_g52_h44_t8 -1 x_r0_g52 -1 x_r0_g44 >= -1 ;
1 p_r0_g54_h46_t8 -1 x_r0_g54 <= 0 ;
1 p_r0_g54_h46_t8 -1 x_r0_g46 <= 0 ;
1 p_r0_g54_h46_t8 -1 x_r0_g54 -1 x_r0_g46 >= -1 ;
1 p_r0_g57_h49_t8 -1 x_r0_g57 <= 0 ;
1 p_r0_g57_h49_t8 -1 x_r0_g49 <= 0 ;
1 p_r0_g57_h49_t8 -1 x_r0_g57 -1 x_r0_g49 >= -1 ;
1 p_r0_g88_h80_t8 -1 x_r0_g88 <= 0 ;
1 p_r0_g88_h80_t8 -1 x_r0_g80 <= 0 ;
1 p_r0_g88_h80_t8 -1 x_r0_g88 -1 x_r0_g80 >= -1 ;
1 p_r0_g103_h95_t8 -1 x_r0_g103 <= 0 ;
1 p_r0_g103_h95_t8 -1 x_r0_g95 <= 0 ;
1 p_r0_g103_h95_t8 -1 x_r0_g103 -1 x_r0_g95 >= -1 ;
1 p_r0_g111_h103_t8 -1 x_r0_g111 <= 0 ;
1 p_r0_g111_h103_t8 -1 x_r0_g103 <= 0 ;
1 p_r0_g111_h103_t8 -1 x_r0_g111 -1 x_r0_g103 >= -1 ;
1 p_r0_g136_h128_t8 -1 x_r0_g136 <= 0 ;
1 p_r0_g136_h128_t8 -1 x_r0_g128 <= 0 ;
1 p_r0_g136_h128_t8 -1 x_r0_g136 -1 x_r0_g128 >= -1 ;
1 p_r0_g144_h136_t8 -1 x_r0_g144 <= 0 ;
1 p_r0_g144_h136_t8 -1 x_r0_g136 <= 0 ;
1 p_r0_g144_h136_t8 -1 x_r0_g144 -1 x_r0_g136 >= -1 ;
1 p_r0_g152_h144_t8 -1 x_r0_g152 <= 0 ;
1 p_r0_g152_h144_t8 -1 x_r0_g144 <= 0 ;
1 p_r0_g152_h144_t8 -1 x_r0_g152 -1 x_r0_g144 >= -1 ;
1 p_r1_g28_h20_t8 -1 x_r1_g28 <= 0 ;
1 p_r1_g28_h20_t8 -1 x_r1_g20 <= 0 ;
1 p_r1_g28_h20_t8 -1 x_r1_g28 -1 x_r1_g20 >= -1 ;
1 p_r1_g36_h28_t8 -1 x_r1_g36 <= 0 ;
1 p_r1_g36_h28_t8 -1 x_r1_g28 <= 0 ;
1 p_r1_g36_h28_t8 -1 x_r1_g36 -1 x_r1_g28 >= -1 ;
1 p_r1_g43_h35_t8 -1 x_r1_g43 <= 0 ;
1 p_r1_g43_h35_t8 -1 x_r1_g35 <= 0 ;
1 p_r1_g43_h35_t8 -1 x_r1_g43 -1 x_r1_g35 >= -1 ;
1 p_r1_g44_h36_t8 -1 x_r1_g44 <= 0 ;
1 p_r1_g44_h36_t8 -1 x_r1_g36 <= 0 ;
1 p_r1_g44_h36_t8 -1 x_r1_g44 -1 x_r1_g36 >= -1 ;
1 p_r1_g46_h38_t8 -1 x_r1_g46 <= 0 ;
1 p_r1_g46_h38_t8 -1 x_r1_g38 <= 0 ;
1 p_r1_g46_h38_t8 -1 x_r1_g46 -1 x_r1_g38 >= -1 ;
1 p_r1_g99_h91_t8 -1 x_r1_g99 <= 0 ;
1 p_r1_g99_h91_t8 -1 x_r1_g91 <= 0 ;
1 p_r1_g99_h91_t8 -1 x_r1_g99 -1 x_r1_g91 >= -1 ;
1 p_r1_g128_h120_t8 -1 x_r1_g128 <= 0 ;
1 p_r1_g128_h120_t8 -1 x_r1_g120 <= 0 ;
1 p_r1_g128_h120_t8 -1 x_r1_g128 -1 x_r1_g120 >= -1 ;
1 p_r1_g138_h130_t8 -1 x_r1_g138 <= 0 ;
1 p_r1_g138_h130_t8 -1 x_r1_g130 <= 0 ;
1 p_r1_g138_h130_t8 -1 x_r1_g138 -1 x_r1_g130 >= -1 ;
1 p_r2_g7_h166_t8 -1 x_r2_g7 <= 0 ;
1 p_r2_g7_h166_t8 -1 x_r2_g166 <= 0 ;
1 p_r2_g7_h166_t8 -1 x_r2_g7 -1 x_r2_g166 >= -1 ;
1 p_r2_g14_h6_t8 -1 x_r2_g14 <= 0 ;
1 p_r2_g14_h6_t8 -1 x_r2_g6 <= 0 ;
1 p_r2_g14_h6_t8 -1 x_r2_g14 -1 x_r2_g6 >= -1 ;
1 p_r2_g22_h14_t8 -1 x_r2_g22 <= 0 ;
1 p_r2_g22_h14_t8 -1 x_r2_g14 <= 0 ;
1 p_r2_g22_h14_t8 -1 x_r2_g22 -1 x_r2_g14 >= -1 ;
1 p_r2_g84_h76_t8 -1 x_r2_g84 <= 0 ;
1 p_r2_g84_h76_t8 -1 x_r2_g76 <= 0 ;
1 p_r2_g84_h76_t8 -1 x_r2_g84 -1 x_r2_g76 >= -1 ;
1 p_r2_g98_h90_t8 -1 x_r2_g98 <= 0 ;
1 p_r2_g98_h90_t8 -1 x_r2_g90 <= 0 ;
1 p_r2_g98_h90_t8 -1 x_r2_g98 -1 x_r2_g90 >= -1 ;
1 p_r2_g106_h98_t8 -1 x_r2_g106 <= 0 ;
1 p_r2_g106_h98_t8 -1 x_r2_g98 <= 0 ;
1 p_r2_g106_h98_t8 -1 x_r2_g106 -1 x_r2_g98 >= -1 ;
1 p_r2_g114_h106_t8 -1 x_r2_g114 <= 0 ;
1 p_r2_g114_h106_t8 -1 x_r2_g106 <= 0 ;
1 p_r2_g114_h106_t8 -1 x_r2_g114 -1 x_r2_g106 >= -1 ;
1 p_r2_g116_h108_t8 -1 x_r2_g116 <= 0 ;
1 p_r2_g116_h108_t8 -1 x_r2_g108 <= 0 ;
1 p_r2_g116_h108_t8 -1 x_r2_g116 -1 x_r2_g108 >= -1 ;
1 p_r2_g119_h111_t8 -1 x_r2_g119 <= 0 ;
1 p_r2_g119_h111_t8 -1 x_r2_g111 <= 0 ;
1 p_r2_g119_h111_t8 -1 x_r2_g119 -1 x_r2_g111 >= -1 ;
1 p_r2_g127_h119_t8 -1 x_r2_g127 <= 0 ;
1 p_r2_g127_h119_t8 -1 x_r2_g119 <= 0 ;
1 p_r2_g127_h119_t8 -1 x_r2_g127 -1 x_r2_g119 >= -1 ;
1 p_r2_g146_h138_t8 -1 x_r2_g146 <= 0 ;
1 p_r2_g146_h138_t8 -1 x_r2_g138 <= 0 ;
1 p_r2_g146_h138_t8 -1 x_r2_g146 -1 x_r2_g138 >= -1 ;
1 p_r2_g149_h141_t8 -1 x_r2_g149 <= 0 ;
1 p_r2_g149_h141_t8 -1 x_r2_g141 <= 0 ;
1 p_r2_g149_h141_t8 -1 x_r2_g149 -1 x_r2_g141 >= -1 ;
1 p_r3_g12_h4_t8 -1 x_r3_g12 <= 0 ;
1 p_r3_g12_h4_t8 -1 x_r3_g4 <= 0 ;
1 p_r3_g12_h4_t8 -1 x_r3_g12 -1 x_r3_g4 >= -1 ;
1 p_r3_g61_h53_t8 -1 x_r3_g61 <= 0 ;
1 p_r3_g61_h53_t8 -1 x_r3_g53 <= 0 ;
1 p_r3_g61_h53_t8 -1 x_r3_g61 -1 x_r3_g53 >= -1 ;
1 p_r3_g97_h89_t8 -1 x_r3_g97 <= 0 ;
1 p_r3_g97_h89_t8 -1 x_r3_g89 <= 0 ;
1 p_r3_g97_h89_t8 -1 x_r3_g97 -1 x_r3_g89 >= -1 ;
1 p_r3_g132_h124_t8 -1 x_r3_g132 <= 0 ;
1 p_r3_g132_h124_t8 -1 x_r3_g124 <= 0 ;
1 p_r3_g132_h124_t8 -1 x_r3_g132 -1 x_r3_g124 >= -1 ;
1 p_r3_g139_h131_t8 -1 x_r3_g139 <= 0 ;
1 p_r3_g139_h131_t8 -1 x_r3_g131 <= 0 ;
1 p_r3_g139_h131_t8 -1 x_r3_g139 -1 x_r3_g131 >= -1 ;
1 d_8 -2 x_r0_g6 -2 x_r0_g22 -1 x_r0_g23 -1 x_r0_g35 -1 x_r0_g40 -1 x_r0_g44 -1 x_r0_g46 -1 x_r0_g47 -2 x_r0_g50 -1 x_r0_g54 -1 x_r0_g57 -1 x_r0_g73 -1 x_r0_g75 -1 x_r0_g111 -1 x_r0_g112 -1 x_r0_g117 -1 x_r0_g128 -2 x_r0_g135 -1 x_r0_g139 -2 x_r0_g150 -1 x_r0_g152 -1 x_r0_g162 -1 x_r0_g163 -1 x_r0_g164 -1 x_r1_g0 -1 x_r1_g2 -1 x_r1_g29 -1 x_r1_g35 -2 x_r1_g45 -2 x_r1_g48 -1 x_r1_g58 -1 x_r1_g71 -2 x_r1_g76 -1 x_r1_g77 -1 x_r1_g78 -1 x_r1_g89 -2 x_r1_g92 -1 x_r1_g99 -1 x_r1_g101 -2 x_r1_g104 -2 x_r1_g115 -2 x_r1_g116 -1 x_r1_g119 -1 x_r1_g120 -1 x_r1_g131 -1 x_r1_g138 -2 x_r1_g148 -1 x_r1_g160 -1 x_r1_g164 -1 x_r2_g6 -1 x_r2_g13 -1 x_r2_g22 -1 x_r2_g29 -1 x_r2_g34 -2 x_r2_g35 -2 x_r2_g41 -1 x_r2_g47 -2 x_r2_g56 -1 x_r2_g75 -1 x_r2_g76 -1 x_r2_g90 -2 x_r2_g93 -1 x_r2_g107 -2 x_r2_g112 -1 x_r2_g114 -2 x_r2_g118 -1 x_r2_g138 -2 x_r2_g145 -1 x_r2_g149 -1 x_r2_g161 -1 x_r2_g166 -1 x_r3_g0 -1 x_r3_g3 -1 x_r3_g4 -1 x_r3_g5 -1 x_r3_g7 -1 x_r3_g12 -1 x_r3_g27 -1 x_r3_g29 -1 x_r3_g31 -1 x_r3_g44 -1 x_r3_g49 -1 x_r3_g53 -2 x_r3_g54 -1 x_r3_g60 -1 x_r3_g63 -1 x_r3_g66 -1 x_r3_g78 -1 x_r3_g82 -1 x_r3_g83 -1 x_r3_g84 -1 x_r3_g89 -1 x_r3_g107 -1 x_r3_g121 -1 x_r3_g131 -1 x_r3_g132 -2 x_r3_g136 -1 x_r3_g141 -1 x_r3_g145 -1 x_r3_g150 -1 p_r0_g47_h39_t8 -1 p_r0_g52_h44_t8 -1 p_r0_g54_h46_t8 -1 p_r0_g57_h49_t8 -1 p_r0_g88_h80_t8 -1 p_r0_g103_h95_t8 -1 p_r0_g111_h103_t8 -1 p_r0_g136_h128_t8 -1 p_r0_g144_h136_t8 -1 p_r0_g152_h144_t8 -1 p_r1_g28_h20_t8 -1 p_r1_g36_h28_t8 -1 p_r1_g43_h35_t8 -1 p_r1_g44_h36_t8 -1 p_r1_g46_h38_t8 -1 p_r1_g99_h91_t8 -1 p_r1_g128_h120_t8 -1 p_r1_g138_h130_t8 -1 p_r2_g7_h166_t8 -1 p_r2_g14_h6_t8 -1 p_r2_g22_h14_t8 -1 p_r2_g84_h76_t8 -1 p_r2_g98_h90_t8 -1 p_r2_g106_h98_t8 -1 p_r2_g114_h106_t8 -1 p_r2_g116_h108_t8 -1 p_r2_g119_h111_t8 -1 p_r2_g127_h119_t8 -1 p_r2_g146_h138_t8 -1 p_r2_g149_h141_t8 -1 p_r3_g12_h4_t8 -1 p_r3_g61_h53_t8 -1 p_r3_g97_h89_t8 -1 p_r3_g132_h124_t8 -1 p_r3_g139_h131_t8 = -52 ;
1 d_8 -1 u_8 <= 0 ;
-1 d_8 -1 u_8 <= 0 ;
1 u_8 -1 M <= 0 ;
1 u_8 <= 2 ;
1 p_r0_g6_h139_t34 -1 x_r0_g6 <= 0 ;
1 p_r0_g6_h139_t34 -1 x_r0_g139 <= 0 ;
1 p_r0_g6_h139_t34 -1 x_r0_g6 -1 x_r0_g139 >= -1 ;
1 p_r0_g40_h6_t34 -1 x_r0_g40 <= 0 ;
1 p_r0_g40_h6_t34 -1 x_r0_g6 <= 0 ;
1 p_r0_g40_h6_t34 -1 x_r0_g40 -1 x_r0_g6 >= -1 ;
1 p_r0_g57_h23_t34 -1 x_r0_g57 <= 0 ;
1 p_r0_g57_h23_t34 -1 x_r0_g23 <= 0 ;
1 p_r0_g57_h23_t34 -1 x_r0_g57 -1 x_r0_g23 >= -1 ;
1 p_r0_g73_h39_t34 -1 x_r0_g73 <= 0 ;
1 p_r0_g73_h39_t34 -1 x_r0_g39 <= 0 ;
1 p_r0_g73_h39_t34 -1 x_r0_g73 -1 x_r0_g39 >= -1 ;
1 p_r0_g74_h40_t34 -1 x_r0_g74 <= 0 ;
1 p_r0_g74_h40_t34 -1 x_r0_g40 <= 0 ;
1 p_r0_g74_h40_t34 -1 x_r0_g74 -1 x_r0_g40 >= -1 ;
1 p_r0_g80_h46_t34 -1 x_r0_g80 <= 0 ;
1 p_r0_g80_h46_t34 -1 x_r0_g46 <= 0 ;
1 p_r0_g80_h46_t34 -1 x_r0_g80 -1 x_r0_g46 >= -1 ;
1 p_r0_g88_h54_t34 -1 x_r0_g88 <= 0 ;
1 p_r0_g88_h54_t34 -1 x_r0_g54 <= 0 ;
1 p_r0_g88_h54_t34 -1 x_r0_g88 -1 x_r0_g54 >= -1 ;
1 p_r0_g111_h77_t34 -1 x_r0_g111 <= 0 ;
1 p_r0_g111_h77_t34 -1 x_r0_g77 <= 0 ;
1 p_r0_g111_h77_t34 -1 x_r0_g111 -1 x_r0_g77 >= -1 ;
1 p_r0_g135_h101_t34 -1 x_r0_g135 <= 0 ;
1 p_r0_g135_h101_t34 -1 x_r0_g101 <= 0 ;
1 p_r0_g135_h101_t34 -1 x_r0_g135 -1 x_r0_g101 >= -1 ;
1 p_r0_g137_h103_t34 -1 x_r0_g137 <= 0 ;
1 p_r0_g137_h103_t34 -1 x_r0_g103 <= 0 ;
1 p_r0_g137_h103_t34 -1 x_r0_g137 -1 x_r0_g103 >= -1 ;
1 p_r0_g150_h116_t34 -1 x_r0_g150 <= 0 ;
1 p_r0_g150_h116_t34 -1 x_r0_g116 <= 0 ;
1 p_r0_g150_h116_t34 -1 x_r0_g150 -1 x_r0_g116 >= -1 ;
1 p_r0_g162_h128_t34 -1 x_r0_g162 <= 0 ;
1 p_r0_g162_h128_t34 -1 x_r0_g128 <= 0 ;
1 p_r0_g162_h128_t34 -1 x_r0_g162 -1 x_r0_g128 >= -1 ;
1 p_r1_g15_h148_t34 -1 x_r1_g15 <= 0 ;
1 p_r1_g15_h148_t34 -1 x_r1_g148 <= 0 ;
1 p_r1_g15_h148_t34 -1 x_r1_g15 -1 x_r1_g148 >= -1 ;
1 p_r1_g36_h2_t34 -1 x_r1_g36 <= 0 ;
1 p_r1_g36_h2_t34 -1 x_r1_g2 <= 0 ;
1 p_r1_g36_h2_t34 -1 x_r1_g36 -1 x_r1_g2 >= -1 ;
1 p_r1_g76_h42_t34 -1 x_r1_g76 <= 0 ;
1 p_r1_g76_h42_t34 -1 x_r1_g42 <= 0 ;
1 p_r1_g76_h42_t34 -1 x_r1_g76 -1 x_r1_g42 >= -1 ;
1 p_r1_g77_h43_t34 -1 x_r1_g77 <= 0 ;
1 p_r1_g77_h43_t34 -1 x_r1_g43 <= 0 ;
1 p_r1_g77_h43_t34 -1 x_r1_g77 -1 x_r1_g43 >= -1 ;
1 p_r1_g78_h44_t34 -1 x_r1_g78 <= 0 ;
1 p_r1_g78_h44_t34 -1 x_r1_g44 <= 0 ;
1 p_r1_g78_h44_t34 -1 x_r1_g78 -1 x_r1_g44 >= -1 ;
1 p_r1_g92_h58_t34 -1 x_r1_g92 <= 0 ;
1 p_r1_g92_h58_t34 -1 x_r1_g58 <= 0 ;
1 p_r1_g92_h58_t34 -1 x_r1_g92 -1 x_r1_g58 >= -1 ;
1 p_r1_g128_h94_t34 -1 x_r1_g128 <= 0 ;
1 p_r1_g128_h94_t34 -1 x_r1_g94 <= 0 ;
1 p_r1_g128_h94_t34 -1 x_r1_g128 -1 x_r1_g94 >= -1 ;
1 p_r1_g138_h104_t34 -1 x_r1_g138 <= 0 ;
1 p_r1_g138_h104_t34 -1 x_r1_g104 <= 0 ;
1 p_r1_g138_h104_t34 -1 x_r1_g138 -1 x_r1_g104 >= -1 ;
1 p_r1_g148_h114_t34 -1 x_r1_g148 <= 0 ;
1 p_r1_g148_h114_t34 -1 x_r1_g114 <= 0 ;
1 p_r1_g148_h114_t34 -1 x_r1_g148 -1 x_r1_g114 >= -1 ;
1 p_r1_g164_h130_t34 -1 x_r1_g164 <= 0 ;
1 p_r1_g164_h130_t34 -1 x_r1_g130 <= 0 ;
1 p_r1_g164_h130_t34 -1 x_r1_g164 -1 x_r1_g130 >= -1 ;
1 p_r2_g6_h139_t34 -1 x_r2_g6 <= 0 ;
1 p_r2_g6_h139_t34 -1 x_r2_g139 <= 0 ;
1 p_r2_g6_h139_t34 -1 x_r2_g6 -1 x_r2_g139 >= -1 ;
1 p_r2_g13_h146_t34 -1 x_r2_g13 <= 0 ;
1 p_r2_g13_h146_t34 -1 x_r2_g146 <= 0 ;
1 p_r2_g13_h146_t34 -1 x_r2_g13 -1 x_r2_g146 >= -1 ;
1 p_r2_g41_h7_t34 -1 x_r2_g41 <= 0 ;
1 p_r2_g41_h7_t34 -1 x_r2_g7 <= 0 ;
1 p_r2_g41_h7_t34 -1 x_r2_g41 -1 x_r2_g7 >= -1 ;
1 p_r2_g47_h13_t34 -1 x_r2_g47 <= 0 ;
1 p_r2_g47_h13_t34 -1 x_r2_g13 <= 0 ;
1 p_r2_g47_h13_t34 -1 x_r2_g47 -1 x_r2_g13 >= -1 ;
1 p_r2_g56_h22_t34 -1 x_r2_g56 <= 0 ;
1 p_r2_g56_h22_t34 -1 x_r2_g22 <= 0 ;
1 p_r2_g56_h22_t34 -1 x_r2_g56 -1 x_r2_g22 >= -1 ;
1 p_r2_g63_h29_t34 -1 x_r2_g63 <= 0 ;
1 p_r2_g63_h29_t34 -1 x_r2_g29 <= 0 ;
1 p_r2_g63_h29_t34 -1 x_r2_g63 -1 x_r2_g29 >= -1 ;
1 p_r2_g75_h41_t34 -1 x_r2_g75 <= 0 ;
1 p_r2_g75_h41_t34 -1 x_r2_g41 <= 0 ;
1 p_r2_g75_h41_t34 -1 x_r2_g75 -1 x_r2_g41 >= -1 ;
1 p_r2_g90_h56_t34 -1 x_r2_g90 <= 0 ;
1 p_r2_g90_h56_t34 -1 x_r2_g56 <= 0 ;
1 p_r2_g90_h56_t34 -1 x_r2_g90 -1 x_r2_g56 >= -1 ;
1 p_r2_g114_h80_t34 -1 x_r2_g114 <= 0 ;
1 p_r2_g114_h80_t34 -1 x_r2_g80 <= 0 ;
1 p_r2_g114_h80_t34 -1 x_r2_g114 -1 x_r2_g80 >= -1 ;
1 p_r2_g118_h84_t34 -1 x_r2_g118 <= 0 ;
1 p_r2_g118_h84_t34 -1 x_r2_g84 <= 0 ;
1 p_r2_g118_h84_t34 -1 x_r2_g118 -1 x_r2_g84 >= -1 ;
1 p_r2_g127_h93_t34 -1 x_r2_g127 <= 0 ;
1 p_r2_g127_h93_t34 -1 x_r2_g93 <= 0 ;
1 p_r2_g127_h93_t34 -1 x_r2_g127 -1 x_r2_g93 >= -1 ;
1 p_r2_g141_h107_t34 -1 x_r2_g141 <= 0 ;
1 p_r2_g141_h107_t34 -1 x_r2_g107 <= 0 ;
1 p_r2_g141_h107_t34 -1 x_r2_g141 -1 x_r2_g107 >= -1 ;
1 p_r2_g145_h111_t34 -1 x_r2_g145 <= 0 ;
1 p_r2_g145_h111_t34 -1 x_r2_g111 <= 0 ;
1 p_r2_g145_h111_t34 -1 x_r2_g145 -1 x_r2_g111 >= -1 ;
1 p_r2_g146_h112_t34 -1 x_r2_g146 <= 0 ;
1 p_r2_g146_h112_t34 -1 x_r2_g112 <= 0 ;
1 p_r2_g146_h112_t34 -1 x_r2_g146 -1 x_r2_g112 >= -1 ;
1 p_r2_g161_h127_t34 -1 x_r2_g161 <= 0 ;
1 p_r2_g161_h127_t34 -1 x_r2_g127 <= 0 ;
1 p_r2_g161_h127_t34 -1 x_r2_g161 -1 x_r2_g127 >= -1 ;
1 p_r3_g3_h136_t34 -1 x_r3_g3 <= 0 ;
1 p_r3_g3_h136_t34 -1 x_r3_g136 <= 0 ;
1 p_r3_g3_h136_t34 -1 x_r3_g3 -1 x_r3_g136 >= -1 ;
1 p_r3_g6_h139_t34 -1 x_r3_g6 <= 0 ;
1 p_r3_g6_h139_t34 -1 x_r3_g139 <= 0 ;
1 p_r3_g6_h139_t34 -1 x_r3_g6 -1 x_r3_g139 >= -1 ;
1 p_r3_g12_h145_t34 -1 x_r3_g12 <= 0 ;
1 p_r3_g12_h145_t34 -1 x_r3_g145 <= 0 ;
1 p_r3_g12_h145_t34 -1 x_r3_g12 -1 x_r3_g145 >= -1 ;
1 p_r3_g61_h27_t34 -1 x_r3_g61 <= 0 ;
1 p_r3_g61_h27_t34 -1 x_r3_g27 <= 0 ;
1 p_r3_g61_h27_t34 -1 x_r3_g61 -1 x_r3_g27 >= -1 ;
1 p_r3_g63_h29_t34 -1 x_r3_g63 <= 0 ;
1 p_r3_g63_h29_t34 -1 x_r3_g29 <= 0 ;
1 p_r3_g63_h29_t34 -1 x_r3_g63 -1 x_r3_g29 >= -1 ;
1 p_r3_g77_h43_t34 -1 x_r3_g77 <= 0 ;
1 p_r3_g77_h43_t34 -1 x_r3_g43 <= 0 ;
1 p_r3_g77_h43_t34 -1 x_r3_g77 -1 x_r3_g43 >= -1 ;
1 p_r3_g78_h44_t34 -1 x_r3_g78 <= 0 ;
1 p_r3_g78_h44_t34 -1 x_r3_g44 <= 0 ;
1 p_r3_g78_h44_t34 -1 x_r3_g78 -1 x_r3_g44 >= -1 ;
1 p_r3_g83_h49_t34 -1 x_r3_g83 <= 0 ;
1 p_r3_g83_h49_t34 -1 x_r3_g49 <= 0 ;
1 p_r3_g83_h49_t34 -1 x_r3_g83 -1 x_r3_g49 >= -1 ;
1 p_r3_g97_h63_t34 -1 x_r3_g97 <= 0 ;
1 p_r3_g97_h63_t34 -1 x_r3_g63 <= 0 ;
1 p_r3_g97_h63_t34 -1 x_r3_g97 -1 x_r3_g63 >= -1 ;
1 p_r3_g131_h97_t34 -1 x_r3_g131 <= 0 ;
1 p_r3_g131_h97_t34 -1 x_r3_g97 <= 0 ;
1 p_r3_g131_h97_t34 -1 x_r3_g131 -1 x_r3_g97 >= -1 ;
1 p_r3_g141_h107_t34 -1 x_r3_g141 <= 0 ;
1 p_r3_g141_h107_t34 -1 x_r3_g107 <= 0 ;
1 p_r3_g141_h107_t34 -1 x_r3_g141 -1 x_r3_g107 >= -1 ;
1 d_34 -1 x_r0_g22 -2 x_r0_g25 -1 x_r0_g39 -1 x_r0_g46 -1 x_r0_g47 -1 x_r0_g49 -1 x_r0_g54 -1 x_r0_g77 -1 x_r0_g88 -1 x_r0_g101 -1 x_r0_g112 -1 x_r0_g117 -1 x_r0_g132 -2 x_r0_g136 -1 x_r0_g144 -2 x_r0_g152 -1 x_r0_g163 -1 x_r1_g15 -1 x_r1_g28 -2 x_r1_g35 -1 x_r1_g36 -1 x_r1_g44 -2 x_r1_g45 -1 x_r1_g46 -1 x_r1_g48 -1 x_r1_g71 -1 x_r1_g78 -1 x_r1_g89 -1 x_r1_g91 -1 x_r1_g99 -1 x_r1_g104 -1 x_r1_g114 -1 x_r1_g115 -1 x_r1_g116 -1 x_r1_g120 -1 x_r1_g130 -1 x_r1_g160 -1 x_r1_g164 -1 x_r2_g7 -1 x_r2_g14 -2 x_r2_g34 -1 x_r2_g35 -1 x_r2_g61 -1 x_r2_g76 -1 x_r2_g80 -1 x_r2_g87 -2 x_r2_g98 -1 x_r2_g106 -1 x_r2_g108 -1 x_r2_g112 -1 x_r2_g114 -2 x_r2_g116 -1 x_r2_g118 -2 x_r2_g119 -1 x_r2_g138 -1 x_r2_g139 -1 x_r2_g149 -1 x_r2_g161 -2 x_r2_g166 -1 x_r3_g3 -2 x_r3_g4 -2 x_r3_g5 -1 x_r3_g6 -2 x_r3_g7 -1 x_r3_g12 -1 x_r3_g27 -1 x_r3_g29 -1 x_r3_g31 -1 x_r3_g43 -1 x_r3_g53 -1 x_r3_g54 -1 x_r3_g56 -2 x_r3_g60 -1 x_r3_g66 -1 x_r3_g77 -1 x_r3_g78 -1 x_r3_g84 -2 x_r3_g89 -2 x_r3_g108 -2 x_r3_g132 -1 x_r3_g141 -1 x_r3_g145 -1 x_r3_g150 -1 p_r0_g6_h139_t34 -1 p_r0_g40_h6_t34 -1 p_r0_g57_h23_t34 -1 p_r0_g73_h39_t34 -1 p_r0_g74_h40_t34 -1 p_r0_g80_h46_t34 -1 p_r0_g88_h54_t34 -1 p_r0_g111_h77_t34 -1 p_r0_g135_h101_t34 -1 p_r0_g137_h103_t34 -1 p_r0_g150_h116_t34 -1 p_r0_g162_h128_t34 -1 p_r1_g15_h148_t34 -1 p_r1_g36_h2_t34 -1 p_r1_g76_h42_t34 -1 p_r1_g77_h43_t34 -1 p_r1_g78_h44_t34 -1 p_r1_g92_h58_t34 -1 p_r1_g128_h94_t34 -1 p_r1_g138_h104_t34 -1 p_r1_g148_h114_t34 -1 p_r1_g164_h130_t34 -1 p_r2_g6_h139_t34 -1 p_r2_g13_h146_t34 -1 p_r2_g41_h7_t34 -1 p_r2_g47_h13_t34 -1 p_r2_g56_h22_t34 -1 p_r2_g63_h29_t34 -1 p_r2_g75_h41_t34 -1 p_r2_g90_h56_t34 -1 p_r2_g114_h80_t34 -1 p_r2_g118_h84_t34 -1 p_r2_g127_h93_t34 -1 p_r2_g141_h107_t34 -1 p_r2_g145_h111_t34 -1 p_r2_g146_h112_t34 -1 p_r2_g161_h127_t34 -1 p_r3_g3_h136_t34 -1 p_r3_g6_h139_t34 -1 p_r3_g12_h145_t34 -1 p_r3_g61_h27_t34 -1 p_r3_g63_h29_t34 -1 p_r3_g77_h43_t34 -1 p_r3_g78_h44_t34 -1 p_r3_g83_h49_t34 -1 p_r3_g97_h63_t34 -1 p_r3_g131_h97_t34 -1 p_r3_g141_h107_t34 = -79 ;
1 d_34 -1 u_34 <= 0 ;
-1 d_34 -1 u_34 <= 0 ;
1 u_34 -1 M <= 0 ;
1 u_34 <= 2 ;
1 p_r0_g6_h132_t41 -1 x_r0_g6 <= 0 ;
1 p_r0_g6_h132_t41 -1 x_r0_g132 <= 0 ;
1 p_r0_g6_h132_t41 -1 x_r0_g6 -1 x_r0_g132 >= -1 ;
1 p_r0_g47_h6_t41 -1 x_r0_g47 <= 0 ;
1 p_r0_g47_h6_t41 -1 x_r0_g6 <= 0 ;
1 p_r0_g47_h6_t41 -1 x_r0_g47 -1 x_r0_g6 >= -1 ;
1 p_r0_g80_h39_t41 -1 x_r0_g80 <= 0 ;
1 p_r0_g80_h39_t41 -1 x_r0_g39 <= 0 ;
1 p_r0_g80_h39_t41 -1 x_r0_g80 -1 x_r0_g39 >= -1 ;
1 p_r0_g88_h47_t41 -1 x_r0_g88 <= 0 ;
1 p_r0_g88_h47_t41 -1 x_r0_g47 <= 0 ;
1 p_r0_g88_h47_t41 -1 x_r0_g88 -1 x_r0_g47 >= -1 ;
1 p_r0_g95_h54_t41 -1 x_r0_g95 <= 0 ;
1 p_r0_g95_h54_t41 -1 x_r0_g54 <= 0 ;
1 p_r0_g95_h54_t41 -1 x_r0_g95 -1 x_r0_g54 >= -1 ;
1 p_r0_g116_h75_t41 -1 x_r0_g116 <= 0 ;
1 p_r0_g116_h75_t41 -1 x_r0_g75 <= 0 ;
1 p_r0_g116_h75_t41 -1 x_r0_g116 -1 x_r0_g75 >= -1 ;
1 p_r0_g136_h95_t41 -1 x_r0_g136 <= 0 ;
1 p_r0_g136_h95_t41 -1 x_r0_g95 <= 0 ;
1 p_r0_g136_h95_t41 -1 x_r0_g136 -1 x_r0_g95 >= -1 ;
1 p_r0_g144_h103_t41 -1 x_r0_g144 <= 0 ;
1 p_r0_g144_h103_t41 -1 x_r0_g103 <= 0 ;
1 p_r0_g144_h103_t41 -1 x_r0_g144 -1 x_r0_g103 >= -1 ;
1 p_r0_g152_h111_t41 -1 x_r0_g152 <= 0 ;
1 p_r0_g152_h111_t41 -1 x_r0_g111 <= 0 ;
1 p_r0_g152_h111_t41 -1 x_r0_g152 -1 x_r0_g111 >= -1 ;
1 p_r1_g2_h128_t41 -1 x_r1_g2 <= 0 ;
1 p_r1_g2_h128_t41 -1 x_r1_g128 <= 0 ;
1 p_r1_g2_h128_t41 -1 x_r1_g2 -1 x_r1_g128 >= -1 ;
1 p_r1_g38_h164_t41 -1 x_r1_g38 <= 0 ;
1 p_r1_g38_h164_t41 -1 x_r1_g164 <= 0 ;
1 p_r1_g38_h164_t41 -1 x_r1_g38 -1 x_r1_g164 >= -1 ;
1 p_r1_g43_h2_t41 -1 x_r1_g43 <= 0 ;
1 p_r1_g43_h2_t41 -1 x_r1_g2 <= 0 ;
1 p_r1_g43_h2_t41 -1 x_r1_g43 -1 x_r1_g2 >= -1 ;
1 p_r1_g76_h35_t41 -1 x_r1_g76 <= 0 ;
1 p_r1_g76_h35_t41 -1 x_r1_g35 <= 0 ;
1 p_r1_g76_h35_t41 -1 x_r1_g76 -1 x_r1_g35 >= -1 ;
1 p_r1_g77_h36_t41 -1 x_r1_g77 <= 0 ;
1 p_r1_g77_h36_t41 -1 x_r1_g36 <= 0 ;
1 p_r1_g77_h36_t41 -1 x_r1_g77 -1 x_r1_g36 >= -1 ;
1 p_r1_g89_h48_t41 -1 x_r1_g89 <= 0 ;
1 p_r1_g89_h48_t41 -1 x_r1_g48 <= 0 ;
1 p_r1_g89_h48_t41 -1 x_r1_g89 -1 x_r1_g48 >= -1 ;
1 p_r1_g99_h58_t41 -1 x_r1_g99 <= 0 ;
1 p_r1_g99_h58_t41 -1 x_r1_g58 <= 0 ;
1 p_r1_g99_h58_t41 -1 x_r1_g99 -1 x_r1_g58 >= -1 ;
1 p_r1_g119_h78_t41 -1 x_r1_g119 <= 0 ;
1 p_r1_g119_h78_t41 -1 x_r1_g78 <= 0 ;
1 p_r1_g119_h78_t41 -1 x_r1_g119 -1 x_r1_g78 >= -1 ;
1 p_r1_g130_h89_t41 -1 x_r1_g130 <= 0 ;
1 p_r1_g130_h89_t41 -1 x_r1_g89 <= 0 ;
1 p_r1_g130_h89_t41 -1 x_r1_g130 -1 x_r1_g89 >= -1 ;
1 p_r1_g160_h119_t41 -1 x_r1_g160 <= 0 ;
1 p_r1_g160_h119_t41 -1 x_r1_g119 <= 0 ;
1 p_r1_g160_h119_t41 -1 x_r1_g160 -1 x_r1_g119 >= -1 ;
1 p_r2_g13_h139_t41 -1 x_r2_g13 <= 0 ;
1 p_r2_g13_h139_t41 -1 x_r2_g139 <= 0 ;
1 p_r2_g13_h139_t41 -1 x_r2_g13 -1 x_r2_g139 >= -1 ;
1 p_r2_g35_h161_t41 -1 x_r2_g35 <= 0 ;
1 p_r2_g35_h161_t41 -1 x_r2_g161 <= 0 ;
1 p_r2_g35_h161_t41 -1 x_r2_g35 -1 x_r2_g161 >= -1 ;
1 p_r2_g47_h6_t41 -1 x_r2_g47 <= 0 ;
1 p_r2_g47_h6_t41 -1 x_r2_g6 <= 0 ;
1 p_r2_g47_h6_t41 -1 x_r2_g47 -1 x_r2_g6 >= -1 ;
1 p_r2_g63_h22_t41 -1 x_r2_g63 <= 0 ;
1 p_r2_g63_h22_t41 -1 x_r2_g22 <= 0 ;
1 p_r2_g63_h22_t41 -1 x_r2_g63 -1 x_r2_g22 >= -1 ;
1 p_r2_g75_h34_t41 -1 x_r2_g75 <= 0 ;
1 p_r2_g75_h34_t41 -1 x_r2_g34 <= 0 ;
1 p_r2_g75_h34_t41 -1 x_r2_g75 -1 x_r2_g34 >= -1 ;
1 p_r2_g76_h35_t41 -1 x_r2_g76 <= 0 ;
1 p_r2_g76_h35_t41 -1 x_r2_g35 <= 0 ;
1 p_r2_g76_h35_t41 -1 x_r2_g76 -1 x_r2_g35 >= -1 ;
1 p_r2_g116_h75_t41 -1 x_r2_g116 <= 0 ;
1 p_r2_g116_h75_t41 -1 x_r2_g75 <= 0 ;
1 p_r2_g116_h75_t41 -1 x_r2_g116 -1 x_r2_g75 >= -1 ;
1 p_r2_g125_h84_t41 -1 x_r2_g125 <= 0 ;
1 p_r2_g125_h84_t41 -1 x_r2_g84 <= 0 ;
1 p_r2_g125_h84_t41 -1 x_r2_g125 -1 x_r2_g84 >= -1 ;
1 p_r2_g139_h98_t41 -1 x_r2_g139 <= 0 ;
1 p_r2_g139_h98_t41 -1 x_r2_g98 <= 0 ;
1 p_r2_g139_h98_t41 -1 x_r2_g139 -1 x_r2_g98 >= -1 ;
1 p_r2_g149_h108_t41 -1 x_r2_g149 <= 0 ;
1 p_r2_g149_h108_t41 -1 x_r2_g108 <= 0 ;
1 p_r2_g149_h108_t41 -1 x_r2_g149 -1 x_r2_g108 >= -1 ;
1 p_r2_g166_h125_t41 -1 x_r2_g166 <= 0 ;
1 p_r2_g166_h125_t41 -1 x_r2_g125 <= 0 ;
1 p_r2_g166_h125_t41 -1 x_r2_g166 -1 x_r2_g125 >= -1 ;
1 p_r3_g5_h131_t41 -1 x_r3_g5 <= 0 ;
1 p_r3_g5_h131_t41 -1 x_r3_g131 <= 0 ;
1 p_r3_g5_h131_t41 -1 x_r3_g5 -1 x_r3_g131 >= -1 ;
1 p_r3_g6_h132_t41 -1 x_r3_g6 <= 0 ;
1 p_r3_g6_h132_t41 -1 x_r3_g132 <= 0 ;
1 p_r3_g6_h132_t41 -1 x_r3_g6 -1 x_r3_g132 >= -1 ;
1 p_r3_g44_h3_t41 -1 x_r3_g44 <= 0 ;
1 p_r3_g44_h3_t41 -1 x_r3_g3 <= 0 ;
1 p_r3_g44_h3_t41 -1 x_r3_g44 -1 x_r3_g3 >= -1 ;
1 p_r3_g53_h12_t41 -1 x_r3_g53 <= 0 ;
1 p_r3_g53_h12_t41 -1 x_r3_g12 <= 0 ;
1 p_r3_g53_h12_t41 -1 x_r3_g53 -1 x_r3_g12 >= -1 ;
1 p_r3_g84_h43_t41 -1 x_r3_g84 <= 0 ;
1 p_r3_g84_h43_t41 -1 x_r3_g43 <= 0 ;
1 p_r3_g84_h43_t41 -1 x_r3_g84 -1 x_r3_g43 >= -1 ;
1 p_r3_g97_h56_t41 -1 x_r3_g97 <= 0 ;
1 p_r3_g97_h56_t41 -1 x_r3_g56 <= 0 ;
1 p_r3_g97_h56_t41 -1 x_r3_g97 -1 x_r3_g56 >= -1 ;
1 p_r3_g107_h66_t41 -1 x_r3_g107 <= 0 ;
1 p_r3_g107_h66_t41 -1 x_r3_g66 <= 0 ;
1 p_r3_g107_h66_t41 -1 x_r3_g107 -1 x_r3_g66 >= -1 ;
1 p_r3_g124_h83_t41 -1 x_r3_g124 <= 0 ;
1 p_r3_g124_h83_t41 -1 x_r3_g83 <= 0 ;
1 p_r3_g124_h83_t41 -1 x_r3_g124 -1 x_r3_g83 >= -1 ;
1 p_r3_g125_h84_t41 -1 x_r3_g125 <= 0 ;
1 p_r3_g125_h84_t41 -1 x_r3_g84 <= 0 ;
1 p_r3_g125_h84_t41 -1 x_r3_g125 -1 x_r3_g84 >= -1 ;
1 d_41 -1 x_r0_g22 -1 x_r0_g23 -1 x_r0_g25 -1 x_r0_g39 -1 x_r0_g44 -1 x_r0_g46 -1 x_r0_g49 -1 x_r0_g52 -1 x_r0_g54 -1 x_r0_g57 -1 x_r0_g75 -2 x_r0_g77 -1 x_r0_g101 -1 x_r0_g103 -1 x_r0_g111 -1 x_r0_g116 -1 x_r0_g117 -1 x_r0_g137 -2 x_r0_g139 -1 x_r0_g162 -2 x_r0_g163 -2 x_r0_g164 -2 x_r1_g15 -1 x_r1_g16 -1 x_r1_g20 -2 x_r1_g28 -2 x_r1_g29 -1 x_r1_g38 -1 x_r1_g42 -1 x_r1_g43 -1 x_r1_g44 -1 x_r1_g46 -1 x_r1_g71 -1 x_r1_g78 -1 x_r1_g91 -1 x_r1_g94 -1 x_r1_g99 -1 x_r1_g114 -1 x_r1_g115 -1 x_r1_g116 -1 x_r1_g120 -1 x_r1_g128 -1 x_r1_g131 -1 x_r1_g148 -1 x_r1_g164 -1 x_r2_g6 -1 x_r2_g7 -1 x_r2_g14 -1 x_r2_g22 -1 x_r2_g34 -2 x_r2_g41 -2 x_r2_g61 -1 x_r2_g63 -2 x_r2_g80 -1 x_r2_g84 -2 x_r2_g87 -1 x_r2_g90 -1 x_r2_g93 -1 x_r2_g106 -1 x_r2_g107 -1 x_r2_g111 -1 x_r2_g112 -1 x_r2_g116 -2 x_r2_g119 -2 x_r2_g127 -1 x_r2_g145 -2 x_r2_g146 -1 x_r2_g161 -1 x_r3_g0 -1 x_r3_g3 -1 x_r3_g4 -1 x_r3_g5 -1 x_r3_g6 -1 x_r3_g12 -1 x_r3_g27 -1 x_r3_g43 -1 x_r3_g49 -1 x_r3_g53 -1 x_r3_g54 -1 x_r3_g60 -1 x_r3_g61 -1 x_r3_g63 -2 x_r3_g77 -2 x_r3_g78 -2 x_r3_g82 -1 x_r3_g97 -1 x_r3_g107 -1 x_r3_g108 -2 x_r3_g121 -2 x_r3_g122 -1 x_r3_g125 -2 x_r3_g139 -1 x_r3_g145 -1 p_r0_g6_h132_t41 -1 p_r0_g47_h6_t41 -1 p_r0_g80_h39_t41 -1 p_r0_g88_h47_t41 -1 p_r0_g95_h54_t41 -1 p_r0_g116_h75_t41 -1 p_r0_g136_h95_t41 -1 p_r0_g144_h103_t41 -1 p_r0_g152_h111_t41 -1 p_r1_g2_h128_t41 -1 p_r1_g38_h164_t41 -1 p_r1_g43_h2_t41 -1 p_r1_g76_h35_t41 -1 p_r1_g77_h36_t41 -1 p_r1_g89_h48_t41 -1 p_r1_g99_h58_t41 -1 p_r1_g119_h78_t41 -1 p_r1_g130_h89_t41 -1 p_r1_g160_h119_t41 -1 p_r2_g13_h139_t41 -1 p_r2_g35_h161_t41 -1 p_r2_g47_h6_t41 -1 p_r2_g63_h22_t41 -1 p_r2_g75_h34_t41 -1 p_r2_g76_h35_t41 -1 p_r2_g116_h75_t41 -1 p_r2_g125_h84_t41 -1 p_r2_g139_h98_t41 -1 p_r2_g149_h108_t41 -1 p_r2_g166_h125_t41 -1 p_r3_g5_h131_t41 -1 p_r3_g6_h132_t41 -1 p_r3_g44_h3_t41 -1 p_r3_g53_h12_t41 -1 p_r3_g84_h43_t41 -1 p_r3_g97_h56_t41 -1 p_r3_g107_h66_t41 -1 p_r3_g124_h83_t41 -1 p_r3_g125_h84_t41 = -84 ;
1 d_41 -1 u_41 <= 0 ;
-1 d_41 -1 u_41 <= 0 ;
1 u_41 -1 M <= 0 ;
1 u_41 <= 2 ;
1 p_r0_g39_h163_t43 -1 x_r0_g39 <= 0 ;
1 p_r0_g39_h163_t43 -1 x_r0_g163 <= 0 ;
1 p_r0_g39_h163_t43 -1 x_r0_g39 -1 x_r0_g163 >= -1 ;
1 p_r0_g40_h164_t43 -1 x_r0_g40 <= 0 ;
1 p_r0_g40_h164_t43 -1 x_r0_g164 <= 0 ;
1 p_r0_g40_h164_t43 -1 x_r0_g40 -1 x_r0_g164 >= -1 ;
1 p_r0_g49_h6_t43 -1 x_r0_g49 <= 0 ;
1 p_r0_g49_h6_t43 -1 x_r0_g6 <= 0 ;
1 p_r0_g49_h6_t43 -1 x_r0_g49 -1 x_r0_g6 >= -1 ;
1 p_r0_g95_h52_t43 -1 x_r0_g95 <= 0 ;
1 p_r0_g95_h52_t43 -1 x_r0_g52 <= 0 ;
1 p_r0_g95_h52_t43 -1 x_r0_g95 -1 x_r0_g52 >= -1 ;
1 p_r0_g116_h73_t43 -1 x_r0_g116 <= 0 ;
1 p_r0_g116_h73_t43 -1 x_r0_g73 <= 0 ;
1 p_r0_g116_h73_t43 -1 x_r0_g116 -1 x_r0_g73 >= -1 ;
1 p_r0_g117_h74_t43 -1 x_r0_g117 <= 0 ;
1 p_r0_g117_h74_t43 -1 x_r0_g74 <= 0 ;
1 p_r0_g117_h74_t43 -1 x_r0_g117 -1 x_r0_g74 >= -1 ;
1 p_r0_g144_h101_t43 -1 x_r0_g144 <= 0 ;
1 p_r0_g144_h101_t43 -1 x_r0_g101 <= 0 ;
1 p_r0_g144_h101_t43 -1 x_r0_g144 -1 x_r0_g101 >= -1 ;
1 p_r1_g36_h160_t43 -1 x_r1_g36 <= 0 ;
1 p_r1_g36_h160_t43 -1 x_r1_g160 <= 0 ;
1 p_r1_g36_h160_t43 -1 x_r1_g36 -1 x_r1_g160 >= -1 ;
1 p_r1_g43_h0_t43 -1 x_r1_g43 <= 0 ;
1 p_r1_g43_h0_t43 -1 x_r1_g0 <= 0 ;
1 p_r1_g43_h0_t43 -1 x_r1_g43 -1 x_r1_g0 >= -1 ;
1 p_r1_g45_h2_t43 -1 x_r1_g45 <= 0 ;
1 p_r1_g45_h2_t43 -1 x_r1_g2 <= 0 ;
1 p_r1_g45_h2_t43 -1 x_r1_g45 -1 x_r1_g2 >= -1 ;
1 p_r1_g58_h15_t43 -1 x_r1_g58 <= 0 ;
1 p_r1_g58_h15_t43 -1 x_r1_g15 <= 0 ;
1 p_r1_g58_h15_t43 -1 x_r1_g58 -1 x_r1_g15 >= -1 ;
1 p_r1_g71_h28_t43 -1 x_r1_g71 <= 0 ;
1 p_r1_g71_h28_t43 -1 x_r1_g28 <= 0 ;
1 p_r1_g71_h28_t43 -1 x_r1_g71 -1 x_r1_g28 >= -1 ;
1 p_r1_g78_h35_t43 -1 x_r1_g78 <= 0 ;
1 p_r1_g78_h35_t43 -1 x_r1_g35 <= 0 ;
1 p_r1_g78_h35_t43 -1 x_r1_g78 -1 x_r1_g35 >= -1 ;
1 p_r1_g89_h46_t43 -1 x_r1_g89 <= 0 ;
1 p_r1_g89_h46_t43 -1 x_r1_g46 <= 0 ;
1 p_r1_g89_h46_t43 -1 x_r1_g89 -1 x_r1_g46 >= -1 ;
1 p_r1_g91_h48_t43 -1 x_r1_g91 <= 0 ;
1 p_r1_g91_h48_t43 -1 x_r1_g48 <= 0 ;
1 p_r1_g91_h48_t43 -1 x_r1_g91 -1 x_r1_g48 >= -1 ;
1 p_r1_g101_h58_t43 -1 x_r1_g101 <= 0 ;
1 p_r1_g101_h58_t43 -1 x_r1_g58 <= 0 ;
1 p_r1_g101_h58_t43 -1 x_r1_g101 -1 x_r1_g58 >= -1 ;
1 p_r1_g114_h71_t43 -1 x_r1_g114 <= 0 ;
1 p_r1_g114_h71_t43 -1 x_r1_g71 <= 0 ;
1 p_r1_g114_h71_t43 -1 x_r1_g114 -1 x_r1_g71 >= -1 ;
1 p_r1_g119_h76_t43 -1 x_r1_g119 <= 0 ;
1 p_r1_g119_h76_t43 -1 x_r1_g76 <= 0 ;
1 p_r1_g119_h76_t43 -1 x_r1_g119 -1 x_r1_g76 >= -1 ;
1 p_r1_g120_h77_t43 -1 x_r1_g120 <= 0 ;
1 p_r1_g120_h77_t43 -1 x_r1_g77 <= 0 ;
1 p_r1_g120_h77_t43 -1 x_r1_g120 -1 x_r1_g77 >= -1 ;
1 p_r2_g14_h138_t43 -1 x_r2_g14 <= 0 ;
1 p_r2_g14_h138_t43 -1 x_r2_g138 <= 0 ;
1 p_r2_g14_h138_t43 -1 x_r2_g14 -1 x_r2_g138 >= -1 ;
1 p_r2_g22_h146_t43 -1 x_r2_g22 <= 0 ;
1 p_r2_g22_h146_t43 -1 x_r2_g146 <= 0 ;
1 p_r2_g22_h146_t43 -1 x_r2_g22 -1 x_r2_g146 >= -1 ;
1 p_r2_g56_h13_t43 -1 x_r2_g56 <= 0 ;
1 p_r2_g56_h13_t43 -1 x_r2_g13 <= 0 ;
1 p_r2_g56_h13_t43 -1 x_r2_g56 -1 x_r2_g13 >= -1 ;
1 p_r2_g84_h41_t43 -1 x_r2_g84 <= 0 ;
1 p_r2_g84_h41_t43 -1 x_r2_g41 <= 0 ;
1 p_r2_g84_h41_t43 -1 x_r2_g84 -1 x_r2_g41 >= -1 ;
1 p_r2_g90_h47_t43 -1 x_r2_g90 <= 0 ;
1 p_r2_g90_h47_t43 -1 x_r2_g47 <= 0 ;
1 p_r2_g90_h47_t43 -1 x_r2_g90 -1 x_r2_g47 >= -1 ;
1 p_r2_g106_h63_t43 -1 x_r2_g106 <= 0 ;
1 p_r2_g106_h63_t43 -1 x_r2_g63 <= 0 ;
1 p_r2_g106_h63_t43 -1 x_r2_g106 -1 x_r2_g63 >= -1 ;
1 p_r2_g118_h75_t43 -1 x_r2_g118 <= 0 ;
1 p_r2_g118_h75_t43 -1 x_r2_g75 <= 0 ;
1 p_r2_g118_h75_t43 -1 x_r2_g118 -1 x_r2_g75 >= -1 ;
1 p_r2_g119_h76_t43 -1 x_r2_g119 <= 0 ;
1 p_r2_g119_h76_t43 -1 x_r2_g76 <= 0 ;
1 p_r2_g119_h76_t43 -1 x_r2_g119 -1 x_r2_g76 >= -1 ;
1 p_r2_g127_h84_t43 -1 x_r2_g127 <= 0 ;
1 p_r2_g127_h84_t43 -1 x_r2_g84 <= 0 ;
1 p_r2_g127_h84_t43 -1 x_r2_g127 -1 x_r2_g84 >= -1 ;
1 p_r2_g141_h98_t43 -1 x_r2_g141 <= 0 ;
1 p_r2_g141_h98_t43 -1 x_r2_g98 <= 0 ;
1 p_r2_g141_h98_t43 -1 x_r2_g141 -1 x_r2_g98 >= -1 ;
1 p_r2_g149_h106_t43 -1 x_r2_g149 <= 0 ;
1 p_r2_g149_h106_t43 -1 x_r2_g106 <= 0 ;
1 p_r2_g149_h106_t43 -1 x_r2_g149 -1 x_r2_g106 >= -1 ;
1 p_r2_g161_h118_t43 -1 x_r2_g161 <= 0 ;
1 p_r2_g161_h118_t43 -1 x_r2_g118 <= 0 ;
1 p_r2_g161_h118_t43 -1 x_r2_g161 -1 x_r2_g118 >= -1 ;
1 p_r3_g0_h124_t43 -1 x_r3_g0 <= 0 ;
1 p_r3_g0_h124_t43 -1 x_r3_g124 <= 0 ;
1 p_r3_g0_h124_t43 -1 x_r3_g0 -1 x_r3_g124 >= -1 ;
1 p_r3_g7_h131_t43 -1 x_r3_g7 <= 0 ;
1 p_r3_g7_h131_t43 -1 x_r3_g131 <= 0 ;
1 p_r3_g7_h131_t43 -1 x_r3_g7 -1 x_r3_g131 >= -1 ;
1 p_r3_g12_h136_t43 -1 x_r3_g12 <= 0 ;
1 p_r3_g12_h136_t43 -1 x_r3_g136 <= 0 ;
1 p_r3_g12_h136_t43 -1 x_r3_g12 -1 x_r3_g136 >= -1 ;
1 p_r3_g43_h0_t43 -1 x_r3_g43 <= 0 ;
1 p_r3_g43_h0_t43 -1 x_r3_g0 <= 0 ;
1 p_r3_g43_h0_t43 -1 x_r3_g43 -1 x_r3_g0 >= -1 ;
1 p_r3_g49_h6_t43 -1 x_r3_g49 <= 0 ;
1 p_r3_g49_h6_t43 -1 x_r3_g6 <= 0 ;
1 p_r3_g49_h6_t43 -1 x_r3_g49 -1 x_r3_g6 >= -1 ;
1 p_r3_g97_h54_t43 -1 x_r3_g97 <= 0 ;
1 p_r3_g97_h54_t43 -1 x_r3_g54 <= 0 ;
1 p_r3_g97_h54_t43 -1 x_r3_g97 -1 x_r3_g54 >= -1 ;
1 p_r3_g121_h78_t43 -1 x_r3_g121 <= 0 ;
1 p_r3_g121_h78_t43 -1 x_r3_g78 <= 0 ;
1 p_r3_g121_h78_t43 -1 x_r3_g121 -1 x_r3_g78 >= -1 ;
1 p_r3_g125_h82_t43 -1 x_r3_g125 <= 0 ;
1 p_r3_g125_h82_t43 -1 x_r3_g82 <= 0 ;
1 p_r3_g125_h82_t43 -1 x_r3_g125 -1 x_r3_g82 >= -1 ;
1 p_r3_g132_h89_t43 -1 x_r3_g132 <= 0 ;
1 p_r3_g132_h89_t43 -1 x_r3_g89 <= 0 ;
1 p_r3_g132_h89_t43 -1 x_r3_g132 -1 x_r3_g89 >= -1 ;
1 p_r3_g150_h107_t43 -1 x_r3_g150 <= 0 ;
1 p_r3_g150_h107_t43 -1 x_r3_g107 <= 0 ;
1 p_r3_g150_h107_t43 -1 x_r3_g150 -1 x_r3_g107 >= -1 ;
1 d_43 -2 x_r0_g22 -2 x_r0_g25 -1 x_r0_g35 -1 x_r0_g46 -1 x_r0_g47 -1 x_r0_g50 -1 x_r0_g54 -2 x_r0_g57 -1 x_r0_g73 -1 x_r0_g75 -2 x_r0_g77 -2 x_r0_g80 -2 x_r0_g88 -1 x_r0_g101 -1 x_r0_g103 -1 x_r0_g111 -1 x_r0_g112 -1 x_r0_g116 -1 x_r0_g117 -1 x_r0_g135 -1 x_r0_g136 -1 x_r0_g137 -1 x_r0_g139 -1 x_r0_g144 -2 x_r0_g162 -1 x_r0_g163 -1 x_r1_g0 -1 x_r1_g16 -1 x_r1_g35 -1 x_r1_g36 -1 x_r1_g38 -1 x_r1_g42 -2 x_r1_g44 -1 x_r1_g45 -1 x_r1_g46 -1 x_r1_g89 -1 x_r1_g92 -1 x_r1_g99 -1 x_r1_g114 -1 x_r1_g116 -1 x_r1_g120 -1 x_r1_g130 -1 x_r1_g131 -1 x_r1_g138 -1 x_r1_g164 -2 x_r2_g6 -1 x_r2_g13 -1 x_r2_g22 -1 x_r2_g29 -1 x_r2_g34 -1 x_r2_g35 -1 x_r2_g41 -1 x_r2_g47 -2 x_r2_g61 -1 x_r2_g63 -1 x_r2_g76 -1 x_r2_g87 -1 x_r2_g93 -2 x_r2_g107 -2 x_r2_g108 -1 x_r2_g111 -1 x_r2_g114 -2 x_r2_g125 -2 x_r2_g145 -1 x_r2_g149 -2 x_r3_g3 -2 x_r3_g4 -1 x_r3_g5 -1 x_r3_g12 -1 x_r3_g27 -1 x_r3_g31 -1 x_r3_g43 -1 x_r3_g44 -2 x_r3_g56 -1 x_r3_g60 -1 x_r3_g61 -2 x_r3_g63 -1 x_r3_g82 -1 x_r3_g83 -2 x_r3_g84 -1 x_r3_g89 -1 x_r3_g97 -2 x_r3_g108 -1 x_r3_g124 -1 x_r3_g125 -1 x_r3_g132 -2 x_r3_g141 -1 x_r3_g150 -1 p_r0_g39_h163_t43 -1 p_r0_g40_h164_t43 -1 p_r0_g49_h6_t43 -1 p_r0_g95_h52_t43 -1 p_r0_g116_h73_t43 -1 p_r0_g117_h74_t43 -1 p_r0_g144_h101_t43 -1 p_r1_g36_h160_t43 -1 p_r1_g43_h0_t43 -1 p_r1_g45_h2_t43 -1 p_r1_g58_h15_t43 -1 p_r1_g71_h28_t43 -1 p_r1_g78_h35_t43 -1 p_r1_g89_h46_t43 -1 p_r1_g91_h48_t43 -1 p_r1_g101_h58_t43 -1 p_r1_g114_h71_t43 -1 p_r1_g119_h76_t43 -1 p_r1_g120_h77_t43 -1 p_r2_g14_h138_t43 -1 p_r2_g22_h146_t43 -1 p_r2_g56_h13_t43 -1 p_r2_g84_h41_t43 -1 p_r2_g90_h47_t43 -1 p_r2_g106_h63_t43 -1 p_r2_g118_h75_t43 -1 p_r2_g119_h76_t43 -1 p_r2_g127_h84_t43 -1 p_r2_g141_h98_t43 -1 p_r2_g149_h106_t43 -1 p_r2_g161_h118_t43 -1 p_r3_g0_h124_t43 -1 p_r3_g7_h131_t43 -1 p_r3_g12_h136_t43 -1 p_r3_g43_h0_t43 -1 p_r3_g49_h6_t43 -1 p_r3_g97_h54_t43 -1 p_r3_g121_h78_t43 -1 p_r3_g125_h82_t43 -1 p_r3_g132_h89_t43 -1 p_r3_g150_h107_t43 = -54 ;
1 d_43 -1 u_43 <= 0 ;
-1 d_43 -1 u_43 <= 0 ;
1 u_43 -1 M <= 0 ;
1 u_43 <= 1 ;
1 p_r0_g23_h144_t46 -1 x_r0_g23 <= 0 ;
1 p_r0_g23_h144_t46 -1 x_r0_g144 <= 0 ;
1 p_r0_g23_h144_t46 -1 x_r0_g23 -1 x_r0_g144 >= -1 ;
1 p_r0_g52_h6_t46 -1 x_r0_g52 <= 0 ;
1 p_r0_g52_h6_t46 -1 x_r0_g6 <= 0 ;
1 p_r0_g52_h6_t46 -1 x_r0_g52 -1 x_r0_g6 >= -1 ;
1 p_r0_g95_h49_t46 -1 x_r0_g95 <= 0 ;
1 p_r0_g95_h49_t46 -1 x_r0_g49 <= 0 ;
1 p_r0_g95_h49_t46 -1 x_r0_g95 -1 x_r0_g49 >= -1 ;
1 p_r0_g103_h57_t46 -1 x_r0_g103 <= 0 ;
1 p_r0_g103_h57_t46 -1 x_r0_g57 <= 0 ;
1 p_r0_g103_h57_t46 -1 x_r0_g103 -1 x_r0_g57 >= -1 ;
1 p_r0_g162_h116_t46 -1 x_r0_g162 <= 0 ;
1 p_r0_g162_h116_t46 -1 x_r0_g116 <= 0 ;
1 p_r0_g162_h116_t46 -1 x_r0_g162 -1 x_r0_g116 >= -1 ;
1 p_r0_g163_h117_t46 -1 x_r0_g163 <= 0 ;
1 p_r0_g163_h117_t46 -1 x_r0_g117 <= 0 ;
1 p_r0_g163_h117_t46 -1 x_r0_g163 -1 x_r0_g117 >= -1 ;
1 p_r1_g43_h164_t46 -1 x_r1_g43 <= 0 ;
1 p_r1_g43_h164_t46 -1 x_r1_g164 <= 0 ;
1 p_r1_g43_h164_t46 -1 x_r1_g43 -1 x_r1_g164 >= -1 ;
1 p_r1_g46_h0_t46 -1 x_r1_g46 <= 0 ;
1 p_r1_g46_h0_t46 -1 x_r1_g0 <= 0 ;
1 p_r1_g46_h0_t46 -1 x_r1_g46 -1 x_r1_g0 >= -1 ;
1 p_r1_g48_h2_t46 -1 x_r1_g48 <= 0 ;
1 p_r1_g48_h2_t46 -1 x_r1_g2 <= 0 ;
1 p_r1_g48_h2_t46 -1 x_r1_g48 -1 x_r1_g2 >= -1 ;
1 p_r1_g89_h43_t46 -1 x_r1_g89 <= 0 ;
1 p_r1_g89_h43_t46 -1 x_r1_g43 <= 0 ;
1 p_r1_g89_h43_t46 -1 x_r1_g89 -1 x_r1_g43 >= -1 ;
1 p_r1_g91_h45_t46 -1 x_r1_g91 <= 0 ;
1 p_r1_g91_h45_t46 -1 x_r1_g45 <= 0 ;
1 p_r1_g91_h45_t46 -1 x_r1_g91 -1 x_r1_g45 >= -1 ;
1 p_r1_g92_h46_t46 -1 x_r1_g92 <= 0 ;
1 p_r1_g92_h46_t46 -1 x_r1_g46 <= 0 ;
1 p_r1_g92_h46_t46 -1 x_r1_g92 -1 x_r1_g46 >= -1 ;
1 p_r1_g94_h48_t46 -1 x_r1_g94 <= 0 ;
1 p_r1_g94_h48_t46 -1 x_r1_g48 <= 0 ;
1 p_r1_g94_h48_t46 -1 x_r1_g94 -1 x_r1_g48 >= -1 ;
1 p_r1_g104_h58_t46 -1 x_r1_g104 <= 0 ;
1 p_r1_g104_h58_t46 -1 x_r1_g58 <= 0 ;
1 p_r1_g104_h58_t46 -1 x_r1_g104 -1 x_r1_g58 >= -1 ;
1 p_r1_g138_h92_t46 -1 x_r1_g138 <= 0 ;
1 p_r1_g138_h92_t46 -1 x_r1_g92 <= 0 ;
1 p_r1_g138_h92_t46 -1 x_r1_g138 -1 x_r1_g92 >= -1 ;
1 p_r1_g160_h114_t46 -1 x_r1_g160 <= 0 ;
1 p_r1_g160_h114_t46 -1 x_r1_g114 <= 0 ;
1 p_r1_g160_h114_t46 -1 x_r1_g160 -1 x_r1_g114 >= -1 ;
1 p_r2_g6_h127_t46 -1 x_r2_g6 <= 0 ;
1 p_r2_g6_h127_t46 -1 x_r2_g127 <= 0 ;
1 p_r2_g6_h127_t46 -1 x_r2_g6 -1 x_r2_g127 >= -1 ;
1 p_r2_g75_h29_t46 -1 x_r2_g75 <= 0 ;
1 p_r2_g75_h29_t46 -1 x_r2_g29 <= 0 ;
1 p_r2_g75_h29_t46 -1 x_r2_g75 -1 x_r2_g29 >= -1 ;
1 p_r2_g80_h34_t46 -1 x_r2_g80 <= 0 ;
1 p_r2_g80_h34_t46 -1 x_r2_g34 <= 0 ;
1 p_r2_g80_h34_t46 -1 x_r2_g80 -1 x_r2_g34 >= -1 ;
1 p_r2_g87_h41_t46 -1 x_r2_g87 <= 0 ;
1 p_r2_g87_h41_t46 -1 x_r2_g41 <= 0 ;
1 p_r2_g87_h41_t46 -1 x_r2_g87 -1 x_r2_g41 >= -1 ;
1 p_r2_g93_h47_t46 -1 x_r2_g93 <= 0 ;
1 p_r2_g93_h47_t46 -1 x_r2_g47 <= 0 ;
1 p_r2_g93_h47_t46 -1 x_r2_g93 -1 x_r2_g47 >= -1 ;
1 p_r2_g107_h61_t46 -1 x_r2_g107 <= 0 ;
1 p_r2_g107_h61_t46 -1 x_r2_g61 <= 0 ;
1 p_r2_g107_h61_t46 -1 x_r2_g107 -1 x_r2_g61 >= -1 ;
1 p_r2_g139_h93_t46 -1 x_r2_g139 <= 0 ;
1 p_r2_g139_h93_t46 -1 x_r2_g93 <= 0 ;
1 p_r2_g139_h93_t46 -1 x_r2_g139 -1 x_r2_g93 >= -1 ;
1 p_r3_g0_h121_t46 -1 x_r3_g0 <= 0 ;
1 p_r3_g0_h121_t46 -1 x_r3_g121 <= 0 ;
1 p_r3_g0_h121_t46 -1 x_r3_g0 -1 x_r3_g121 >= -1 ;
1 p_r3_g3_h124_t46 -1 x_r3_g3 <= 0 ;
1 p_r3_g3_h124_t46 -1 x_r3_g124 <= 0 ;
1 p_r3_g3_h124_t46 -1 x_r3_g3 -1 x_r3_g124 >= -1 ;
1 p_r3_g4_h125_t46 -1 x_r3_g4 <= 0 ;
1 p_r3_g4_h125_t46 -1 x_r3_g125 <= 0 ;
1 p_r3_g4_h125_t46 -1 x_r3_g4 -1 x_r3_g125 >= -1 ;
1 p_r3_g29_h150_t46 -1 x_r3_g29 <= 0 ;
1 p_r3_g29_h150_t46 -1 x_r3_g150 <= 0 ;
1 p_r3_g29_h150_t46 -1 x_r3_g29 -1 x_r3_g150 >= -1 ;
1 p_r3_g49_h3_t46 -1 x_r3_g49 <= 0 ;
1 p_r3_g49_h3_t46 -1 x_r3_g3 <= 0 ;
1 p_r3_g49_h3_t46 -1 x_r3_g49 -1 x_r3_g3 >= -1 ;
1 p_r3_g53_h7_t46 -1 x_r3_g53 <= 0 ;
1 p_r3_g53_h7_t46 -1 x_r3_g7 <= 0 ;
1 p_r3_g53_h7_t46 -1 x_r3_g53 -1 x_r3_g7 >= -1 ;
1 p_r3_g77_h31_t46 -1 x_r3_g77 <= 0 ;
1 p_r3_g77_h31_t46 -1 x_r3_g31 <= 0 ;
1 p_r3_g77_h31_t46 -1 x_r3_g77 -1 x_r3_g31 >= -1 ;
1 p_r3_g89_h43_t46 -1 x_r3_g89 <= 0 ;
1 p_r3_g89_h43_t46 -1 x_r3_g43 <= 0 ;
1 p_r3_g89_h43_t46 -1 x_r3_g89 -1 x_r3_g43 >= -1 ;
1 p_r3_g107_h61_t46 -1 x_r3_g107 <= 0 ;
1 p_r3_g107_h61_t46 -1 x_r3_g61 <= 0 ;
1 p_r3_g107_h61_t46 -1 x_r3_g107 -1 x_r3_g61 >= -1 ;
1 p_r3_g124_h78_t46 -1 x_r3_g124 <= 0 ;
1 p_r3_g124_h78_t46 -1 x_r3_g78 <= 0 ;
1 p_r3_g124_h78_t46 -1 x_r3_g124 -1 x_r3_g78 >= -1 ;
1 d_46 -1 x_r0_g6 -2 x_r0_g22 -1 x_r0_g25 -1 x_r0_g39 -2 x_r0_g44 -1 x_r0_g49 -1 x_r0_g52 -1 x_r0_g54 -1 x_r0_g57 -1 x_r0_g73 -1 x_r0_g74 -1 x_r0_g77 -2 x_r0_g80 -1 x_r0_g88 -1 x_r0_g101 -1 x_r0_g103 -2 x_r0_g111 -1 x_r0_g112 -1 x_r0_g116 -1 x_r0_g128 -1 x_r0_g132 -1 x_r0_g135 -2 x_r0_g136 -1 x_r0_g144 -1 x_r0_g152 -1 x_r0_g163 -2 x_r0_g164 -1 x_r1_g2 -1 x_r1_g16 -2 x_r1_g20 -2 x_r1_g35 -2 x_r1_g36 -2 x_r1_g38 -2 x_r1_g42 -1 x_r1_g44 -1 x_r1_g45 -2 x_r1_g77 -2 x_r1_g78 -1 x_r1_g94 -1 x_r1_g99 -1 x_r1_g114 -1 x_r1_g115 -1 x_r1_g116 -1 x_r1_g120 -1 x_r1_g128 -1 x_r1_g130 -1 x_r1_g131 -1 x_r1_g148 -1 x_r1_g160 -1 x_r2_g7 -1 x_r2_g13 -1 x_r2_g14 -1 x_r2_g22 -1 x_r2_g29 -1 x_r2_g47 -1 x_r2_g56 -1 x_r2_g75 -2 x_r2_g76 -1 x_r2_g80 -1 x_r2_g84 -1 x_r2_g90 -2 x_r2_g106 -1 x_r2_g107 -2 x_r2_g111 -1 x_r2_g112 -2 x_r2_g114 -1 x_r2_g119 -1 x_r2_g125 -1 x_r2_g139 -1 x_r2_g141 -1 x_r2_g146 -1 x_r2_g149 -1 x_r2_g161 -1 x_r2_g166 -1 x_r3_g0 -1 x_r3_g6 -1 x_r3_g7 -1 x_r3_g27 -1 x_r3_g29 -1 x_r3_g53 -1 x_r3_g54 -1 x_r3_g60 -1 x_r3_g63 -2 x_r3_g66 -1 x_r3_g77 -1 x_r3_g78 -2 x_r3_g82 -2 x_r3_g83 -1 x_r3_g84 -1 x_r3_g97 -2 x_r3_g108 -1 x_r3_g121 -2 x_r3_g122 -1 x_r3_g132 -1 x_r3_g139 -1 x_r3_g141 -1 x_r3_g145 -1 p_r0_g23_h144_t46 -1 p_r0_g52_h6_t46 -1 p_r0_g95_h49_t46 -1 p_r0_g103_h57_t46 -1 p_r0_g162_h116_t46 -1 p_r0_g163_h117_t46 -1 p_r1_g43_h164_t46 -1 p_r1_g46_h0_t46 -1 p_r1_g48_h2_t46 -1 p_r1_g89_h43_t46 -1 p_r1_g91_h45_t46 -1 p_r1_g92_h46_t46 -1 p_r1_g94_h48_t46 -1 p_r1_g104_h58_t46 -1 p_r1_g138_h92_t46 -1 p_r1_g160_h114_t46 -1 p_r2_g6_h127_t46 -1 p_r2_g75_h29_t46 -1 p_r2_g80_h34_t46 -1 p_r2_g87_h41_t46 -1 p_r2_g93_h47_t46 -1 p_r2_g107_h61_t46 -1 p_r2_g139_h93_t46 -1 p_r3_g0_h121_t46 -1 p_r3_g3_h124_t46 -1 p_r3_g4_h125_t46 -1 p_r3_g29_h150_t46 -1 p_r3_g49_h3_t46 -1 p_r3_g53_h7_t46 -1 p_r3_g77_h31_t46 -1 p_r3_g89_h43_t46 -1 p_r3_g107_h61_t46 -1 p_r3_g124_h78_t46 = -70 ;
1 d_46 -1 u_46 <= 0 ;
-1 d_46 -1 u_46 <= 0 ;
1 u_46 -1 M <= 0 ;
1 u_46 <= 0 ;
1 p_r0_g44_h162_t49 -1 x_r0_g44 <= 0 ;
1 p_r0_g44_h162_t49 -1 x_r0_g162 <= 0 ;
1 p_r0_g44_h162_t49 -1 x_r0_g44 -1 x_r0_g162 >= -1 ;
1 p_r0_g46_h164_t49 -1 x_r0_g46 <= 0 ;
1 p_r0_g46_h164_t49 -1 x_r0_g164 <= 0 ;
1 p_r0_g46_h164_t49 -1 x_r0_g46 -1 x_r0_g164 >= -1 ;
1 p_r0_g74_h25_t49 -1 x_r0_g74 <= 0 ;
1 p_r0_g74_h25_t49 -1 x_r0_g25 <= 0 ;
1 p_r0_g74_h25_t49 -1 x_r0_g74 -1 x_r0_g25 >= -1 ;
1 p_r0_g88_h39_t49 -1 x_r0_g88 <= 0 ;
1 p_r0_g88_h39_t49 -1 x_r0_g39 <= 0 ;
1 p_r0_g88_h39_t49 -1 x_r0_g88 -1 x_r0_g39 >= -1 ;
1 p_r0_g95_h46_t49 -1 x_r0_g95 <= 0 ;
1 p_r0_g95_h46_t49 -1 x_r0_g46 <= 0 ;
1 p_r0_g95_h46_t49 -1 x_r0_g95 -1 x_r0_g46 >= -1 ;
1 p_r0_g101_h52_t49 -1 x_r0_g101 <= 0 ;
1 p_r0_g101_h52_t49 -1 x_r0_g52 <= 0 ;
1 p_r0_g101_h52_t49 -1 x_r0_g101 -1 x_r0_g52 >= -1 ;
1 p_r0_g103_h54_t49 -1 x_r0_g103 <= 0 ;
1 p_r0_g103_h54_t49 -1 x_r0_g54 <= 0 ;
1 p_r0_g103_h54_t49 -1 x_r0_g103 -1 x_r0_g54 >= -1 ;
1 p_r0_g137_h88_t49 -1 x_r0_g137 <= 0 ;
1 p_r0_g137_h88_t49 -1 x_r0_g88 <= 0 ;
1 p_r0_g137_h88_t49 -1 x_r0_g137 -1 x_r0_g88 >= -1 ;
1 p_r0_g144_h95_t49 -1 x_r0_g144 <= 0 ;
1 p_r0_g144_h95_t49 -1 x_r0_g95 <= 0 ;
1 p_r0_g144_h95_t49 -1 x_r0_g144 -1 x_r0_g95 >= -1 ;
1 p_r0_g150_h101_t49 -1 x_r0_g150 <= 0 ;
1 p_r0_g150_h101_t49 -1 x_r0_g101 <= 0 ;
1 p_r0_g150_h101_t49 -1 x_r0_g150 -1 x_r0_g101 >= -1 ;
1 p_r0_g152_h103_t49 -1 x_r0_g152 <= 0 ;
1 p_r0_g152_h103_t49 -1 x_r0_g103 <= 0 ;
1 p_r0_g152_h103_t49 -1 x_r0_g152 -1 x_r0_g103 >= -1 ;
1 p_r1_g2_h120_t49 -1 x_r1_g2 <= 0 ;
1 p_r1_g2_h120_t49 -1 x_r1_g120 <= 0 ;
1 p_r1_g2_h120_t49 -1 x_r1_g2 -1 x_r1_g120 >= -1 ;
1 p_r1_g20_h138_t49 -1 x_r1_g20 <= 0 ;
1 p_r1_g20_h138_t49 -1 x_r1_g138 <= 0 ;
1 p_r1_g20_h138_t49 -1 x_r1_g20 -1 x_r1_g138 >= -1 ;
1 p_r1_g42_h160_t49 -1 x_r1_g42 <= 0 ;
1 p_r1_g42_h160_t49 -1 x_r1_g160 <= 0 ;
1 p_r1_g42_h160_t49 -1 x_r1_g42 -1 x_r1_g160 >= -1 ;
1 p_r1_g46_h164_t49 -1 x_r1_g46 <= 0 ;
1 p_r1_g46_h164_t49 -1 x_r1_g164 <= 0 ;
1 p_r1_g46_h164_t49 -1 x_r1_g46 -1 x_r1_g164 >= -1 ;
1 p_r1_g77_h28_t49 -1 x_r1_g77 <= 0 ;
1 p_r1_g77_h28_t49 -1 x_r1_g28 <= 0 ;
1 p_r1_g77_h28_t49 -1 x_r1_g77 -1 x_r1_g28 >= -1 ;
1 p_r1_g78_h29_t49 -1 x_r1_g78 <= 0 ;
1 p_r1_g78_h29_t49 -1 x_r1_g29 <= 0 ;
1 p_r1_g78_h29_t49 -1 x_r1_g78 -1 x_r1_g29 >= -1 ;
1 p_r1_g91_h42_t49 -1 x_r1_g91 <= 0 ;
1 p_r1_g91_h42_t49 -1 x_r1_g42 <= 0 ;
1 p_r1_g91_h42_t49 -1 x_r1_g91 -1 x_r1_g42 >= -1 ;
1 p_r1_g92_h43_t49 -1 x_r1_g92 <= 0 ;
1 p_r1_g92_h43_t49 -1 x_r1_g43 <= 0 ;
1 p_r1_g92_h43_t49 -1 x_r1_g92 -1 x_r1_g43 >= -1 ;
1 p_r1_g94_h45_t49 -1 x_r1_g94 <= 0 ;
1 p_r1_g94_h45_t49 -1 x_r1_g45 <= 0 ;
1 p_r1_g94_h45_t49 -1 x_r1_g94 -1 x_r1_g45 >= -1 ;
1 p_r1_g120_h71_t49 -1 x_r1_g120 <= 0 ;
1 p_r1_g120_h71_t49 -1 x_r1_g71 <= 0 ;
1 p_r1_g120_h71_t49 -1 x_r1_g120 -1 x_r1_g71 >= -1 ;
1 p_r1_g138_h89_t49 -1 x_r1_g138 <= 0 ;
1 p_r1_g138_h89_t49 -1 x_r1_g89 <= 0 ;
1 p_r1_g138_h89_t49 -1 x_r1_g138 -1 x_r1_g89 >= -1 ;
1 p_r1_g148_h99_t49 -1 x_r1_g148 <= 0 ;
1 p_r1_g148_h99_t49 -1 x_r1_g99 <= 0 ;
1 p_r1_g148_h99_t49 -1 x_r1_g148 -1 x_r1_g99 >= -1 ;
1 p_r1_g164_h115_t49 -1 x_r1_g164 <= 0 ;
1 p_r1_g164_h115_t49 -1 x_r1_g115 <= 0 ;
1 p_r1_g164_h115_t49 -1 x_r1_g164 -1 x_r1_g115 >= -1 ;
1 p_r2_g7_h125_t49 -1 x_r2_g7 <= 0 ;
1 p_r2_g7_h125_t49 -1 x_r2_g125 <= 0 ;
1 p_r2_g7_h125_t49 -1 x_r2_g7 -1 x_r2_g125 >= -1 ;
1 p_r2_g56_h7_t49 -1 x_r2_g56 <= 0 ;
1 p_r2_g56_h7_t49 -1 x_r2_g7 <= 0 ;
1 p_r2_g56_h7_t49 -1 x_r2_g56 -1 x_r2_g7 >= -1 ;
1 p_r2_g63_h14_t49 -1 x_r2_g63 <= 0 ;
1 p_r2_g63_h14_t49 -1 x_r2_g14 <= 0 ;
1 p_r2_g63_h14_t49 -1 x_r2_g63 -1 x_r2_g14 >= -1 ;
1 p_r2_g84_h35_t49 -1 x_r2_g84 <= 0 ;
1 p_r2_g84_h35_t49 -1 x_r2_g35 <= 0 ;
1 p_r2_g84_h35_t49 -1 x_r2_g84 -1 x_r2_g35 >= -1 ;
1 p_r2_g90_h41_t49 -1 x_r2_g90 <= 0 ;
1 p_r2_g90_h41_t49 -1 x_r2_g41 <= 0 ;
1 p_r2_g90_h41_t49 -1 x_r2_g90 -1 x_r2_g41 >= -1 ;
1 p_r2_g112_h63_t49 -1 x_r2_g112 <= 0 ;
1 p_r2_g112_h63_t49 -1 x_r2_g63 <= 0 ;
1 p_r2_g112_h63_t49 -1 x_r2_g112 -1 x_r2_g63 >= -1 ;
1 p_r2_g125_h76_t49 -1 x_r2_g125 <= 0 ;
1 p_r2_g125_h76_t49 -1 x_r2_g76 <= 0 ;
1 p_r2_g125_h76_t49 -1 x_r2_g125 -1 x_r2_g76 >= -1 ;
1 p_r2_g139_h90_t49 -1 x_r2_g139 <= 0 ;
1 p_r2_g139_h90_t49 -1 x_r2_g90 <= 0 ;
1 p_r2_g139_h90_t49 -1 x_r2_g139 -1 x_r2_g90 >= -1 ;
1 p_r2_g161_h112_t49 -1 x_r2_g161 <= 0 ;
1 p_r2_g161_h112_t49 -1 x_r2_g112 <= 0 ;
1 p_r2_g161_h112_t49 -1 x_r2_g161 -1 x_r2_g112 >= -1 ;
1 p_r3_g3_h121_t49 -1 x_r3_g3 <= 0 ;
1 p_r3_g3_h121_t49 -1 x_r3_g121 <= 0 ;
1 p_r3_g3_h121_t49 -1 x_r3_g3 -1 x_r3_g121 >= -1 ;
1 p_r3_g4_h122_t49 -1 x_r3_g4 <= 0 ;
1 p_r3_g4_h122_t49 -1 x_r3_g122 <= 0 ;
1 p_r3_g4_h122_t49 -1 x_r3_g4 -1 x_r3_g122 >= -1 ;
1 p_r3_g6_h124_t49 -1 x_r3_g6 <= 0 ;
1 p_r3_g6_h124_t49 -1 x_r3_g124 <= 0 ;
1 p_r3_g6_h124_t49 -1 x_r3_g6 -1 x_r3_g124 >= -1 ;
1 p_r3_g7_h125_t49 -1 x_r3_g7 <= 0 ;
1 p_r3_g7_h125_t49 -1 x_r3_g125 <= 0 ;
1 p_r3_g7_h125_t49 -1 x_r3_g7 -1 x_r3_g125 >= -1 ;
1 p_r3_g27_h145_t49 -1 x_r3_g27 <= 0 ;
1 p_r3_g27_h145_t49 -1 x_r3_g145 <= 0 ;
1 p_r3_g27_h145_t49 -1 x_r3_g27 -1 x_r3_g145 >= -1 ;
1 p_r3_g49_h0_t49 -1 x_r3_g49 <= 0 ;
1 p_r3_g49_h0_t49 -1 x_r3_g0 <= 0 ;
1 p_r3_g49_h0_t49 -1 x_r3_g49 -1 x_r3_g0 >= -1 ;
1 p_r3_g53_h4_t49 -1 x_r3_g53 <= 0 ;
1 p_r3_g53_h4_t49 -1 x_r3_g4 <= 0 ;
1 p_r3_g53_h4_t49 -1 x_r3_g53 -1 x_r3_g4 >= -1 ;
1 p_r3_g54_h5_t49 -1 x_r3_g54 <= 0 ;
1 p_r3_g54_h5_t49 -1 x_r3_g5 <= 0 ;
1 p_r3_g54_h5_t49 -1 x_r3_g54 -1 x_r3_g5 >= -1 ;
1 p_r3_g56_h7_t49 -1 x_r3_g56 <= 0 ;
1 p_r3_g56_h7_t49 -1 x_r3_g7 <= 0 ;
1 p_r3_g56_h7_t49 -1 x_r3_g56 -1 x_r3_g7 >= -1 ;
1 p_r3_g61_h12_t49 -1 x_r3_g61 <= 0 ;
1 p_r3_g61_h12_t49 -1 x_r3_g12 <= 0 ;
1 p_r3_g61_h12_t49 -1 x_r3_g61 -1 x_r3_g12 >= -1 ;
1 p_r3_g78_h29_t49 -1 x_r3_g78 <= 0 ;
1 p_r3_g78_h29_t49 -1 x_r3_g29 <= 0 ;
1 p_r3_g78_h29_t49 -1 x_r3_g78 -1 x_r3_g29 >= -1 ;
1 p_r3_g131_h82_t49 -1 x_r3_g131 <= 0 ;
1 p_r3_g131_h82_t49 -1 x_r3_g82 <= 0 ;
1 p_r3_g131_h82_t49 -1 x_r3_g131 -1 x_r3_g82 >= -1 ;
1 p_r3_g132_h83_t49 -1 x_r3_g132 <= 0 ;
1 p_r3_g132_h83_t49 -1 x_r3_g83 <= 0 ;
1 p_r3_g132_h83_t49 -1 x_r3_g132 -1 x_r3_g83 >= -1 ;
1 d_49 -1 x_r0_g6 -1 x_r0_g25 -1 x_r0_g39 -1 x_r0_g40 -1 x_r0_g47 -1 x_r0_g49 -1 x_r0_g52 -1 x_r0_g54 -1 x_r0_g57 -1 x_r0_g73 -1 x_r0_g74 -1 x_r0_g77 -2 x_r0_g111 -1 x_r0_g112 -2 x_r0_g116 -1 x_r0_g117 -1 x_r0_g132 -1 x_r0_g137 -1 x_r0_g139 -1 x_r0_g152 -1 x_r0_g162 -1 x_r0_g163 -1 x_r1_g0 -1 x_r1_g15 -1 x_r1_g16 -1 x_r1_g20 -1 x_r1_g28 -1 x_r1_g35 -1 x_r1_g36 -2 x_r1_g38 -1 x_r1_g45 -1 x_r1_g46 -1 x_r1_g48 -1 x_r1_g58 -1 x_r1_g76 -1 x_r1_g78 -1 x_r1_g89 -1 x_r1_g91 -1 x_r1_g92 -2 x_r1_g114 -1 x_r1_g115 -2 x_r1_g119 -2 x_r1_g128 -1 x_r1_g130 -1 x_r1_g131 -1 x_r2_g14 -1 x_r2_g22 -1 x_r2_g29 -2 x_r2_g34 -1 x_r2_g35 -1 x_r2_g47 -1 x_r2_g56 -1 x_r2_g61 -1 x_r2_g75 -1 x_r2_g76 -2 x_r2_g80 -1 x_r2_g87 -1 x_r2_g98 -1 x_r2_g107 -1 x_r2_g108 -1 x_r2_g111 -2 x_r2_g114 -1 x_r2_g116 -1 x_r2_g118 -1 x_r2_g119 -1 x_r2_g127 -1 x_r2_g138 -1 x_r2_g139 -1 x_r2_g145 -1 x_r2_g146 -1 x_r2_g149 -1 x_r2_g161 -1 x_r2_g166 -1 x_r3_g0 -1 x_r3_g5 -1 x_r3_g6 -1 x_r3_g27 -2 x_r3_g31 -1 x_r3_g44 -1 x_r3_g49 -1 x_r3_g61 -1 x_r3_g63 -1 x_r3_g66 -1 x_r3_g77 -1 x_r3_g78 -2 x_r3_g89 -1 x_r3_g108 -1 x_r3_g124 -1 x_r3_g125 -1 x_r3_g131 -1 x_r3_g136 -1 x_r3_g150 -1 p_r0_g44_h162_t49 -1 p_r0_g46_h164_t49 -1 p_r0_g74_h25_t49 -1 p_r0_g88_h39_t49 -1 p_r0_g95_h46_t49 -1 p_r0_g101_h52_t49 -1 p_r0_g103_h54_t49 -1 p_r0_g137_h88_t49 -1 p_r0_g144_h95_t49 -1 p_r0_g150_h101_t49 -1 p_r0_g152_h103_t49 -1 p_r1_g2_h120_t49 -1 p_r1_g20_h138_t49 -1 p_r1_g42_h160_t49 -1 p_r1_g46_h164_t49 -1 p_r1_g77_h28_t49 -1 p_r1_g78_h29_t49 -1 p_r1_g91_h42_t49 -1 p_r1_g92_h43_t49 -1 p_r1_g94_h45_t49 -1 p_r1_g120_h71_t49 -1 p_r1_g138_h89_t49 -1 p_r1_g148_h99_t49 -1 p_r1_g164_h115_t49 -1 p_r2_g7_h125_t49 -1 p_r2_g56_h7_t49 -1 p_r2_g63_h14_t49 -1 p_r2_g84_h35_t49 -1 p_r2_g90_h41_t49 -1 p_r2_g112_h63_t49 -1 p_r2_g125_h76_t49 -1 p_r2_g139_h90_t49 -1 p_r2_g161_h112_t49 -1 p_r3_g3_h121_t49 -1 p_r3_g4_h122_t49 -1 p_r3_g6_h124_t49 -1 p_r3_g7_h125_t49 -1 p_r3_g27_h145_t49 -1 p_r3_g49_h0_t49 -1 p_r3_g53_h4_t49 -1 p_r3_g54_h5_t49 -1 p_r3_g56_h7_t49 -1 p_r3_g61_h12_t49 -1 p_r3_g78_h29_t49 -1 p_r3_g131_h82_t49 -1 p_r3_g132_h83_t49 = -87 ;
1 d_49 -1 u_49 <= 0 ;
-1 d_49 -1 u_49 <= 0 ;
1 u_49 -1 M <= 0 ;
1 u_49 <= 3 ;
1 p_r0_g35_h135_t67 -1 x_r0_g35 <= 0 ;
1 p_r0_g35_h135_t67 -1 x_r0_g135 <= 0 ;
1 p_r0_g35_h135_t67 -1 x_r0_g35 -1 x_r0_g135 >= -1 ;
1 p_r0_g39_h139_t67 -1 x_r0_g39 <= 0 ;
1 p_r0_g39_h139_t67 -1 x_r0_g139 <= 0 ;
1 p_r0_g39_h139_t67 -1 x_r0_g39 -1 x_r0_g139 >= -1 ;
1 p_r0_g44_h144_t67 -1 x_r0_g44 <= 0 ;
1 p_r0_g44_h144_t67 -1 x_r0_g144 <= 0 ;
1 p_r0_g44_h144_t67 -1 x_r0_g44 -1 x_r0_g144 >= -1 ;
1 p_r0_g50_h150_t67 -1 x_r0_g50 <= 0 ;
1 p_r0_g50_h150_t67 -1 x_r0_g150 <= 0 ;
1 p_r0_g50_h150_t67 -1 x_r0_g50 -1 x_r0_g150 >= -1 ;
1 p_r0_g52_h152_t67 -1 x_r0_g52 <= 0 ;
1 p_r0_g52_h152_t67 -1 x_r0_g152 <= 0 ;
1 p_r0_g52_h152_t67 -1 x_r0_g52 -1 x_r0_g152 >= -1 ;
1 p_r0_g73_h6_t67 -1 x_r0_g73 <= 0 ;
1 p_r0_g73_h6_t67 -1 x_r0_g6 <= 0 ;
1 p_r0_g73_h6_t67 -1 x_r0_g73 -1 x_r0_g6 >= -1 ;
1 p_r0_g111_h44_t67 -1 x_r0_g111 <= 0 ;
1 p_r0_g111_h44_t67 -1 x_r0_g44 <= 0 ;
1 p_r0_g111_h44_t67 -1 x_r0_g111 -1 x_r0_g44 >= -1 ;
1 p_r0_g116_h49_t67 -1 x_r0_g116 <= 0 ;
1 p_r0_g116_h49_t67 -1 x_r0_g49 <= 0 ;
1 p_r0_g116_h49_t67 -1 x_r0_g116 -1 x_r0_g49 >= -1 ;
1 p_r0_g117_h50_t67 -1 x_r0_g117 <= 0 ;
1 p_r0_g117_h50_t67 -1 x_r0_g50 <= 0 ;
1 p_r0_g117_h50_t67 -1 x_r0_g117 -1 x_r0_g50 >= -1 ;
1 p_r0_g144_h77_t67 -1 x_r0_g144 <= 0 ;
1 p_r0_g144_h77_t67 -1 x_r0_g77 <= 0 ;
1 p_r0_g144_h77_t67 -1 x_r0_g144 -1 x_r0_g77 >= -1 ;
1 p_r0_g162_h95_t67 -1 x_r0_g162 <= 0 ;
1 p_r0_g162_h95_t67 -1 x_r0_g95 <= 0 ;
1 p_r0_g162_h95_t67 -1 x_r0_g162 -1 x_r0_g95 >= -1 ;
1 p_r1_g15_h115_t67 -1 x_r1_g15 <= 0 ;
1 p_r1_g15_h115_t67 -1 x_r1_g115 <= 0 ;
1 p_r1_g15_h115_t67 -1 x_r1_g15 -1 x_r1_g115 >= -1 ;
1 p_r1_g16_h116_t67 -1 x_r1_g16 <= 0 ;
1 p_r1_g16_h116_t67 -1 x_r1_g116 <= 0 ;
1 p_r1_g16_h116_t67 -1 x_r1_g16 -1 x_r1_g116 >= -1 ;
1 p_r1_g20_h120_t67 -1 x_r1_g20 <= 0 ;
1 p_r1_g20_h120_t67 -1 x_r1_g120 <= 0 ;
1 p_r1_g20_h120_t67 -1 x_r1_g20 -1 x_r1_g120 >= -1 ;
1 p_r1_g28_h128_t67 -1 x_r1_g28 <= 0 ;
1 p_r1_g28_h128_t67 -1 x_r1_g128 <= 0 ;
1 p_r1_g28_h128_t67 -1 x_r1_g28 -1 x_r1_g128 >= -1 ;
1 p_r1_g38_h138_t67 -1 x_r1_g38 <= 0 ;
1 p_r1_g38_h138_t67 -1 x_r1_g138 <= 0 ;
1 p_r1_g38_h138_t67 -1 x_r1_g38 -1 x_r1_g138 >= -1 ;
1 p_r1_g48_h148_t67 -1 x_r1_g48 <= 0 ;
1 p_r1_g48_h148_t67 -1 x_r1_g148 <= 0 ;
1 p_r1_g48_h148_t67 -1 x_r1_g48 -1 x_r1_g148 >= -1 ;
1 p_r1_g115_h48_t67 -1 x_r1_g115 <= 0 ;
1 p_r1_g115_h48_t67 -1 x_r1_g48 <= 0 ;
1 p_r1_g115_h48_t67 -1 x_r1_g115 -1 x_r1_g48 >= -1 ;
1 p_r1_g138_h71_t67 -1 x_r1_g138 <= 0 ;
1 p_r1_g138_h71_t67 -1 x_r1_g71 <= 0 ;
1 p_r1_g138_h71_t67 -1 x_r1_g138 -1 x_r1_g71 >= -1 ;
1 p_r2_g6_h106_t67 -1 x_r2_g6 <= 0 ;
1 p_r2_g6_h106_t67 -1 x_r2_g106 <= 0 ;
1 p_r2_g6_h106_t67 -1 x_r2_g6 -1 x_r2_g106 >= -1 ;
1 p_r2_g7_h107_t67 -1 x_r2_g7 <= 0 ;
1 p_r2_g7_h107_t67 -1 x_r2_g107 <= 0 ;
1 p_r2_g7_h107_t67 -1 x_r2_g7 -1 x_r2_g107 >= -1 ;
1 p_r2_g14_h114_t67 -1 x_r2_g14 <= 0 ;
1 p_r2_g14_h114_t67 -1 x_r2_g114 <= 0 ;
1 p_r2_g14_h114_t67 -1 x_r2_g14 -1 x_r2_g114 >= -1 ;
1 p_r2_g41_h141_t67 -1 x_r2_g41 <= 0 ;
1 p_r2_g41_h141_t67 -1 x_r2_g141 <= 0 ;
1 p_r2_g41_h141_t67 -1 x_r2_g41 -1 x_r2_g141 >= -1 ;
1 p_r2_g61_h161_t67 -1 x_r2_g61 <= 0 ;
1 p_r2_g61_h161_t67 -1 x_r2_g161 <= 0 ;
1 p_r2_g61_h161_t67 -1 x_r2_g61 -1 x_r2_g161 >= -1 ;
1 p_r2_g80_h13_t67 -1 x_r2_g80 <= 0 ;
1 p_r2_g80_h13_t67 -1 x_r2_g13 <= 0 ;
1 p_r2_g80_h13_t67 -1 x_r2_g80 -1 x_r2_g13 >= -1 ;
1 p_r2_g108_h41_t67 -1 x_r2_g108 <= 0 ;
1 p_r2_g108_h41_t67 -1 x_r2_g41 <= 0 ;
1 p_r2_g108_h41_t67 -1 x_r2_g108 -1 x_r2_g41 >= -1 ;
1 p_r2_g114_h47_t67 -1 x_r2_g114 <= 0 ;
1 p_r2_g114_h47_t67 -1 x_r2_g47 <= 0 ;
1 p_r2_g114_h47_t67 -1 x_r2_g114 -1 x_r2_g47 >= -1 ;
1 p_r3_g7_h107_t67 -1 x_r3_g7 <= 0 ;
1 p_r3_g7_h107_t67 -1 x_r3_g107 <= 0 ;
1 p_r3_g7_h107_t67 -1 x_r3_g7 -1 x_r3_g107 >= -1 ;
1 p_r3_g31_h131_t67 -1 x_r3_g31 <= 0 ;
1 p_r3_g31_h131_t67 -1 x_r3_g131 <= 0 ;
1 p_r3_g31_h131_t67 -1 x_r3_g31 -1 x_r3_g131 >= -1 ;
1 p_r3_g121_h54_t67 -1 x_r3_g121 <= 0 ;
1 p_r3_g121_h54_t67 -1 x_r3_g54 <= 0 ;
1 p_r3_g121_h54_t67 -1 x_r3_g121 -1 x_r3_g54 >= -1 ;
1 p_r3_g145_h78_t67 -1 x_r3_g145 <= 0 ;
1 p_r3_g145_h78_t67 -1 x_r3_g78 <= 0 ;
1 p_r3_g145_h78_t67 -1 x_r3_g145 -1 x_r3_g78 >= -1 ;
1 p_r3_g150_h83_t67 -1 x_r3_g150 <= 0 ;
1 p_r3_g150_h83_t67 -1 x_r3_g83 <= 0 ;
1 p_r3_g150_h83_t67 -1 x_r3_g150 -1 x_r3_g83 >= -1 ;
1 d_67 -1 x_r0_g6 -1 x_r0_g22 -2 x_r0_g23 -1 x_r0_g25 -1 x_r0_g35 -1 x_r0_g39 -2 x_r0_g46 -1 x_r0_g49 -1 x_r0_g52 -1 x_r0_g57 -1 x_r0_g74 -1 x_r0_g75 -1 x_r0_g80 -1 x_r0_g88 -1 x_r0_g101 -2 x_r0_g103 -1 x_r0_g111 -2 x_r0_g112 -1 x_r0_g132 -1 x_r0_g135 -1 x_r0_g136 -2 x_r0_g137 -1 x_r0_g162 -1 x_r0_g163 -1 x_r1_g0 -1 x_r1_g2 -1 x_r1_g15 -1 x_r1_g20 -1 x_r1_g28 -1 x_r1_g29 -1 x_r1_g36 -1 x_r1_g42 -1 x_r1_g45 -2 x_r1_g46 -1 x_r1_g77 -1 x_r1_g78 -1 x_r1_g89 -1 x_r1_g92 -1 x_r1_g94 -2 x_r1_g99 -1 x_r1_g101 -1 x_r1_g104 -1 x_r1_g116 -1 x_r1_g120 -2 x_r1_g131 -1 x_r1_g148 -1 x_r1_g164 -1 x_r2_g7 -1 x_r2_g13 -1 x_r2_g22 -1 x_r2_g29 -2 x_r2_g34 -1 x_r2_g35 -1 x_r2_g61 -2 x_r2_g63 -1 x_r2_g84 -1 x_r2_g87 -1 x_r2_g90 -2 x_r2_g93 -2 x_r2_g98 -1 x_r2_g106 -1 x_r2_g116 -1 x_r2_g118 -2 x_r2_g125 -2 x_r2_g127 -1 x_r2_g139 -1 x_r2_g141 -1 x_r2_g145 -1 x_r2_g146 -2 x_r2_g149 -1 x_r2_g161 -1 x_r3_g6 -1 x_r3_g7 -1 x_r3_g12 -2 x_r3_g27 -1 x_r3_g29 -1 x_r3_g31 -2 x_r3_g43 -2 x_r3_g44 -1 x_r3_g49 -1 x_r3_g54 -1 x_r3_g56 -2 x_r3_g60 -1 x_r3_g61 -1 x_r3_g63 -1 x_r3_g66 -1 x_r3_g77 -1 x_r3_g82 -2 x_r3_g84 -1 x_r3_g89 -1 x_r3_g97 -1 x_r3_g107 -2 x_r3_g108 -2 x_r3_g122 -2 x_r3_g132 -1 x_r3_g136 -1 x_r3_g139 -2 x_r3_g141 -1 x_r3_g145 -1 p_r0_g35_h135_t67 -1 p_r0_g39_h139_t67 -1 p_r0_g44_h144_t67 -1 p_r0_g50_h150_t67 -1 p_r0_g52_h152_t67 -1 p_r0_g73_h6_t67 -1 p_r0_g111_h44_t67 -1 p_r0_g116_h49_t67 -1 p_r0_g117_h50_t67 -1 p_r0_g144_h77_t67 -1 p_r0_g162_h95_t67 -1 p_r1_g15_h115_t67 -1 p_r1_g16_h116_t67 -1 p_r1_g20_h120_t67 -1 p_r1_g28_h128_t67 -1 p_r1_g38_h138_t67 -1 p_r1_g48_h148_t67 -1 p_r1_g115_h48_t67 -1 p_r1_g138_h71_t67 -1 p_r2_g6_h106_t67 -1 p_r2_g7_h107_t67 -1 p_r2_g14_h114_t67 -1 p_r2_g41_h141_t67 -1 p_r2_g61_h161_t67 -1 p_r2_g80_h13_t67 -1 p_r2_g108_h41_t67 -1 p_r2_g114_h47_t67 -1 p_r3_g7_h107_t67 -1 p_r3_g31_h131_t67 -1 p_r3_g121_h54_t67 -1 p_r3_g145_h78_t67 -1 p_r3_g150_h83_t67 = -67 ;
1 d_67 -1 u_67 <= 0 ;
-1 d_67 -1 u_67 <= 0 ;
1 u_67 -1 M <= 0 ;
1 u_67 <= 0 ;
1 p_r0_g40_h139_t68 -1 x_r0_g40 <= 0 ;
1 p_r0_g40_h139_t68 -1 x_r0_g139 <= 0 ;
1 p_r0_g40_h139_t68 -1 x_r0_g40 -1 x_r0_g139 >= -1 ;
1 p_r0_g74_h6_t68 -1 x_r0_g74 <= 0 ;
1 p_r0_g74_h6_t68 -1 x_r0_g6 <= 0 ;
1 p_r0_g74_h6_t68 -1 x_r0_g74 -1 x_r0_g6 >= -1 ;
1 p_r0_g103_h35_t68 -1 x_r0_g103 <= 0 ;
1 p_r0_g103_h35_t68 -1 x_r0_g35 <= 0 ;
1 p_r0_g103_h35_t68 -1 x_r0_g103 -1 x_r0_g35 >= -1 ;
1 p_r0_g112_h44_t68 -1 x_r0_g112 <= 0 ;
1 p_r0_g112_h44_t68 -1 x_r0_g44 <= 0 ;
1 p_r0_g112_h44_t68 -1 x_r0_g112 -1 x_r0_g44 >= -1 ;
1 p_r0_g117_h49_t68 -1 x_r0_g117 <= 0 ;
1 p_r0_g117_h49_t68 -1 x_r0_g49 <= 0 ;
1 p_r0_g117_h49_t68 -1 x_r0_g117 -1 x_r0_g49 >= -1 ;
1 p_r0_g163_h95_t68 -1 x_r0_g163 <= 0 ;
1 p_r0_g163_h95_t68 -1 x_r0_g95 <= 0 ;
1 p_r0_g163_h95_t68 -1 x_r0_g163 -1 x_r0_g95 >= -1 ;
1 p_r1_g0_h99_t68 -1 x_r1_g0 <= 0 ;
1 p_r1_g0_h99_t68 -1 x_r1_g99 <= 0 ;
1 p_r1_g0_h99_t68 -1 x_r1_g0 -1 x_r1_g99 >= -1 ;
1 p_r1_g2_h101_t68 -1 x_r1_g2 <= 0 ;
1 p_r1_g2_h101_t68 -1 x_r1_g101 <= 0 ;
1 p_r1_g2_h101_t68 -1 x_r1_g2 -1 x_r1_g101 >= -1 ;
1 p_r1_g15_h114_t68 -1 x_r1_g15 <= 0 ;
1 p_r1_g15_h114_t68 -1 x_r1_g114 <= 0 ;
1 p_r1_g15_h114_t68 -1 x_r1_g15 -1 x_r1_g114 >= -1 ;
1 p_r1_g16_h115_t68 -1 x_r1_g16 <= 0 ;
1 p_r1_g16_h115_t68 -1 x_r1_g115 <= 0 ;
1 p_r1_g16_h115_t68 -1 x_r1_g16 -1 x_r1_g115 >= -1 ;
1 p_r1_g20_h119_t68 -1 x_r1_g20 <= 0 ;
1 p_r1_g20_h119_t68 -1 x_r1_g119 <= 0 ;
1 p_r1_g20_h119_t68 -1 x_r1_g20 -1 x_r1_g119 >= -1 ;
1 p_r1_g29_h128_t68 -1 x_r1_g29 <= 0 ;
1 p_r1_g29_h128_t68 -1 x_r1_g128 <= 0 ;
1 p_r1_g29_h128_t68 -1 x_r1_g29 -1 x_r1_g128 >= -1 ;
1 p_r1_g104_h36_t68 -1 x_r1_g104 <= 0 ;
1 p_r1_g104_h36_t68 -1 x_r1_g36 <= 0 ;
1 p_r1_g104_h36_t68 -1 x_r1_g104 -1 x_r1_g36 >= -1 ;
1 p_r1_g114_h46_t68 -1 x_r1_g114 <= 0 ;
1 p_r1_g114_h46_t68 -1 x_r1_g46 <= 0 ;
1 p_r1_g114_h46_t68 -1 x_r1_g114 -1 x_r1_g46 >= -1 ;
1 p_r1_g116_h48_t68 -1 x_r1_g116 <= 0 ;
1 p_r1_g116_h48_t68 -1 x_r1_g48 <= 0 ;
1 p_r1_g116_h48_t68 -1 x_r1_g116 -1 x_r1_g48 >= -1 ;
1 p_r1_g160_h92_t68 -1 x_r1_g160 <= 0 ;
1 p_r1_g160_h92_t68 -1 x_r1_g92 <= 0 ;
1 p_r1_g160_h92_t68 -1 x_r1_g160 -1 x_r1_g92 >= -1 ;
1 p_r2_g7_h106_t68 -1 x_r2_g7 <= 0 ;
1 p_r2_g7_h106_t68 -1 x_r2_g106 <= 0 ;
1 p_r2_g7_h106_t68 -1 x_r2_g7 -1 x_r2_g106 >= -1 ;
1 p_r2_g13_h112_t68 -1 x_r2_g13 <= 0 ;
1 p_r2_g13_h112_t68 -1 x_r2_g112 <= 0 ;
1 p_r2_g13_h112_t68 -1 x_r2_g13 -1 x_r2_g112 >= -1 ;
1 p_r2_g47_h146_t68 -1 x_r2_g47 <= 0 ;
1 p_r2_g47_h146_t68 -1 x_r2_g146 <= 0 ;
1 p_r2_g47_h146_t68 -1 x_r2_g47 -1 x_r2_g146 >= -1 ;
1 p_r2_g75_h7_t68 -1 x_r2_g75 <= 0 ;
1 p_r2_g75_h7_t68 -1 x_r2_g7 <= 0 ;
1 p_r2_g75_h7_t68 -1 x_r2_g75 -1 x_r2_g7 >= -1 ;
1 p_r2_g90_h22_t68 -1 x_r2_g90 <= 0 ;
1 p_r2_g90_h22_t68 -1 x_r2_g22 <= 0 ;
1 p_r2_g90_h22_t68 -1 x_r2_g90 -1 x_r2_g22 >= -1 ;
1 p_r2_g161_h93_t68 -1 x_r2_g161 <= 0 ;
1 p_r2_g161_h93_t68 -1 x_r2_g93 <= 0 ;
1 p_r2_g161_h93_t68 -1 x_r2_g161 -1 x_r2_g93 >= -1 ;
1 p_r2_g166_h98_t68 -1 x_r2_g166 <= 0 ;
1 p_r2_g166_h98_t68 -1 x_r2_g98 <= 0 ;
1 p_r2_g166_h98_t68 -1 x_r2_g166 -1 x_r2_g98 >= -1 ;
1 p_r3_g97_h29_t68 -1 x_r3_g97 <= 0 ;
1 p_r3_g97_h29_t68 -1 x_r3_g29 <= 0 ;
1 p_r3_g97_h29_t68 -1 x_r3_g97 -1 x_r3_g29 >= -1 ;
1 p_r3_g121_h53_t68 -1 x_r3_g121 <= 0 ;
1 p_r3_g121_h53_t68 -1 x_r3_g53 <= 0 ;
1 p_r3_g121_h53_t68 -1 x_r3_g121 -1 x_r3_g53 >= -1 ;
1 p_r3_g122_h54_t68 -1 x_r3_g122 <= 0 ;
1 p_r3_g122_h54_t68 -1 x_r3_g54 <= 0 ;
1 p_r3_g122_h54_t68 -1 x_r3_g122 -1 x_r3_g54 >= -1 ;
1 p_r3_g124_h56_t68 -1 x_r3_g124 <= 0 ;
1 p_r3_g124_h56_t68 -1 x_r3_g56 <= 0 ;
1 p_r3_g124_h56_t68 -1 x_r3_g124 -1 x_r3_g56 >= -1 ;
1 p_r3_g131_h63_t68 -1 x_r3_g131 <= 0 ;
1 p_r3_g131_h63_t68 -1 x_r3_g63 <= 0 ;
1 p_r3_g131_h63_t68 -1 x_r3_g131 -1 x_r3_g63 >= -1 ;
1 p_r3_g145_h77_t68 -1 x_r3_g145 <= 0 ;
1 p_r3_g145_h77_t68 -1 x_r3_g77 <= 0 ;
1 p_r3_g145_h77_t68 -1 x_r3_g145 -1 x_r3_g77 >= -1 ;
1 p_r3_g150_h82_t68 -1 x_r3_g150 <= 0 ;
1 p_r3_g150_h82_t68 -1 x_r3_g82 <= 0 ;
1 p_r3_g150_h82_t68 -1 x_r3_g150 -1 x_r3_g82 >= -1 ;
1 d_68 -1 x_r0_g22 -1 x_r0_g23 -1 x_r0_g44 -1 x_r0_g47 -2 x_r0_g50 -2 x_r0_g52 -1 x_r0_g54 -1 x_r0_g57 -1 x_r0_g73 -1 x_r0_g74 -2 x_r0_g75 -1 x_r0_g80 -1 x_r0_g88 -2 x_r0_g111 -1 x_r0_g112 -1 x_r0_g116 -2 x_r0_g135 -2 x_r0_g136 -1 x_r0_g137 -1 x_r0_g144 -1 x_r0_g150 -1 x_r0_g162 -1 x_r0_g164 -1 x_r1_g0 -1 x_r1_g2 -1 x_r1_g16 -1 x_r1_g20 -2 x_r1_g28 -1 x_r1_g35 -1 x_r1_g42 -1 x_r1_g44 -1 x_r1_g45 -1 x_r1_g58 -1 x_r1_g71 -2 x_r1_g78 -1 x_r1_g89 -1 x_r1_g91 -1 x_r1_g94 -1 x_r1_g99 -2 x_r1_g130 -1 x_r1_g131 -2 x_r1_g138 -2 x_r1_g148 -2 x_r1_g164 -2 x_r2_g6 -2 x_r2_g14 -1 x_r2_g22 -1 x_r2_g29 -1 x_r2_g34 -1 x_r2_g35 -1 x_r2_g41 -1 x_r2_g47 -2 x_r2_g61 -1 x_r2_g80 -1 x_r2_g84 -1 x_r2_g90 -1 x_r2_g93 -1 x_r2_g98 -1 x_r2_g107 -1 x_r2_g111 -1 x_r2_g114 -1 x_r2_g116 -1 x_r2_g119 -1 x_r2_g125 -1 x_r2_g127 -1 x_r2_g138 -1 x_r2_g145 -1 x_r2_g146 -2 x_r3_g0 -1 x_r3_g6 -2 x_r3_g7 -2 x_r3_g12 -1 x_r3_g29 -1 x_r3_g31 -2 x_r3_g43 -2 x_r3_g44 -1 x_r3_g49 -1 x_r3_g60 -2 x_r3_g61 -1 x_r3_g63 -1 x_r3_g66 -1 x_r3_g77 -1 x_r3_g83 -2 x_r3_g107 -2 x_r3_g108 -1 x_r3_g121 -1 x_r3_g125 -1 x_r3_g131 -2 x_r3_g136 -1 x_r3_g139 -1 x_r3_g145 -1 p_r0_g40_h139_t68 -1 p_r0_g74_h6_t68 -1 p_r0_g103_h35_t68 -1 p_r0_g112_h44_t68 -1 p_r0_g117_h49_t68 -1 p_r0_g163_h95_t68 -1 p_r1_g0_h99_t68 -1 p_r1_g2_h101_t68 -1 p_r1_g15_h114_t68 -1 p_r1_g16_h115_t68 -1 p_r1_g20_h119_t68 -1 p_r1_g29_h128_t68 -1 p_r1_g104_h36_t68 -1 p_r1_g114_h46_t68 -1 p_r1_g116_h48_t68 -1 p_r1_g160_h92_t68 -1 p_r2_g7_h106_t68 -1 p_r2_g13_h112_t68 -1 p_r2_g47_h146_t68 -1 p_r2_g75_h7_t68 -1 p_r2_g90_h22_t68 -1 p_r2_g161_h93_t68 -1 p_r2_g166_h98_t68 -1 p_r3_g97_h29_t68 -1 p_r3_g121_h53_t68 -1 p_r3_g122_h54_t68 -1 p_r3_g124_h56_t68 -1 p_r3_g131_h63_t68 -1 p_r3_g145_h77_t68 -1 p_r3_g150_h82_t68 = -64 ;
1 d_68 -1 u_68 <= 0 ;
-1 d_68 -1 u_68 <= 0 ;
1 u_68 -1 M <= 0 ;
1 u_68 <= 0 ;
1 p_r0_g39_h135_t71 -1 x_r0_g39 <= 0 ;
1 p_r0_g39_h135_t71 -1 x_r0_g135 <= 0 ;
1 p_r0_g39_h135_t71 -1 x_r0_g39 -1 x_r0_g135 >= -1 ;
1 p_r0_g40_h136_t71 -1 x_r0_g40 <= 0 ;
1 p_r0_g40_h136_t71 -1 x_r0_g136 <= 0 ;
1 p_r0_g40_h136_t71 -1 x_r0_g40 -1 x_r0_g136 >= -1 ;
1 p_r0_g54_h150_t71 -1 x_r0_g54 <= 0 ;
1 p_r0_g54_h150_t71 -1 x_r0_g150 <= 0 ;
1 p_r0_g54_h150_t71 -1 x_r0_g54 -1 x_r0_g150 >= -1 ;
1 p_r0_g77_h6_t71 -1 x_r0_g77 <= 0 ;
1 p_r0_g77_h6_t71 -1 x_r0_g6 <= 0 ;
1 p_r0_g77_h6_t71 -1 x_r0_g77 -1 x_r0_g6 >= -1 ;
1 p_r0_g111_h40_t71 -1 x_r0_g111 <= 0 ;
1 p_r0_g111_h40_t71 -1 x_r0_g40 <= 0 ;
1 p_r0_g111_h40_t71 -1 x_r0_g111 -1 x_r0_g40 >= -1 ;
1 p_r0_g117_h46_t71 -1 x_r0_g117 <= 0 ;
1 p_r0_g117_h46_t71 -1 x_r0_g46 <= 0 ;
1 p_r0_g117_h46_t71 -1 x_r0_g117 -1 x_r0_g46 >= -1 ;
1 p_r0_g128_h57_t71 -1 x_r0_g128 <= 0 ;
1 p_r0_g128_h57_t71 -1 x_r0_g57 <= 0 ;
1 p_r0_g128_h57_t71 -1 x_r0_g128 -1 x_r0_g57 >= -1 ;
1 p_r0_g144_h73_t71 -1 x_r0_g144 <= 0 ;
1 p_r0_g144_h73_t71 -1 x_r0_g73 <= 0 ;
1 p_r0_g144_h73_t71 -1 x_r0_g144 -1 x_r0_g73 >= -1 ;
1 p_r1_g20_h116_t71 -1 x_r1_g20 <= 0 ;
1 p_r1_g20_h116_t71 -1 x_r1_g116 <= 0 ;
1 p_r1_g20_h116_t71 -1 x_r1_g20 -1 x_r1_g116 >= -1 ;
1 p_r1_g35_h131_t71 -1 x_r1_g35 <= 0 ;
1 p_r1_g35_h131_t71 -1 x_r1_g131 <= 0 ;
1 p_r1_g35_h131_t71 -1 x_r1_g35 -1 x_r1_g131 >= -1 ;
1 p_r1_g42_h138_t71 -1 x_r1_g42 <= 0 ;
1 p_r1_g42_h138_t71 -1 x_r1_g138 <= 0 ;
1 p_r1_g42_h138_t71 -1 x_r1_g42 -1 x_r1_g138 >= -1 ;
1 p_r1_g71_h0_t71 -1 x_r1_g71 <= 0 ;
1 p_r1_g71_h0_t71 -1 x_r1_g0 <= 0 ;
1 p_r1_g71_h0_t71 -1 x_r1_g71 -1 x_r1_g0 >= -1 ;
1 p_r1_g91_h20_t71 -1 x_r1_g91 <= 0 ;
1 p_r1_g91_h20_t71 -1 x_r1_g20 <= 0 ;
1 p_r1_g91_h20_t71 -1 x_r1_g91 -1 x_r1_g20 >= -1 ;
1 p_r1_g99_h28_t71 -1 x_r1_g99 <= 0 ;
1 p_r1_g99_h28_t71 -1 x_r1_g28 <= 0 ;
1 p_r1_g99_h28_t71 -1 x_r1_g99 -1 x_r1_g28 >= -1 ;
1 p_r1_g114_h43_t71 -1 x_r1_g114 <= 0 ;
1 p_r1_g114_h43_t71 -1 x_r1_g43 <= 0 ;
1 p_r1_g114_h43_t71 -1 x_r1_g114 -1 x_r1_g43 >= -1 ;
1 p_r1_g115_h44_t71 -1 x_r1_g115 <= 0 ;
1 p_r1_g115_h44_t71 -1 x_r1_g44 <= 0 ;
1 p_r1_g115_h44_t71 -1 x_r1_g115 -1 x_r1_g44 >= -1 ;
1 p_r1_g116_h45_t71 -1 x_r1_g116 <= 0 ;
1 p_r1_g116_h45_t71 -1 x_r1_g45 <= 0 ;
1 p_r1_g116_h45_t71 -1 x_r1_g116 -1 x_r1_g45 >= -1 ;
1 p_r1_g119_h48_t71 -1 x_r1_g119 <= 0 ;
1 p_r1_g119_h48_t71 -1 x_r1_g48 <= 0 ;
1 p_r1_g119_h48_t71 -1 x_r1_g119 -1 x_r1_g48 >= -1 ;
1 p_r1_g148_h77_t71 -1 x_r1_g148 <= 0 ;
1 p_r1_g148_h77_t71 -1 x_r1_g77 <= 0 ;
1 p_r1_g148_h77_t71 -1 x_r1_g148 -1 x_r1_g77 >= -1 ;
1 p_r1_g160_h89_t71 -1 x_r1_g160 <= 0 ;
1 p_r1_g160_h89_t71 -1 x_r1_g89 <= 0 ;
1 p_r1_g160_h89_t71 -1 x_r1_g160 -1 x_r1_g89 >= -1 ;
1 p_r2_g22_h118_t71 -1 x_r2_g22 <= 0 ;
1 p_r2_g22_h118_t71 -1 x_r2_g118 <= 0 ;
1 p_r2_g22_h118_t71 -1 x_r2_g22 -1 x_r2_g118 >= -1 ;
1 p_r2_g29_h125_t71 -1 x_r2_g29 <= 0 ;
1 p_r2_g29_h125_t71 -1 x_r2_g125 <= 0 ;
1 p_r2_g29_h125_t71 -1 x_r2_g29 -1 x_r2_g125 >= -1 ;
1 p_r2_g84_h13_t71 -1 x_r2_g84 <= 0 ;
1 p_r2_g84_h13_t71 -1 x_r2_g13 <= 0 ;
1 p_r2_g84_h13_t71 -1 x_r2_g84 -1 x_r2_g13 >= -1 ;
1 p_r2_g93_h22_t71 -1 x_r2_g93 <= 0 ;
1 p_r2_g93_h22_t71 -1 x_r2_g22 <= 0 ;
1 p_r2_g93_h22_t71 -1 x_r2_g93 -1 x_r2_g22 >= -1 ;
1 p_r2_g106_h35_t71 -1 x_r2_g106 <= 0 ;
1 p_r2_g106_h35_t71 -1 x_r2_g35 <= 0 ;
1 p_r2_g106_h35_t71 -1 x_r2_g106 -1 x_r2_g35 >= -1 ;
1 p_r2_g112_h41_t71 -1 x_r2_g112 <= 0 ;
1 p_r2_g112_h41_t71 -1 x_r2_g41 <= 0 ;
1 p_r2_g112_h41_t71 -1 x_r2_g112 -1 x_r2_g41 >= -1 ;
1 p_r2_g118_h47_t71 -1 x_r2_g118 <= 0 ;
1 p_r2_g118_h47_t71 -1 x_r2_g47 <= 0 ;
1 p_r2_g118_h47_t71 -1 x_r2_g118 -1 x_r2_g47 >= -1 ;
1 p_r2_g127_h56_t71 -1 x_r2_g127 <= 0 ;
1 p_r2_g127_h56_t71 -1 x_r2_g56 <= 0 ;
1 p_r2_g127_h56_t71 -1 x_r2_g127 -1 x_r2_g56 >= -1 ;
1 p_r2_g146_h75_t71 -1 x_r2_g146 <= 0 ;
1 p_r2_g146_h75_t71 -1 x_r2_g75 <= 0 ;
1 p_r2_g146_h75_t71 -1 x_r2_g146 -1 x_r2_g75 >= -1 ;
1 p_r2_g161_h90_t71 -1 x_r2_g161 <= 0 ;
1 p_r2_g161_h90_t71 -1 x_r2_g90 <= 0 ;
1 p_r2_g161_h90_t71 -1 x_r2_g161 -1 x_r2_g90 >= -1 ;
1 p_r3_g12_h108_t71 -1 x_r3_g12 <= 0 ;
1 p_r3_g12_h108_t71 -1 x_r3_g108 <= 0 ;
1 p_r3_g12_h108_t71 -1 x_r3_g12 -1 x_r3_g108 >= -1 ;
1 p_r3_g29_h125_t71 -1 x_r3_g29 <= 0 ;
1 p_r3_g29_h125_t71 -1 x_r3_g125 <= 0 ;
1 p_r3_g29_h125_t71 -1 x_r3_g29 -1 x_r3_g125 >= -1 ;
1 p_r3_g43_h139_t71 -1 x_r3_g43 <= 0 ;
1 p_r3_g43_h139_t71 -1 x_r3_g139 <= 0 ;
1 p_r3_g43_h139_t71 -1 x_r3_g43 -1 x_r3_g139 >= -1 ;
1 p_r3_g49_h145_t71 -1 x_r3_g49 <= 0 ;
1 p_r3_g49_h145_t71 -1 x_r3_g145 <= 0 ;
1 p_r3_g49_h145_t71 -1 x_r3_g49 -1 x_r3_g145 >= -1 ;
1 p_r3_g54_h150_t71 -1 x_r3_g54 <= 0 ;
1 p_r3_g54_h150_t71 -1 x_r3_g150 <= 0 ;
1 p_r3_g54_h150_t71 -1 x_r3_g54 -1 x_r3_g150 >= -1 ;
1 p_r3_g77_h6_t71 -1 x_r3_g77 <= 0 ;
1 p_r3_g77_h6_t71 -1 x_r3_g6 <= 0 ;
1 p_r3_g77_h6_t71 -1 x_r3_g77 -1 x_r3_g6 >= -1 ;
1 p_r3_g78_h7_t71 -1 x_r3_g78 <= 0 ;
1 p_r3_g78_h7_t71 -1 x_r3_g7 <= 0 ;
1 p_r3_g78_h7_t71 -1 x_r3_g78 -1 x_r3_g7 >= -1 ;
1 p_r3_g83_h12_t71 -1 x_r3_g83 <= 0 ;
1 p_r3_g83_h12_t71 -1 x_r3_g12 <= 0 ;
1 p_r3_g83_h12_t71 -1 x_r3_g83 -1 x_r3_g12 >= -1 ;
1 p_r3_g124_h53_t71 -1 x_r3_g124 <= 0 ;
1 p_r3_g124_h53_t71 -1 x_r3_g53 <= 0 ;
1 p_r3_g124_h53_t71 -1 x_r3_g124 -1 x_r3_g53 >= -1 ;
1 p_r3_g125_h54_t71 -1 x_r3_g125 <= 0 ;
1 p_r3_g125_h54_t71 -1 x_r3_g54 <= 0 ;
1 p_r3_g125_h54_t71 -1 x_r3_g125 -1 x_r3_g54 >= -1 ;
1 p_r3_g131_h60_t71 -1 x_r3_g131 <= 0 ;
1 p_r3_g131_h60_t71 -1 x_r3_g60 <= 0 ;
1 p_r3_g131_h60_t71 -1 x_r3_g131 -1 x_r3_g60 >= -1 ;
1 p_r3_g132_h61_t71 -1 x_r3_g132 <= 0 ;
1 p_r3_g132_h61_t71 -1 x_r3_g61 <= 0 ;
1 p_r3_g132_h61_t71 -1 x_r3_g132 -1 x_r3_g61 >= -1 ;
1 d_71 -1 x_r0_g6 -1 x_r0_g22 -1 x_r0_g23 -2 x_r0_g35 -1 x_r0_g46 -2 x_r0_g47 -1 x_r0_g49 -1 x_r0_g50 -1 x_r0_g52 -1 x_r0_g54 -1 x_r0_g74 -1 x_r0_g75 -1 x_r0_g80 -1 x_r0_g88 -2 x_r0_g101 -1 x_r0_g103 -1 x_r0_g111 -2 x_r0_g116 -1 x_r0_g132 -1 x_r0_g136 -2 x_r0_g139 -1 x_r0_g144 -1 x_r0_g163 -1 x_r0_g164 -1 x_r1_g0 -1 x_r1_g2 -2 x_r1_g16 -1 x_r1_g28 -1 x_r1_g29 -2 x_r1_g36 -1 x_r1_g38 -1 x_r1_g42 -1 x_r1_g44 -1 x_r1_g45 -1 x_r1_g58 -1 x_r1_g89 -1 x_r1_g92 -1 x_r1_g99 -1 x_r1_g114 -1 x_r1_g120 -2 x_r1_g128 -1 x_r1_g160 -1 x_r1_g164 -1 x_r2_g6 -1 x_r2_g7 -2 x_r2_g14 -2 x_r2_g34 -1 x_r2_g41 -1 x_r2_g56 -2 x_r2_g61 -1 x_r2_g63 -1 x_r2_g75 -1 x_r2_g80 -1 x_r2_g87 -1 x_r2_g98 -2 x_r2_g114 -1 x_r2_g116 -1 x_r2_g119 -1 x_r2_g127 -2 x_r2_g139 -2 x_r2_g145 -1 x_r2_g149 -1 x_r2_g161 -2 x_r3_g3 -1 x_r3_g4 -1 x_r3_g5 -2 x_r3_g27 -1 x_r3_g31 -1 x_r3_g44 -1 x_r3_g53 -1 x_r3_g56 -1 x_r3_g63 -2 x_r3_g66 -1 x_r3_g77 -1 x_r3_g78 -1 x_r3_g83 -1 x_r3_g84 -2 x_r3_g89 -2 x_r3_g97 -1 x_r3_g107 -1 x_r3_g108 -1 x_r3_g122 -1 x_r3_g124 -1 x_r3_g132 -2 x_r3_g136 -1 x_r3_g139 -1 x_r3_g141 -1 x_r3_g145 -1 p_r0_g39_h135_t71 -1 p_r0_g40_h136_t71 -1 p_r0_g54_h150_t71 -1 p_r0_g77_h6_t71 -1 p_r0_g111_h40_t71 -1 p_r0_g117_h46_t71 -1 p_r0_g128_h57_t71 -1 p_r0_g144_h73_t71 -1 p_r1_g20_h116_t71 -1 p_r1_g35_h131_t71 -1 p_r1_g42_h138_t71 -1 p_r1_g71_h0_t71 -1 p_r1_g91_h20_t71 -1 p_r1_g99_h28_t71 -1 p_r1_g114_h43_t71 -1 p_r1_g115_h44_t71 -1 p_r1_g116_h45_t71 -1 p_r1_g119_h48_t71 -1 p_r1_g148_h77_t71 -1 p_r1_g160_h89_t71 -1 p_r2_g22_h118_t71 -1 p_r2_g29_h125_t71 -1 p_r2_g84_h13_t71 -1 p_r2_g93_h22_t71 -1 p_r2_g106_h35_t71 -1 p_r2_g112_h41_t71 -1 p_r2_g118_h47_t71 -1 p_r2_g127_h56_t71 -1 p_r2_g146_h75_t71 -1 p_r2_g161_h90_t71 -1 p_r3_g12_h108_t71 -1 p_r3_g29_h125_t71 -1 p_r3_g43_h139_t71 -1 p_r3_g49_h145_t71 -1 p_r3_g54_h150_t71 -1 p_r3_g77_h6_t71 -1 p_r3_g78_h7_t71 -1 p_r3_g83_h12_t71 -1 p_r3_g124_h53_t71 -1 p_r3_g125_h54_t71 -1 p_r3_g131_h60_t71 -1 p_r3_g132_h61_t71 = -88 ;
1 d_71 -1 u_71 <= 0 ;
-1 d_71 -1 u_71 <= 0 ;
1 u_71 -1 M <= 0 ;
1 u_71 <= 3 ;
1 p_r0_g22_h116_t73 -1 x_r0_g22 <= 0 ;
1 p_r0_g22_h116_t73 -1 x_r0_g116 <= 0 ;
1 p_r0_g22_h116_t73 -1 x_r0_g22 -1 x_r0_g116 >= -1 ;
1 p_r0_g23_h117_t73 -1 x_r0_g23 <= 0 ;
1 p_r0_g23_h117_t73 -1 x_r0_g117 <= 0 ;
1 p_r0_g23_h117_t73 -1 x_r0_g23 -1 x_r0_g117 >= -1 ;
1 p_r0_g50_h144_t73 -1 x_r0_g50 <= 0 ;
1 p_r0_g50_h144_t73 -1 x_r0_g144 <= 0 ;
1 p_r0_g50_h144_t73 -1 x_r0_g50 -1 x_r0_g144 >= -1 ;
1 p_r0_g95_h22_t73 -1 x_r0_g95 <= 0 ;
1 p_r0_g95_h22_t73 -1 x_r0_g22 <= 0 ;
1 p_r0_g95_h22_t73 -1 x_r0_g95 -1 x_r0_g22 >= -1 ;
1 p_r0_g112_h39_t73 -1 x_r0_g112 <= 0 ;
1 p_r0_g112_h39_t73 -1 x_r0_g39 <= 0 ;
1 p_r0_g112_h39_t73 -1 x_r0_g112 -1 x_r0_g39 >= -1 ;
1 p_r0_g117_h44_t73 -1 x_r0_g117 <= 0 ;
1 p_r0_g117_h44_t73 -1 x_r0_g44 <= 0 ;
1 p_r0_g117_h44_t73 -1 x_r0_g117 -1 x_r0_g44 >= -1 ;
1 p_r0_g150_h77_t73 -1 x_r0_g150 <= 0 ;
1 p_r0_g150_h77_t73 -1 x_r0_g77 <= 0 ;
1 p_r0_g150_h77_t73 -1 x_r0_g150 -1 x_r0_g77 >= -1 ;
1 p_r1_g0_h94_t73 -1 x_r1_g0 <= 0 ;
1 p_r1_g0_h94_t73 -1 x_r1_g94 <= 0 ;
1 p_r1_g0_h94_t73 -1 x_r1_g0 -1 x_r1_g94 >= -1 ;
1 p_r1_g20_h114_t73 -1 x_r1_g20 <= 0 ;
1 p_r1_g20_h114_t73 -1 x_r1_g114 <= 0 ;
1 p_r1_g20_h114_t73 -1 x_r1_g20 -1 x_r1_g114 >= -1 ;
1 p_r1_g36_h130_t73 -1 x_r1_g36 <= 0 ;
1 p_r1_g36_h130_t73 -1 x_r1_g130 <= 0 ;
1 p_r1_g36_h130_t73 -1 x_r1_g36 -1 x_r1_g130 >= -1 ;
1 p_r1_g44_h138_t73 -1 x_r1_g44 <= 0 ;
1 p_r1_g44_h138_t73 -1 x_r1_g138 <= 0 ;
1 p_r1_g44_h138_t73 -1 x_r1_g44 -1 x_r1_g138 >= -1 ;
1 p_r1_g89_h16_t73 -1 x_r1_g89 <= 0 ;
1 p_r1_g89_h16_t73 -1 x_r1_g16 <= 0 ;
1 p_r1_g89_h16_t73 -1 x_r1_g89 -1 x_r1_g16 >= -1 ;
1 p_r1_g101_h28_t73 -1 x_r1_g101 <= 0 ;
1 p_r1_g101_h28_t73 -1 x_r1_g28 <= 0 ;
1 p_r1_g101_h28_t73 -1 x_r1_g101 -1 x_r1_g28 >= -1 ;
1 p_r1_g115_h42_t73 -1 x_r1_g115 <= 0 ;
1 p_r1_g115_h42_t73 -1 x_r1_g42 <= 0 ;
1 p_r1_g115_h42_t73 -1 x_r1_g115 -1 x_r1_g42 >= -1 ;
1 p_r1_g116_h43_t73 -1 x_r1_g116 <= 0 ;
1 p_r1_g116_h43_t73 -1 x_r1_g43 <= 0 ;
1 p_r1_g116_h43_t73 -1 x_r1_g116 -1 x_r1_g43 >= -1 ;
1 p_r1_g119_h46_t73 -1 x_r1_g119 <= 0 ;
1 p_r1_g119_h46_t73 -1 x_r1_g46 <= 0 ;
1 p_r1_g119_h46_t73 -1 x_r1_g119 -1 x_r1_g46 >= -1 ;
1 p_r1_g131_h58_t73 -1 x_r1_g131 <= 0 ;
1 p_r1_g131_h58_t73 -1 x_r1_g58 <= 0 ;
1 p_r1_g131_h58_t73 -1 x_r1_g131 -1 x_r1_g58 >= -1 ;
1 p_r1_g164_h91_t73 -1 x_r1_g164 <= 0 ;
1 p_r1_g164_h91_t73 -1 x_r1_g91 <= 0 ;
1 p_r1_g164_h91_t73 -1 x_r1_g164 -1 x_r1_g91 >= -1 ;
1 p_r2_g13_h107_t73 -1 x_r2_g13 <= 0 ;
1 p_r2_g13_h107_t73 -1 x_r2_g107 <= 0 ;
1 p_r2_g13_h107_t73 -1 x_r2_g13 -1 x_r2_g107 >= -1 ;
1 p_r2_g14_h108_t73 -1 x_r2_g14 <= 0 ;
1 p_r2_g14_h108_t73 -1 x_r2_g108 <= 0 ;
1 p_r2_g14_h108_t73 -1 x_r2_g14 -1 x_r2_g108 >= -1 ;
1 p_r2_g22_h116_t73 -1 x_r2_g22 <= 0 ;
1 p_r2_g22_h116_t73 -1 x_r2_g116 <= 0 ;
1 p_r2_g22_h116_t73 -1 x_r2_g22 -1 x_r2_g116 >= -1 ;
1 p_r2_g47_h141_t73 -1 x_r2_g47 <= 0 ;
1 p_r2_g47_h141_t73 -1 x_r2_g141 <= 0 ;
1 p_r2_g47_h141_t73 -1 x_r2_g47 -1 x_r2_g141 >= -1 ;
1 p_r2_g80_h7_t73 -1 x_r2_g80 <= 0 ;
1 p_r2_g80_h7_t73 -1 x_r2_g7 <= 0 ;
1 p_r2_g80_h7_t73 -1 x_r2_g80 -1 x_r2_g7 >= -1 ;
1 p_r2_g87_h14_t73 -1 x_r2_g87 <= 0 ;
1 p_r2_g87_h14_t73 -1 x_r2_g14 <= 0 ;
1 p_r2_g87_h14_t73 -1 x_r2_g87 -1 x_r2_g14 >= -1 ;
1 p_r2_g107_h34_t73 -1 x_r2_g107 <= 0 ;
1 p_r2_g107_h34_t73 -1 x_r2_g34 <= 0 ;
1 p_r2_g107_h34_t73 -1 x_r2_g107 -1 x_r2_g34 >= -1 ;
1 p_r2_g108_h35_t73 -1 x_r2_g108 <= 0 ;
1 p_r2_g108_h35_t73 -1 x_r2_g35 <= 0 ;
1 p_r2_g108_h35_t73 -1 x_r2_g108 -1 x_r2_g35 >= -1 ;
1 p_r2_g114_h41_t73 -1 x_r2_g114 <= 0 ;
1 p_r2_g114_h41_t73 -1 x_r2_g41 <= 0 ;
1 p_r2_g114_h41_t73 -1 x_r2_g114 -1 x_r2_g41 >= -1 ;
1 p_r2_g149_h76_t73 -1 x_r2_g149 <= 0 ;
1 p_r2_g149_h76_t73 -1 x_r2_g76 <= 0 ;
1 p_r2_g149_h76_t73 -1 x_r2_g149 -1 x_r2_g76 >= -1 ;
1 p_r2_g166_h93_t73 -1 x_r2_g166 <= 0 ;
1 p_r2_g166_h93_t73 -1 x_r2_g93 <= 0 ;
1 p_r2_g166_h93_t73 -1 x_r2_g166 -1 x_r2_g93 >= -1 ;
1 p_r3_g3_h97_t73 -1 x_r3_g3 <= 0 ;
1 p_r3_g3_h97_t73 -1 x_r3_g97 <= 0 ;
1 p_r3_g3_h97_t73 -1 x_r3_g3 -1 x_r3_g97 >= -1 ;
1 p_r3_g27_h121_t73 -1 x_r3_g27 <= 0 ;
1 p_r3_g27_h121_t73 -1 x_r3_g121 <= 0 ;
1 p_r3_g27_h121_t73 -1 x_r3_g27 -1 x_r3_g121 >= -1 ;
1 p_r3_g31_h125_t73 -1 x_r3_g31 <= 0 ;
1 p_r3_g31_h125_t73 -1 x_r3_g125 <= 0 ;
1 p_r3_g31_h125_t73 -1 x_r3_g31 -1 x_r3_g125 >= -1 ;
1 p_r3_g56_h150_t73 -1 x_r3_g56 <= 0 ;
1 p_r3_g56_h150_t73 -1 x_r3_g150 <= 0 ;
1 p_r3_g56_h150_t73 -1 x_r3_g56 -1 x_r3_g150 >= -1 ;
1 p_r3_g77_h4_t73 -1 x_r3_g77 <= 0 ;
1 p_r3_g77_h4_t73 -1 x_r3_g4 <= 0 ;
1 p_r3_g77_h4_t73 -1 x_r3_g77 -1 x_r3_g4 >= -1 ;
1 p_r3_g78_h5_t73 -1 x_r3_g78 <= 0 ;
1 p_r3_g78_h5_t73 -1 x_r3_g5 <= 0 ;
1 p_r3_g78_h5_t73 -1 x_r3_g78 -1 x_r3_g5 >= -1 ;
1 p_r3_g122_h49_t73 -1 x_r3_g122 <= 0 ;
1 p_r3_g122_h49_t73 -1 x_r3_g49 <= 0 ;
1 p_r3_g122_h49_t73 -1 x_r3_g122 -1 x_r3_g49 >= -1 ;
1 p_r3_g136_h63_t73 -1 x_r3_g136 <= 0 ;
1 p_r3_g136_h63_t73 -1 x_r3_g63 <= 0 ;
1 p_r3_g136_h63_t73 -1 x_r3_g136 -1 x_r3_g63 >= -1 ;
1 p_r3_g139_h66_t73 -1 x_r3_g139 <= 0 ;
1 p_r3_g139_h66_t73 -1 x_r3_g66 <= 0 ;
1 p_r3_g139_h66_t73 -1 x_r3_g139 -1 x_r3_g66 >= -1 ;
1 p_r3_g150_h77_t73 -1 x_r3_g150 <= 0 ;
1 p_r3_g150_h77_t73 -1 x_r3_g77 <= 0 ;
1 p_r3_g150_h77_t73 -1 x_r3_g150 -1 x_r3_g77 >= -1 ;
1 d_73 -1 x_r0_g6 -2 x_r0_g25 -1 x_r0_g40 -1 x_r0_g46 -1 x_r0_g47 -2 x_r0_g49 -1 x_r0_g50 -2 x_r0_g52 -1 x_r0_g54 -1 x_r0_g57 -1 x_r0_g73 -1 x_r0_g80 -1 x_r0_g88 -1 x_r0_g101 -1 x_r0_g103 -1 x_r0_g111 -1 x_r0_g116 -2 x_r0_g128 -2 x_r0_g132 -1 x_r0_g135 -2 x_r0_g136 -1 x_r0_g137 -1 x_r0_g139 -1 x_r0_g152 -1 x_r0_g162 -1 x_r0_g163 -1 x_r0_g164 -1 x_r1_g2 -2 x_r1_g15 -1 x_r1_g29 -1 x_r1_g35 -1 x_r1_g36 -1 x_r1_g38 -1 x_r1_g46 -1 x_r1_g76 -1 x_r1_g91 -1 x_r1_g99 -2 x_r1_g104 -1 x_r1_g120 -1 x_r1_g130 -1 x_r1_g131 -1 x_r1_g138 -2 x_r1_g160 -1 x_r1_g164 -1 x_r2_g7 -1 x_r2_g13 -1 x_r2_g29 -1 x_r2_g34 -1 x_r2_g35 -1 x_r2_g47 -2 x_r2_g56 -1 x_r2_g61 -2 x_r2_g63 -1 x_r2_g75 -1 x_r2_g80 -1 x_r2_g84 -1 x_r2_g87 -1 x_r2_g90 -1 x_r2_g93 -2 x_r2_g98 -1 x_r2_g106 -2 x_r2_g112 -1 x_r2_g114 -1 x_r2_g116 -2 x_r2_g119 -1 x_r2_g125 -1 x_r2_g127 -1 x_r2_g138 -1 x_r2_g141 -1 x_r3_g0 -1 x_r3_g3 -1 x_r3_g4 -1 x_r3_g5 -1 x_r3_g7 -1 x_r3_g12 -1 x_r3_g29 -1 x_r3_g43 -1 x_r3_g44 -1 x_r3_g49 -2 x_r3_g54 -1 x_r3_g56 -1 x_r3_g60 -1 x_r3_g61 -1 x_r3_g66 -1 x_r3_g78 -1 x_r3_g82 -1 x_r3_g89 -1 x_r3_g107 -1 x_r3_g122 -1 x_r3_g124 -1 x_r3_g131 -2 x_r3_g132 -1 x_r3_g139 -2 x_r3_g141 -1 p_r0_g22_h116_t73 -1 p_r0_g23_h117_t73 -1 p_r0_g50_h144_t73 -1 p_r0_g95_h22_t73 -1 p_r0_g112_h39_t73 -1 p_r0_g117_h44_t73 -1 p_r0_g150_h77_t73 -1 p_r1_g0_h94_t73 -1 p_r1_g20_h114_t73 -1 p_r1_g36_h130_t73 -1 p_r1_g44_h138_t73 -1 p_r1_g89_h16_t73 -1 p_r1_g101_h28_t73 -1 p_r1_g115_h42_t73 -1 p_r1_g116_h43_t73 -1 p_r1_g119_h46_t73 -1 p_r1_g131_h58_t73 -1 p_r1_g164_h91_t73 -1 p_r2_g13_h107_t73 -1 p_r2_g14_h108_t73 -1 p_r2_g22_h116_t73 -1 p_r2_g47_h141_t73 -1 p_r2_g80_h7_t73 -1 p_r2_g87_h14_t73 -1 p_r2_g107_h34_t73 -1 p_r2_g108_h35_t73 -1 p_r2_g114_h41_t73 -1 p_r2_g149_h76_t73 -1 p_r2_g166_h93_t73 -1 p_r3_g3_h97_t73 -1 p_r3_g27_h121_t73 -1 p_r3_g31_h125_t73 -1 p_r3_g56_h150_t73 -1 p_r3_g77_h4_t73 -1 p_r3_g78_h5_t73 -1 p_r3_g122_h49_t73 -1 p_r3_g136_h63_t73 -1 p_r3_g139_h66_t73 -1 p_r3_g150_h77_t73 = -81 ;
1 d_73 -1 u_73 <= 0 ;
-1 d_73 -1 u_73 <= 0 ;
1 u_73 -1 M <= 0 ;
1 u_73 <= 2 ;
1 p_r0_g25_h112_t80 -1 x_r0_g25 <= 0 ;
1 p_r0_g25_h112_t80 -1 x_r0_g112 <= 0 ;
1 p_r0_g25_h112_t80 -1 x_r0_g25 -1 x_r0_g112 >= -1 ;
1 p_r0_g49_h136_t80 -1 x_r0_g49 <= 0 ;
1 p_r0_g49_h136_t80 -1 x_r0_g136 <= 0 ;
1 p_r0_g49_h136_t80 -1 x_r0_g49 -1 x_r0_g136 >= -1 ;
1 p_r0_g50_h137_t80 -1 x_r0_g50 <= 0 ;
1 p_r0_g50_h137_t80 -1 x_r0_g137 <= 0 ;
1 p_r0_g50_h137_t80 -1 x_r0_g50 -1 x_r0_g137 >= -1 ;
1 p_r0_g52_h139_t80 -1 x_r0_g52 <= 0 ;
1 p_r0_g52_h139_t80 -1 x_r0_g139 <= 0 ;
1 p_r0_g52_h139_t80 -1 x_r0_g52 -1 x_r0_g139 >= -1 ;
1 p_r0_g57_h144_t80 -1 x_r0_g57 <= 0 ;
1 p_r0_g57_h144_t80 -1 x_r0_g144 <= 0 ;
1 p_r0_g57_h144_t80 -1 x_r0_g57 -1 x_r0_g144 >= -1 ;
1 p_r0_g75_h162_t80 -1 x_r0_g75 <= 0 ;
1 p_r0_g75_h162_t80 -1 x_r0_g162 <= 0 ;
1 p_r0_g75_h162_t80 -1 x_r0_g75 -1 x_r0_g162 >= -1 ;
1 p_r0_g77_h164_t80 -1 x_r0_g77 <= 0 ;
1 p_r0_g77_h164_t80 -1 x_r0_g164 <= 0 ;
1 p_r0_g77_h164_t80 -1 x_r0_g77 -1 x_r0_g164 >= -1 ;
1 p_r0_g103_h23_t80 -1 x_r0_g103 <= 0 ;
1 p_r0_g103_h23_t80 -1 x_r0_g23 <= 0 ;
1 p_r0_g103_h23_t80 -1 x_r0_g103 -1 x_r0_g23 >= -1 ;
1 p_r0_g132_h52_t80 -1 x_r0_g132 <= 0 ;
1 p_r0_g132_h52_t80 -1 x_r0_g52 <= 0 ;
1 p_r0_g132_h52_t80 -1 x_r0_g132 -1 x_r0_g52 >= -1 ;
1 p_r0_g137_h57_t80 -1 x_r0_g137 <= 0 ;
1 p_r0_g137_h57_t80 -1 x_r0_g57 <= 0 ;
1 p_r0_g137_h57_t80 -1 x_r0_g137 -1 x_r0_g57 >= -1 ;
1 p_r1_g2_h89_t80 -1 x_r1_g2 <= 0 ;
1 p_r1_g2_h89_t80 -1 x_r1_g89 <= 0 ;
1 p_r1_g2_h89_t80 -1 x_r1_g2 -1 x_r1_g89 >= -1 ;
1 p_r1_g28_h115_t80 -1 x_r1_g28 <= 0 ;
1 p_r1_g28_h115_t80 -1 x_r1_g115 <= 0 ;
1 p_r1_g28_h115_t80 -1 x_r1_g28 -1 x_r1_g115 >= -1 ;
1 p_r1_g29_h116_t80 -1 x_r1_g29 <= 0 ;
1 p_r1_g29_h116_t80 -1 x_r1_g116 <= 0 ;
1 p_r1_g29_h116_t80 -1 x_r1_g29 -1 x_r1_g116 >= -1 ;
1 p_r1_g43_h130_t80 -1 x_r1_g43 <= 0 ;
1 p_r1_g43_h130_t80 -1 x_r1_g130 <= 0 ;
1 p_r1_g43_h130_t80 -1 x_r1_g43 -1 x_r1_g130 >= -1 ;
1 p_r1_g44_h131_t80 -1 x_r1_g44 <= 0 ;
1 p_r1_g44_h131_t80 -1 x_r1_g131 <= 0 ;
1 p_r1_g44_h131_t80 -1 x_r1_g44 -1 x_r1_g131 >= -1 ;
1 p_r1_g77_h164_t80 -1 x_r1_g77 <= 0 ;
1 p_r1_g77_h164_t80 -1 x_r1_g164 <= 0 ;
1 p_r1_g77_h164_t80 -1 x_r1_g77 -1 x_r1_g164 >= -1 ;
1 p_r1_g115_h35_t80 -1 x_r1_g115 <= 0 ;
1 p_r1_g115_h35_t80 -1 x_r1_g35 <= 0 ;
1 p_r1_g115_h35_t80 -1 x_r1_g115 -1 x_r1_g35 >= -1 ;
1 p_r1_g116_h36_t80 -1 x_r1_g116 <= 0 ;
1 p_r1_g116_h36_t80 -1 x_r1_g36 <= 0 ;
1 p_r1_g116_h36_t80 -1 x_r1_g116 -1 x_r1_g36 >= -1 ;
1 p_r1_g128_h48_t80 -1 x_r1_g128 <= 0 ;
1 p_r1_g128_h48_t80 -1 x_r1_g48 <= 0 ;
1 p_r1_g128_h48_t80 -1 x_r1_g128 -1 x_r1_g48 >= -1 ;
1 p_r1_g138_h58_t80 -1 x_r1_g138 <= 0 ;
1 p_r1_g138_h58_t80 -1 x_r1_g58 <= 0 ;
1 p_r1_g138_h58_t80 -1 x_r1_g138 -1 x_r1_g58 >= -1 ;
1 p_r2_g6_h93_t80 -1 x_r2_g6 <= 0 ;
1 p_r2_g6_h93_t80 -1 x_r2_g93 <= 0 ;
1 p_r2_g6_h93_t80 -1 x_r2_g6 -1 x_r2_g93 >= -1 ;
1 p_r2_g29_h116_t80 -1 x_r2_g29 <= 0 ;
1 p_r2_g29_h116_t80 -1 x_r2_g116 <= 0 ;
1 p_r2_g29_h116_t80 -1 x_r2_g29 -1 x_r2_g116 >= -1 ;
1 p_r2_g87_h7_t80 -1 x_r2_g87 <= 0 ;
1 p_r2_g87_h7_t80 -1 x_r2_g7 <= 0 ;
1 p_r2_g87_h7_t80 -1 x_r2_g87 -1 x_r2_g7 >= -1 ;
1 p_r2_g93_h13_t80 -1 x_r2_g93 <= 0 ;
1 p_r2_g93_h13_t80 -1 x_r2_g13 <= 0 ;
1 p_r2_g93_h13_t80 -1 x_r2_g93 -1 x_r2_g13 >= -1 ;
1 p_r2_g114_h34_t80 -1 x_r2_g114 <= 0 ;
1 p_r2_g114_h34_t80 -1 x_r2_g34 <= 0 ;
1 p_r2_g114_h34_t80 -1 x_r2_g114 -1 x_r2_g34 >= -1 ;
1 p_r2_g127_h47_t80 -1 x_r2_g127 <= 0 ;
1 p_r2_g127_h47_t80 -1 x_r2_g47 <= 0 ;
1 p_r2_g127_h47_t80 -1 x_r2_g127 -1 x_r2_g47 >= -1 ;
1 p_r2_g141_h61_t80 -1 x_r2_g141 <= 0 ;
1 p_r2_g141_h61_t80 -1 x_r2_g61 <= 0 ;
1 p_r2_g141_h61_t80 -1 x_r2_g141 -1 x_r2_g61 >= -1 ;
1 p_r3_g44_h131_t80 -1 x_r3_g44 <= 0 ;
1 p_r3_g44_h131_t80 -1 x_r3_g131 <= 0 ;
1 p_r3_g44_h131_t80 -1 x_r3_g44 -1 x_r3_g131 >= -1 ;
1 p_r3_g49_h136_t80 -1 x_r3_g49 <= 0 ;
1 p_r3_g49_h136_t80 -1 x_r3_g136 <= 0 ;
1 p_r3_g49_h136_t80 -1 x_r3_g49 -1 x_r3_g136 >= -1 ;
1 p_r3_g54_h141_t80 -1 x_r3_g54 <= 0 ;
1 p_r3_g54_h141_t80 -1 x_r3_g141 <= 0 ;
1 p_r3_g54_h141_t80 -1 x_r3_g54 -1 x_r3_g141 >= -1 ;
1 p_r3_g63_h150_t80 -1 x_r3_g63 <= 0 ;
1 p_r3_g63_h150_t80 -1 x_r3_g150 <= 0 ;
1 p_r3_g63_h150_t80 -1 x_r3_g63 -1 x_r3_g150 >= -1 ;
1 p_r3_g83_h3_t80 -1 x_r3_g83 <= 0 ;
1 p_r3_g83_h3_t80 -1 x_r3_g3 <= 0 ;
1 p_r3_g83_h3_t80 -1 x_r3_g83 -1 x_r3_g3 >= -1 ;
1 p_r3_g84_h4_t80 -1 x_r3_g84 <= 0 ;
1 p_r3_g84_h4_t80 -1 x_r3_g4 <= 0 ;
1 p_r3_g84_h4_t80 -1 x_r3_g84 -1 x_r3_g4 >= -1 ;
1 p_r3_g107_h27_t80 -1 x_r3_g107 <= 0 ;
1 p_r3_g107_h27_t80 -1 x_r3_g27 <= 0 ;
1 p_r3_g107_h27_t80 -1 x_r3_g107 -1 x_r3_g27 >= -1 ;
1 p_r3_g124_h44_t80 -1 x_r3_g124 <= 0 ;
1 p_r3_g124_h44_t80 -1 x_r3_g44 <= 0 ;
1 p_r3_g124_h44_t80 -1 x_r3_g124 -1 x_r3_g44 >= -1 ;
1 p_r3_g136_h56_t80 -1 x_r3_g136 <= 0 ;
1 p_r3_g136_h56_t80 -1 x_r3_g56 <= 0 ;
1 p_r3_g136_h56_t80 -1 x_r3_g136 -1 x_r3_g56 >= -1 ;
1 p_r3_g141_h61_t80 -1 x_r3_g141 <= 0 ;
1 p_r3_g141_h61_t80 -1 x_r3_g61 <= 0 ;
1 p_r3_g141_h61_t80 -1 x_r3_g141 -1 x_r3_g61 >= -1 ;
1 d_80 -1 x_r0_g22 -1 x_r0_g35 -2 x_r0_g39 -2 x_r0_g40 -1 x_r0_g44 -1 x_r0_g46 -1 x_r0_g47 -1 x_r0_g73 -1 x_r0_g75 -1 x_r0_g77 -1 x_r0_g80 -1 x_r0_g95 -1 x_r0_g101 -1 x_r0_g116 -2 x_r0_g117 -1 x_r0_g128 -1 x_r0_g132 -2 x_r0_g135 -1 x_r0_g139 -2 x_r0_g150 -1 x_r0_g152 -2 x_r1_g0 -1 x_r1_g2 -1 x_r1_g15 -2 x_r1_g16 -2 x_r1_g20 -1 x_r1_g28 -1 x_r1_g29 -1 x_r1_g36 -1 x_r1_g43 -1 x_r1_g44 -1 x_r1_g45 -2 x_r1_g76 -1 x_r1_g77 -1 x_r1_g91 -1 x_r1_g114 -2 x_r1_g119 -1 x_r1_g120 -1 x_r1_g148 -1 x_r1_g160 -1 x_r1_g164 -1 x_r2_g6 -1 x_r2_g7 -2 x_r2_g14 -1 x_r2_g22 -1 x_r2_g34 -2 x_r2_g35 -2 x_r2_g41 -1 x_r2_g47 -1 x_r2_g56 -1 x_r2_g61 -1 x_r2_g63 -1 x_r2_g76 -2 x_r2_g80 -1 x_r2_g84 -1 x_r2_g87 -1 x_r2_g98 -1 x_r2_g106 -2 x_r2_g107 -2 x_r2_g108 -1 x_r2_g111 -1 x_r2_g112 -1 x_r2_g114 -1 x_r2_g118 -1 x_r2_g119 -1 x_r2_g138 -2 x_r2_g145 -1 x_r2_g161 -1 x_r2_g166 -1 x_r3_g0 -1 x_r3_g6 -1 x_r3_g7 -1 x_r3_g12 -2 x_r3_g31 -1 x_r3_g43 -1 x_r3_g49 -1 x_r3_g53 -1 x_r3_g54 -1 x_r3_g56 -1 x_r3_g60 -1 x_r3_g61 -1 x_r3_g63 -2 x_r3_g82 -1 x_r3_g83 -2 x_r3_g89 -1 x_r3_g97 -1 x_r3_g107 -1 x_r3_g108 -1 x_r3_g121 -1 x_r3_g124 -2 x_r3_g125 -1 x_r3_g132 -1 x_r3_g139 -1 x_r3_g145 -1 p_r0_g25_h112_t80 -1 p_r0_g49_h136_t80 -1 p_r0_g50_h137_t80 -1 p_r0_g52_h139_t80 -1 p_r0_g57_h144_t80 -1 p_r0_g75_h162_t80 -1 p_r0_g77_h164_t80 -1 p_r0_g103_h23_t80 -1 p_r0_g132_h52_t80 -1 p_r0_g137_h57_t80 -1 p_r1_g2_h89_t80 -1 p_r1_g28_h115_t80 -1 p_r1_g29_h116_t80 -1 p_r1_g43_h130_t80 -1 p_r1_g44_h131_t80 -1 p_r1_g77_h164_t80 -1 p_r1_g115_h35_t80 -1 p_r1_g116_h36_t80 -1 p_r1_g128_h48_t80 -1 p_r1_g138_h58_t80 -1 p_r2_g6_h93_t80 -1 p_r2_g29_h116_t80 -1 p_r2_g87_h7_t80 -1 p_r2_g93_h13_t80 -1 p_r2_g114_h34_t80 -1 p_r2_g127_h47_t80 -1 p_r2_g141_h61_t80 -1 p_r3_g44_h131_t80 -1 p_r3_g49_h136_t80 -1 p_r3_g54_h141_t80 -1 p_r3_g63_h150_t80 -1 p_r3_g83_h3_t80 -1 p_r3_g84_h4_t80 -1 p_r3_g107_h27_t80 -1 p_r3_g124_h44_t80 -1 p_r3_g136_h56_t80 -1 p_r3_g141_h61_t80 = -60 ;
1 d_80 -1 u_80 <= 0 ;
-1 d_80 -1 u_80 <= 0 ;
1 u_80 -1 M <= 0 ;
1 u_80 <= 1 ;
1 M <= 3 ;
1 u_1 1 u_8 1 u_34 1 u_41 1 u_43 1 u_46 10 u_49 1 u_67 1 u_68 10 u_71 1 u_73 1 u_80 <= 71 ;
1 F -1 x_r0_g22 -1 x_r0_g23 -1 x_r0_g35 -1 x_r0_g39 -1 x_r0_g44 -1 x_r0_g46 -1 x_r0_g50 -1 x_r0_g57 -1 x_r0_g73 -1 x_r0_g75 -1 x_r0_g80 -1 x_r0_g95 -1 x_r0_g112 -1 x_r0_g117 -1 x_r0_g128 -1 x_r0_g135 -1 x_r0_g144 -1 x_r0_g150 -1 x_r0_g162 -1 x_r0_g164 -1 x_r1_g0 -1 x_r1_g2 -1 x_r1_g28 -1 x_r1_g35 -1 x_r1_g43 -1 x_r1_g45 -1 x_r1_g48 -1 x_r1_g58 -1 x_r1_g71 -1 x_r1_g76 -1 x_r1_g77 -1 x_r1_g92 -1 x_r1_g94 -1 x_r1_g99 -1 x_r1_g101 -1 x_r1_g104 -1 x_r1_g116 -1 x_r1_g120 -1 x_r1_g131 -1 x_r1_g148 -1 x_r2_g6 -1 x_r2_g13 -1 x_r2_g22 -1 x_r2_g29 -1 x_r2_g35 -1 x_r2_g47 -1 x_r2_g76 -1 x_r2_g84 -1 x_r2_g93 -1 x_r2_g106 -1 x_r2_g107 -1 x_r2_g108 -1 x_r2_g111 -1 x_r2_g118 -1 x_r2_g125 -1 x_r2_g138 -1 x_r2_g141 -1 x_r2_g145 -1 x_r2_g149 -1 x_r2_g166 -1 x_r3_g0 -1 x_r3_g3 -1 x_r3_g7 -1 x_r3_g29 -1 x_r3_g31 -1 x_r3_g44 -1 x_r3_g54 -1 x_r3_g56 -1 x_r3_g60 -1 x_r3_g63 -1 x_r3_g82 -1 x_r3_g84 -1 x_r3_g97 -1 x_r3_g107 -1 x_r3_g121 -1 x_r3_g125 -1 x_r3_g131 -1 x_r3_g136 -1 x_r3_g141 -1 x_r3_g150 1 x_r0_g6 1 x_r0_g25 1 x_r0_g40 1 x_r0_g47 1 x_r0_g49 1 x_r0_g52 1 x_r0_g54 1 x_r0_g74 1 x_r0_g77 1 x_r0_g88 1 x_r0_g101 1 x_r0_g103 1 x_r0_g111 1 x_r0_g116 1 x_r0_g132 1 x_r0_g136 1 x_r0_g137 1 x_r0_g139 1 x_r0_g152 1 x_r0_g163 1 x_r1_g15 1 x_r1_g16 1 x_r1_g20 1 x_r1_g29 1 x_r1_g36 1 x_r1_g38 1 x_r1_g42 1 x_r1_g44 1 x_r1_g46 1 x_r1_g78 1 x_r1_g89 1 x_r1_g91 1 x_r1_g114 1 x_r1_g115 1 x_r1_g119 1 x_r1_g128 1 x_r1_g130 1 x_r1_g138 1 x_r1_g160 1 x_r1_g164 1 x_r2_g7 1 x_r2_g14 1 x_r2_g34 1 x_r2_g41 1 x_r2_g56 1 x_r2_g61 1 x_r2_g63 1 x_r2_g75 1 x_r2_g80 1 x_r2_g87 1 x_r2_g90 1 x_r2_g98 1 x_r2_g112 1 x_r2_g114 1 x_r2_g116 1 x_r2_g119 1 x_r2_g127 1 x_r2_g139 1 x_r2_g146 1 x_r2_g161 1 x_r3_g4 1 x_r3_g5 1 x_r3_g6 1 x_r3_g12 1 x_r3_g27 1 x_r3_g43 1 x_r3_g49 1 x_r3_g53 1 x_r3_g61 1 x_r3_g66 1 x_r3_g77 1 x_r3_g78 1 x_r3_g83 1 x_r3_g89 1 x_r3_g108 1 x_r3_g122 1 x_r3_g124 1 x_r3_g132 1 x_r3_g139 1 x_r3_g145 = 80 ;
1 F <= 6 ;
