* #variable= 295 #constraint= 587
* int d_26 d_32 d_4 d_29 d_38 d_43 d_45 d_48 d_49 d_50 d_51 d_65 u_26 u_32 u_4 u_29 u_38 u_43 u_45 u_48 u_49 u_50 u_51 u_65 M F ;
min: 1 M ;
1 x_r0_g0 1 x_r0_g1 1 x_r0_g9 1 x_r0_g11 1 x_r0_g20 1 x_r0_g30 1 x_r0_g37 1 x_r0_g41 1 x_r0_g62 1 x_r0_g79 1 x_r0_g82 1 x_r0_g83 1 x_r0_g90 1 x_r0_g97 1 x_r0_g100 1 x_r0_g101 1 x_r0_g103 1 x_r0_g120 1 x_r0_g130 1 x_r0_g132 1 x_r0_g139 1 x_r0_g143 1 x_r0_g152 1 x_r0_g161 = 12 ;
1 x_r1_g8 1 x_r1_g9 1 x_r1_g11 1 x_r1_g25 1 x_r1_g29 1 x_r1_g31 1 x_r1_g33 1 x_r1_g35 1 x_r1_g45 1 x_r1_g57 1 x_r1_g60 1 x_r1_g62 1 x_r1_g64 1 x_r1_g67 1 x_r1_g85 1 x_r1_g86 1 x_r1_g88 1 x_r1_g90 1 x_r1_g111 1 x_r1_g136 1 x_r1_g137 1 x_r1_g140 1 x_r1_g146 1 x_r1_g166 = 12 ;
1 x_r2_g7 1 x_r2_g13 1 x_r2_g28 1 x_r2_g29 1 x_r2_g48 1 x_r2_g51 1 x_r2_g58 1 x_r2_g67 1 x_r2_g70 1 x_r2_g73 1 x_r2_g83 1 x_r2_g91 1 x_r2_g102 1 x_r2_g103 1 x_r2_g109 1 x_r2_g117 1 x_r2_g123 1 x_r2_g130 1 x_r2_g136 1 x_r2_g138 1 x_r2_g144 1 x_r2_g148 1 x_r2_g160 1 x_r2_g164 = 12 ;
1 x_r3_g0 1 x_r3_g2 1 x_r3_g16 1 x_r3_g18 1 x_r3_g24 1 x_r3_g27 1 x_r3_g43 1 x_r3_g50 1 x_r3_g51 1 x_r3_g68 1 x_r3_g78 1 x_r3_g82 1 x_r3_g90 1 x_r3_g95 1 x_r3_g106 1 x_r3_g112 1 x_r3_g134 1 x_r3_g135 1 x_r3_g140 1 x_r3_g141 1 x_r3_g147 1 x_r3_g149 1 x_r3_g154 1 x_r3_g163 = 12 ;
1 p_r0_g11_h152_t26 -1 x_r0_g11 <= 0 ;
1 p_r0_g11_h152_t26 -1 x_r0_g152 <= 0 ;
1 p_r0_g11_h152_t26 -1 x_r0_g11 -1 x_r0_g152 >= -1 ;
1 p_r0_g20_h161_t26 -1 x_r0_g20 <= 0 ;
1 p_r0_g20_h161_t26 -1 x_r0_g161 <= 0 ;
1 p_r0_g20_h161_t26 -1 x_r0_g20 -1 x_r0_g161 >= -1 ;
1 p_r0_g37_h11_t26 -1 x_r0_g37 <= 0 ;
1 p_r0_g37_h11_t26 -1 x_r0_g11 <= 0 ;
1 p_r0_g37_h11_t26 -1 x_r0_g37 -1 x_r0_g11 >= -1 ;
1 p_r1_g25_h166_t26 -1 x_r1_g25 <= 0 ;
1 p_r1_g25_h166_t26 -1 x_r1_g166 <= 0 ;
1 p_r1_g25_h166_t26 -1 x_r1_g25 -1 x_r1_g166 >= -1 ;
1 p_r1_g35_h9_t26 -1 x_r1_g35 <= 0 ;
1 p_r1_g35_h9_t26 -1 x_r1_g9 <= 0 ;
1 p_r1_g35_h9_t26 -1 x_r1_g35 -1 x_r1_g9 >= -1 ;
1 p_r1_g57_h31_t26 -1 x_r1_g57 <= 0 ;
1 p_r1_g57_h31_t26 -1 x_r1_g31 <= 0 ;
1 p_r1_g57_h31_t26 -1 x_r1_g57 -1 x_r1_g31 >= -1 ;
1 p_r1_g86_h60_t26 -1 x_r1_g86 <= 0 ;
1 p_r1_g86_h60_t26 -1 x_r1_g60 <= 0 ;
1 p_r1_g86_h60_t26 -1 x_r1_g86 -1 x_r1_g60 >= -1 ;
1 p_r1_g88_h62_t26 -1 x_r1_g88 <= 0 ;
1 p_r1_g88_h62_t26 -1 x_r1_g62 <= 0 ;
1 p_r1_g88_h62_t26 -1 x_r1_g88 -1 x_r1_g62 >= -1 ;
1 p_r1_g90_h64_t26 -1 x_r1_g90 <= 0 ;
1 p_r1_g90_h64_t26 -1 x_r1_g64 <= 0 ;
1 p_r1_g90_h64_t26 -1 x_r1_g90 -1 x_r1_g64 >= -1 ;
1 p_r1_g111_h85_t26 -1 x_r1_g111 <= 0 ;
1 p_r1_g111_h85_t26 -1 x_r1_g85 <= 0 ;
1 p_r1_g111_h85_t26 -1 x_r1_g111 -1 x_r1_g85 >= -1 ;
1 p_r1_g137_h111_t26 -1 x_r1_g137 <= 0 ;
1 p_r1_g137_h111_t26 -1 x_r1_g111 <= 0 ;
1 p_r1_g137_h111_t26 -1 x_r1_g137 -1 x_r1_g111 >= -1 ;
1 p_r1_g166_h140_t26 -1 x_r1_g166 <= 0 ;
1 p_r1_g166_h140_t26 -1 x_r1_g140 <= 0 ;
1 p_r1_g166_h140_t26 -1 x_r1_g166 -1 x_r1_g140 >= -1 ;
1 p_r2_g7_h148_t26 -1 x_r2_g7 <= 0 ;
1 p_r2_g7_h148_t26 -1 x_r2_g148 <= 0 ;
1 p_r2_g7_h148_t26 -1 x_r2_g7 -1 x_r2_g148 >= -1 ;
1 p_r2_g109_h83_t26 -1 x_r2_g109 <= 0 ;
1 p_r2_g109_h83_t26 -1 x_r2_g83 <= 0 ;
1 p_r2_g109_h83_t26 -1 x_r2_g109 -1 x_r2_g83 >= -1 ;
1 p_r2_g117_h91_t26 -1 x_r2_g117 <= 0 ;
1 p_r2_g117_h91_t26 -1 x_r2_g91 <= 0 ;
1 p_r2_g117_h91_t26 -1 x_r2_g117 -1 x_r2_g91 >= -1 ;
1 p_r2_g164_h138_t26 -1 x_r2_g164 <= 0 ;
1 p_r2_g164_h138_t26 -1 x_r2_g138 <= 0 ;
1 p_r2_g164_h138_t26 -1 x_r2_g164 -1 x_r2_g138 >= -1 ;
1 p_r3_g0_h141_t26 -1 x_r3_g0 <= 0 ;
1 p_r3_g0_h141_t26 -1 x_r3_g141 <= 0 ;
1 p_r3_g0_h141_t26 -1 x_r3_g0 -1 x_r3_g141 >= -1 ;
1 p_r3_g50_h24_t26 -1 x_r3_g50 <= 0 ;
1 p_r3_g50_h24_t26 -1 x_r3_g24 <= 0 ;
1 p_r3_g50_h24_t26 -1 x_r3_g50 -1 x_r3_g24 >= -1 ;
1 d_26 -1 x_r0_g1 -1 x_r0_g20 -1 x_r0_g30 -1 x_r0_g37 -2 x_r0_g41 -2 x_r0_g62 -1 x_r0_g90 -1 x_r0_g97 -2 x_r0_g100 -1 x_r0_g101 -1 x_r0_g103 -1 x_r0_g120 -1 x_r0_g132 -2 x_r0_g139 -1 x_r0_g152 -1 x_r1_g11 -1 x_r1_g29 -1 x_r1_g62 -1 x_r1_g64 -1 x_r1_g86 -1 x_r1_g88 -1 x_r1_g137 -1 x_r1_g140 -1 x_r1_g146 -1 x_r2_g7 -1 x_r2_g13 -1 x_r2_g48 -1 x_r2_g51 -1 x_r2_g67 -1 x_r2_g91 -1 x_r2_g102 -1 x_r2_g103 -1 x_r2_g130 -1 x_r2_g136 -1 x_r2_g138 -1 x_r2_g148 -1 x_r2_g160 -1 x_r3_g0 -2 x_r3_g2 -2 x_r3_g27 -1 x_r3_g43 -1 x_r3_g50 -1 x_r3_g68 -1 x_r3_g82 -2 x_r3_g106 -2 x_r3_g112 -2 x_r3_g134 -1 x_r3_g140 -1 x_r3_g147 -2 x_r3_g149 -2 x_r3_g154 -2 x_r3_g163 -1 p_r0_g11_h152_t26 -1 p_r0_g20_h161_t26 -1 p_r0_g37_h11_t26 -1 p_r1_g25_h166_t26 -1 p_r1_g35_h9_t26 -1 p_r1_g57_h31_t26 -1 p_r1_g86_h60_t26 -1 p_r1_g88_h62_t26 -1 p_r1_g90_h64_t26 -1 p_r1_g111_h85_t26 -1 p_r1_g137_h111_t26 -1 p_r1_g166_h140_t26 -1 p_r2_g7_h148_t26 -1 p_r2_g109_h83_t26 -1 p_r2_g117_h91_t26 -1 p_r2_g164_h138_t26 -1 p_r3_g0_h141_t26 -1 p_r3_g50_h24_t26 = -54 ;
1 d_26 -1 u_26 <= 0 ;
-1 d_26 -1 u_26 <= 0 ;
1 u_26 -1 M <= 0 ;
1 u_26 <= 3 ;
1 p_r0_g41_h9_t32 -1 x_r0_g41 <= 0 ;
1 p_r0_g41_h9_t32 -1 x_r0_g9 <= 0 ;
1 p_r0_g41_h9_t32 -1 x_r0_g41 -1 x_r0_g9 >= -1 ;
1 p_r0_g62_h30_t32 -1 x_r0_g62 <= 0 ;
1 p_r0_g62_h30_t32 -1 x_r0_g30 <= 0 ;
1 p_r0_g62_h30_t32 -1 x_r0_g62 -1 x_r0_g30 >= -1 ;
1 p_r0_g132_h100_t32 -1 x_r0_g132 <= 0 ;
1 p_r0_g132_h100_t32 -1 x_r0_g100 <= 0 ;
1 p_r0_g132_h100_t32 -1 x_r0_g132 -1 x_r0_g100 >= -1 ;
1 p_r0_g152_h120_t32 -1 x_r0_g152 <= 0 ;
1 p_r0_g152_h120_t32 -1 x_r0_g120 <= 0 ;
1 p_r0_g152_h120_t32 -1 x_r0_g152 -1 x_r0_g120 >= -1 ;
1 p_r1_g11_h146_t32 -1 x_r1_g11 <= 0 ;
1 p_r1_g11_h146_t32 -1 x_r1_g146 <= 0 ;
1 p_r1_g11_h146_t32 -1 x_r1_g11 -1 x_r1_g146 >= -1 ;
1 p_r1_g31_h166_t32 -1 x_r1_g31 <= 0 ;
1 p_r1_g31_h166_t32 -1 x_r1_g166 <= 0 ;
1 p_r1_g31_h166_t32 -1 x_r1_g31 -1 x_r1_g166 >= -1 ;
1 p_r1_g57_h25_t32 -1 x_r1_g57 <= 0 ;
1 p_r1_g57_h25_t32 -1 x_r1_g25 <= 0 ;
1 p_r1_g57_h25_t32 -1 x_r1_g57 -1 x_r1_g25 >= -1 ;
1 p_r1_g67_h35_t32 -1 x_r1_g67 <= 0 ;
1 p_r1_g67_h35_t32 -1 x_r1_g35 <= 0 ;
1 p_r1_g67_h35_t32 -1 x_r1_g67 -1 x_r1_g35 >= -1 ;
1 p_r2_g13_h148_t32 -1 x_r2_g13 <= 0 ;
1 p_r2_g13_h148_t32 -1 x_r2_g148 <= 0 ;
1 p_r2_g13_h148_t32 -1 x_r2_g13 -1 x_r2_g148 >= -1 ;
1 p_r2_g29_h164_t32 -1 x_r2_g29 <= 0 ;
1 p_r2_g29_h164_t32 -1 x_r2_g164 <= 0 ;
1 p_r2_g29_h164_t32 -1 x_r2_g29 -1 x_r2_g164 >= -1 ;
1 p_r2_g83_h51_t32 -1 x_r2_g83 <= 0 ;
1 p_r2_g83_h51_t32 -1 x_r2_g51 <= 0 ;
1 p_r2_g83_h51_t32 -1 x_r2_g83 -1 x_r2_g51 >= -1 ;
1 p_r2_g102_h70_t32 -1 x_r2_g102 <= 0 ;
1 p_r2_g102_h70_t32 -1 x_r2_g70 <= 0 ;
1 p_r2_g102_h70_t32 -1 x_r2_g102 -1 x_r2_g70 >= -1 ;
1 p_r2_g123_h91_t32 -1 x_r2_g123 <= 0 ;
1 p_r2_g123_h91_t32 -1 x_r2_g91 <= 0 ;
1 p_r2_g123_h91_t32 -1 x_r2_g123 -1 x_r2_g91 >= -1 ;
1 p_r3_g0_h135_t32 -1 x_r3_g0 <= 0 ;
1 p_r3_g0_h135_t32 -1 x_r3_g135 <= 0 ;
1 p_r3_g0_h135_t32 -1 x_r3_g0 -1 x_r3_g135 >= -1 ;
1 p_r3_g50_h18_t32 -1 x_r3_g50 <= 0 ;
1 p_r3_g50_h18_t32 -1 x_r3_g18 <= 0 ;
1 p_r3_g50_h18_t32 -1 x_r3_g50 -1 x_r3_g18 >= -1 ;
1 p_r3_g82_h50_t32 -1 x_r3_g82 <= 0 ;
1 p_r3_g82_h50_t32 -1 x_r3_g50 <= 0 ;
1 p_r3_g82_h50_t32 -1 x_r3_g82 -1 x_r3_g50 >= -1 ;
1 d_32 -1 x_r0_g1 -2 x_r0_g11 -2 x_r0_g20 -1 x_r0_g30 -1 x_r0_g37 -2 x_r0_g79 -1 x_r0_g83 -2 x_r0_g90 -1 x_r0_g97 -1 x_r0_g100 -1 x_r0_g120 -1 x_r0_g139 -2 x_r0_g143 -1 x_r1_g8 -1 x_r1_g25 -1 x_r1_g29 -2 x_r1_g33 -1 x_r1_g35 -1 x_r1_g57 -2 x_r1_g64 -1 x_r1_g85 -2 x_r1_g88 -1 x_r1_g111 -1 x_r1_g136 -1 x_r1_g140 -1 x_r1_g146 -1 x_r2_g7 -1 x_r2_g13 -2 x_r2_g28 -1 x_r2_g29 -1 x_r2_g48 -2 x_r2_g58 -2 x_r2_g73 -1 x_r2_g83 -1 x_r2_g102 -1 x_r2_g117 -1 x_r2_g130 -2 x_r2_g136 -1 x_r2_g144 -1 x_r2_g148 -2 x_r2_g160 -1 x_r2_g164 -1 x_r3_g0 -1 x_r3_g2 -1 x_r3_g16 -2 x_r3_g27 -1 x_r3_g43 -2 x_r3_g51 -2 x_r3_g68 -2 x_r3_g78 -1 x_r3_g90 -1 x_r3_g95 -2 x_r3_g106 -2 x_r3_g112 -1 x_r3_g134 -2 x_r3_g140 -1 x_r3_g141 -1 x_r3_g147 -2 x_r3_g154 -1 x_r3_g163 -1 p_r0_g41_h9_t32 -1 p_r0_g62_h30_t32 -1 p_r0_g132_h100_t32 -1 p_r0_g152_h120_t32 -1 p_r1_g11_h146_t32 -1 p_r1_g31_h166_t32 -1 p_r1_g57_h25_t32 -1 p_r1_g67_h35_t32 -1 p_r2_g13_h148_t32 -1 p_r2_g29_h164_t32 -1 p_r2_g83_h51_t32 -1 p_r2_g102_h70_t32 -1 p_r2_g123_h91_t32 -1 p_r3_g0_h135_t32 -1 p_r3_g50_h18_t32 -1 p_r3_g82_h50_t32 = -58 ;
1 d_32 -1 u_32 <= 0 ;
-1 d_32 -1 u_32 <= 0 ;
1 u_32 -1 M <= 0 ;
1 u_32 <= 3 ;
1 p_r0_g41_h37_t4 -1 x_r0_g41 <= 0 ;
1 p_r0_g41_h37_t4 -1 x_r0_g37 <= 0 ;
1 p_r0_g41_h37_t4 -1 x_r0_g41 -1 x_r0_g37 >= -1 ;
1 p_r0_g83_h79_t4 -1 x_r0_g83 <= 0 ;
1 p_r0_g83_h79_t4 -1 x_r0_g79 <= 0 ;
1 p_r0_g83_h79_t4 -1 x_r0_g83 -1 x_r0_g79 >= -1 ;
1 p_r0_g101_h97_t4 -1 x_r0_g101 <= 0 ;
1 p_r0_g101_h97_t4 -1 x_r0_g97 <= 0 ;
1 p_r0_g101_h97_t4 -1 x_r0_g101 -1 x_r0_g97 >= -1 ;
1 p_r0_g143_h139_t4 -1 x_r0_g143 <= 0 ;
1 p_r0_g143_h139_t4 -1 x_r0_g139 <= 0 ;
1 p_r0_g143_h139_t4 -1 x_r0_g143 -1 x_r0_g139 >= -1 ;
1 p_r1_g29_h25_t4 -1 x_r1_g29 <= 0 ;
1 p_r1_g29_h25_t4 -1 x_r1_g25 <= 0 ;
1 p_r1_g29_h25_t4 -1 x_r1_g29 -1 x_r1_g25 >= -1 ;
1 p_r1_g33_h29_t4 -1 x_r1_g33 <= 0 ;
1 p_r1_g33_h29_t4 -1 x_r1_g29 <= 0 ;
1 p_r1_g33_h29_t4 -1 x_r1_g33 -1 x_r1_g29 >= -1 ;
1 p_r1_g35_h31_t4 -1 x_r1_g35 <= 0 ;
1 p_r1_g35_h31_t4 -1 x_r1_g31 <= 0 ;
1 p_r1_g35_h31_t4 -1 x_r1_g35 -1 x_r1_g31 >= -1 ;
1 p_r1_g64_h60_t4 -1 x_r1_g64 <= 0 ;
1 p_r1_g64_h60_t4 -1 x_r1_g60 <= 0 ;
1 p_r1_g64_h60_t4 -1 x_r1_g64 -1 x_r1_g60 >= -1 ;
1 p_r1_g90_h86_t4 -1 x_r1_g90 <= 0 ;
1 p_r1_g90_h86_t4 -1 x_r1_g86 <= 0 ;
1 p_r1_g90_h86_t4 -1 x_r1_g90 -1 x_r1_g86 >= -1 ;
1 p_r1_g140_h136_t4 -1 x_r1_g140 <= 0 ;
1 p_r1_g140_h136_t4 -1 x_r1_g136 <= 0 ;
1 p_r1_g140_h136_t4 -1 x_r1_g140 -1 x_r1_g136 >= -1 ;
1 p_r2_g148_h144_t4 -1 x_r2_g148 <= 0 ;
1 p_r2_g148_h144_t4 -1 x_r2_g144 <= 0 ;
1 p_r2_g148_h144_t4 -1 x_r2_g148 -1 x_r2_g144 >= -1 ;
1 p_r2_g164_h160_t4 -1 x_r2_g164 <= 0 ;
1 p_r2_g164_h160_t4 -1 x_r2_g160 <= 0 ;
1 p_r2_g164_h160_t4 -1 x_r2_g164 -1 x_r2_g160 >= -1 ;
1 p_r3_g0_h163_t4 -1 x_r3_g0 <= 0 ;
1 p_r3_g0_h163_t4 -1 x_r3_g163 <= 0 ;
1 p_r3_g0_h163_t4 -1 x_r3_g0 -1 x_r3_g163 >= -1 ;
1 p_r3_g82_h78_t4 -1 x_r3_g82 <= 0 ;
1 p_r3_g82_h78_t4 -1 x_r3_g78 <= 0 ;
1 p_r3_g82_h78_t4 -1 x_r3_g82 -1 x_r3_g78 >= -1 ;
1 d_4 -2 x_r0_g0 -1 x_r0_g1 -2 x_r0_g9 -2 x_r0_g11 -1 x_r0_g30 -1 x_r0_g41 -1 x_r0_g62 -1 x_r0_g103 -1 x_r0_g120 -1 x_r0_g130 -1 x_r0_g132 -1 x_r0_g143 -2 x_r0_g161 -1 x_r1_g11 -1 x_r1_g31 -1 x_r1_g33 -1 x_r1_g35 -1 x_r1_g45 -1 x_r1_g57 -1 x_r1_g60 -1 x_r1_g62 -1 x_r1_g64 -2 x_r1_g85 -1 x_r1_g86 -1 x_r1_g88 -2 x_r1_g111 -1 x_r1_g136 -2 x_r1_g137 -1 x_r1_g166 -2 x_r2_g29 -1 x_r2_g67 -1 x_r2_g70 -1 x_r2_g102 -2 x_r2_g109 -2 x_r2_g117 -2 x_r2_g123 -2 x_r2_g130 -2 x_r2_g136 -1 x_r2_g138 -1 x_r2_g144 -1 x_r2_g148 -1 x_r2_g164 -1 x_r3_g0 -1 x_r3_g2 -2 x_r3_g16 -1 x_r3_g18 -2 x_r3_g24 -1 x_r3_g27 -2 x_r3_g43 -1 x_r3_g50 -2 x_r3_g51 -1 x_r3_g78 -1 x_r3_g82 -2 x_r3_g90 -1 x_r3_g95 -1 x_r3_g106 -1 x_r3_g112 -1 x_r3_g134 -1 x_r3_g135 -1 x_r3_g140 -2 x_r3_g141 -2 x_r3_g147 -1 x_r3_g149 -1 p_r0_g41_h37_t4 -1 p_r0_g83_h79_t4 -1 p_r0_g101_h97_t4 -1 p_r0_g143_h139_t4 -1 p_r1_g29_h25_t4 -1 p_r1_g33_h29_t4 -1 p_r1_g35_h31_t4 -1 p_r1_g64_h60_t4 -1 p_r1_g90_h86_t4 -1 p_r1_g140_h136_t4 -1 p_r2_g148_h144_t4 -1 p_r2_g164_h160_t4 -1 p_r3_g0_h163_t4 -1 p_r3_g82_h78_t4 = -32 ;
1 d_4 -1 u_4 <= 0 ;
-1 d_4 -1 u_4 <= 0 ;
1 u_4 -1 M <= 0 ;
1 u_4 <= 2 ;
1 p_r0_g1_h139_t29 -1 x_r0_g1 <= 0 ;
1 p_r0_g1_h139_t29 -1 x_r0_g139 <= 0 ;
1 p_r0_g1_h139_t29 -1 x_r0_g1 -1 x_r0_g139 >= -1 ;
1 p_r0_g30_h1_t29 -1 x_r0_g30 <= 0 ;
1 p_r0_g30_h1_t29 -1 x_r0_g1 <= 0 ;
1 p_r0_g30_h1_t29 -1 x_r0_g30 -1 x_r0_g1 >= -1 ;
1 p_r0_g130_h101_t29 -1 x_r0_g130 <= 0 ;
1 p_r0_g130_h101_t29 -1 x_r0_g101 <= 0 ;
1 p_r0_g130_h101_t29 -1 x_r0_g130 -1 x_r0_g101 >= -1 ;
1 p_r0_g132_h103_t29 -1 x_r0_g132 <= 0 ;
1 p_r0_g132_h103_t29 -1 x_r0_g103 <= 0 ;
1 p_r0_g132_h103_t29 -1 x_r0_g132 -1 x_r0_g103 >= -1 ;
1 p_r0_g161_h132_t29 -1 x_r0_g161 <= 0 ;
1 p_r0_g161_h132_t29 -1 x_r0_g132 <= 0 ;
1 p_r0_g161_h132_t29 -1 x_r0_g161 -1 x_r0_g132 >= -1 ;
1 p_r1_g8_h146_t29 -1 x_r1_g8 <= 0 ;
1 p_r1_g8_h146_t29 -1 x_r1_g146 <= 0 ;
1 p_r1_g8_h146_t29 -1 x_r1_g8 -1 x_r1_g146 >= -1 ;
1 p_r1_g60_h31_t29 -1 x_r1_g60 <= 0 ;
1 p_r1_g60_h31_t29 -1 x_r1_g31 <= 0 ;
1 p_r1_g60_h31_t29 -1 x_r1_g60 -1 x_r1_g31 >= -1 ;
1 p_r1_g62_h33_t29 -1 x_r1_g62 <= 0 ;
1 p_r1_g62_h33_t29 -1 x_r1_g33 <= 0 ;
1 p_r1_g62_h33_t29 -1 x_r1_g62 -1 x_r1_g33 >= -1 ;
1 p_r1_g64_h35_t29 -1 x_r1_g64 <= 0 ;
1 p_r1_g64_h35_t29 -1 x_r1_g35 <= 0 ;
1 p_r1_g64_h35_t29 -1 x_r1_g64 -1 x_r1_g35 >= -1 ;
1 p_r1_g86_h57_t29 -1 x_r1_g86 <= 0 ;
1 p_r1_g86_h57_t29 -1 x_r1_g57 <= 0 ;
1 p_r1_g86_h57_t29 -1 x_r1_g86 -1 x_r1_g57 >= -1 ;
1 p_r1_g140_h111_t29 -1 x_r1_g140 <= 0 ;
1 p_r1_g140_h111_t29 -1 x_r1_g111 <= 0 ;
1 p_r1_g140_h111_t29 -1 x_r1_g140 -1 x_r1_g111 >= -1 ;
1 p_r1_g166_h137_t29 -1 x_r1_g166 <= 0 ;
1 p_r1_g166_h137_t29 -1 x_r1_g137 <= 0 ;
1 p_r1_g166_h137_t29 -1 x_r1_g166 -1 x_r1_g137 >= -1 ;
1 p_r2_g58_h29_t29 -1 x_r2_g58 <= 0 ;
1 p_r2_g58_h29_t29 -1 x_r2_g29 <= 0 ;
1 p_r2_g58_h29_t29 -1 x_r2_g58 -1 x_r2_g29 >= -1 ;
1 p_r2_g102_h73_t29 -1 x_r2_g102 <= 0 ;
1 p_r2_g102_h73_t29 -1 x_r2_g73 <= 0 ;
1 p_r2_g102_h73_t29 -1 x_r2_g102 -1 x_r2_g73 >= -1 ;
1 p_r2_g138_h109_t29 -1 x_r2_g138 <= 0 ;
1 p_r2_g138_h109_t29 -1 x_r2_g109 <= 0 ;
1 p_r2_g138_h109_t29 -1 x_r2_g138 -1 x_r2_g109 >= -1 ;
1 p_r3_g2_h140_t29 -1 x_r3_g2 <= 0 ;
1 p_r3_g2_h140_t29 -1 x_r3_g140 <= 0 ;
1 p_r3_g2_h140_t29 -1 x_r3_g2 -1 x_r3_g140 >= -1 ;
1 p_r3_g16_h154_t29 -1 x_r3_g16 <= 0 ;
1 p_r3_g16_h154_t29 -1 x_r3_g154 <= 0 ;
1 p_r3_g16_h154_t29 -1 x_r3_g16 -1 x_r3_g154 >= -1 ;
1 p_r3_g135_h106_t29 -1 x_r3_g135 <= 0 ;
1 p_r3_g135_h106_t29 -1 x_r3_g106 <= 0 ;
1 p_r3_g135_h106_t29 -1 x_r3_g135 -1 x_r3_g106 >= -1 ;
1 p_r3_g141_h112_t29 -1 x_r3_g141 <= 0 ;
1 p_r3_g141_h112_t29 -1 x_r3_g112 <= 0 ;
1 p_r3_g141_h112_t29 -1 x_r3_g141 -1 x_r3_g112 >= -1 ;
1 p_r3_g163_h134_t29 -1 x_r3_g163 <= 0 ;
1 p_r3_g163_h134_t29 -1 x_r3_g134 <= 0 ;
1 p_r3_g163_h134_t29 -1 x_r3_g163 -1 x_r3_g134 >= -1 ;
1 d_29 -2 x_r0_g9 -2 x_r0_g11 -2 x_r0_g20 -1 x_r0_g30 -1 x_r0_g37 -2 x_r0_g41 -1 x_r0_g82 -1 x_r0_g83 -1 x_r0_g90 -2 x_r0_g97 -1 x_r0_g103 -1 x_r0_g120 -1 x_r0_g130 -1 x_r0_g143 -1 x_r0_g152 -1 x_r1_g8 -1 x_r1_g9 -1 x_r1_g11 -1 x_r1_g25 -1 x_r1_g60 -1 x_r1_g62 -2 x_r1_g67 -2 x_r1_g85 -1 x_r1_g86 -1 x_r1_g90 -1 x_r1_g111 -1 x_r1_g136 -1 x_r1_g137 -1 x_r2_g13 -1 x_r2_g29 -1 x_r2_g51 -1 x_r2_g70 -1 x_r2_g83 -1 x_r2_g91 -2 x_r2_g103 -1 x_r2_g109 -2 x_r2_g123 -1 x_r2_g130 -1 x_r2_g136 -1 x_r2_g138 -1 x_r2_g144 -1 x_r2_g148 -1 x_r2_g164 -1 x_r3_g0 -1 x_r3_g16 -1 x_r3_g18 -2 x_r3_g24 -2 x_r3_g51 -1 x_r3_g68 -1 x_r3_g78 -2 x_r3_g82 -2 x_r3_g90 -2 x_r3_g95 -1 x_r3_g112 -1 x_r3_g140 -1 x_r3_g147 -1 p_r0_g1_h139_t29 -1 p_r0_g30_h1_t29 -1 p_r0_g130_h101_t29 -1 p_r0_g132_h103_t29 -1 p_r0_g161_h132_t29 -1 p_r1_g8_h146_t29 -1 p_r1_g60_h31_t29 -1 p_r1_g62_h33_t29 -1 p_r1_g64_h35_t29 -1 p_r1_g86_h57_t29 -1 p_r1_g140_h111_t29 -1 p_r1_g166_h137_t29 -1 p_r2_g58_h29_t29 -1 p_r2_g102_h73_t29 -1 p_r2_g138_h109_t29 -1 p_r3_g2_h140_t29 -1 p_r3_g16_h154_t29 -1 p_r3_g135_h106_t29 -1 p_r3_g141_h112_t29 -1 p_r3_g163_h134_t29 = -27 ;
1 d_29 -1 u_29 <= 0 ;
-1 d_29 -1 u_29 <= 0 ;
1 u_29 -1 M <= 0 ;
1 u_29 <= 2 ;
1 p_r0_g1_h130_t38 -1 x_r0_g1 <= 0 ;
1 p_r0_g1_h130_t38 -1 x_r0_g130 <= 0 ;
1 p_r0_g1_h130_t38 -1 x_r0_g1 -1 x_r0_g130 >= -1 ;
1 p_r0_g79_h41_t38 -1 x_r0_g79 <= 0 ;
1 p_r0_g79_h41_t38 -1 x_r0_g41 <= 0 ;
1 p_r0_g79_h41_t38 -1 x_r0_g79 -1 x_r0_g41 >= -1 ;
1 p_r0_g100_h62_t38 -1 x_r0_g100 <= 0 ;
1 p_r0_g100_h62_t38 -1 x_r0_g62 <= 0 ;
1 p_r0_g100_h62_t38 -1 x_r0_g100 -1 x_r0_g62 >= -1 ;
1 p_r0_g120_h82_t38 -1 x_r0_g120 <= 0 ;
1 p_r0_g120_h82_t38 -1 x_r0_g82 <= 0 ;
1 p_r0_g120_h82_t38 -1 x_r0_g120 -1 x_r0_g82 >= -1 ;
1 p_r0_g139_h101_t38 -1 x_r0_g139 <= 0 ;
1 p_r0_g139_h101_t38 -1 x_r0_g101 <= 0 ;
1 p_r0_g139_h101_t38 -1 x_r0_g139 -1 x_r0_g101 >= -1 ;
1 p_r1_g8_h137_t38 -1 x_r1_g8 <= 0 ;
1 p_r1_g8_h137_t38 -1 x_r1_g137 <= 0 ;
1 p_r1_g8_h137_t38 -1 x_r1_g8 -1 x_r1_g137 >= -1 ;
1 p_r1_g11_h140_t38 -1 x_r1_g11 <= 0 ;
1 p_r1_g11_h140_t38 -1 x_r1_g140 <= 0 ;
1 p_r1_g11_h140_t38 -1 x_r1_g11 -1 x_r1_g140 >= -1 ;
1 p_r1_g67_h29_t38 -1 x_r1_g67 <= 0 ;
1 p_r1_g67_h29_t38 -1 x_r1_g29 <= 0 ;
1 p_r1_g67_h29_t38 -1 x_r1_g67 -1 x_r1_g29 >= -1 ;
1 p_r2_g7_h136_t38 -1 x_r2_g7 <= 0 ;
1 p_r2_g7_h136_t38 -1 x_r2_g136 <= 0 ;
1 p_r2_g7_h136_t38 -1 x_r2_g7 -1 x_r2_g136 >= -1 ;
1 p_r2_g51_h13_t38 -1 x_r2_g51 <= 0 ;
1 p_r2_g51_h13_t38 -1 x_r2_g13 <= 0 ;
1 p_r2_g51_h13_t38 -1 x_r2_g51 -1 x_r2_g13 >= -1 ;
1 p_r2_g67_h29_t38 -1 x_r2_g67 <= 0 ;
1 p_r2_g67_h29_t38 -1 x_r2_g29 <= 0 ;
1 p_r2_g67_h29_t38 -1 x_r2_g67 -1 x_r2_g29 >= -1 ;
1 p_r3_g18_h147_t38 -1 x_r3_g18 <= 0 ;
1 p_r3_g18_h147_t38 -1 x_r3_g147 <= 0 ;
1 p_r3_g18_h147_t38 -1 x_r3_g18 -1 x_r3_g147 >= -1 ;
1 p_r3_g106_h68_t38 -1 x_r3_g106 <= 0 ;
1 p_r3_g106_h68_t38 -1 x_r3_g68 <= 0 ;
1 p_r3_g106_h68_t38 -1 x_r3_g106 -1 x_r3_g68 >= -1 ;
1 d_38 -1 x_r0_g0 -1 x_r0_g9 -1 x_r0_g11 -2 x_r0_g20 -2 x_r0_g30 -1 x_r0_g41 -1 x_r0_g83 -1 x_r0_g90 -1 x_r0_g97 -1 x_r0_g101 -1 x_r0_g103 -1 x_r0_g120 -1 x_r0_g132 -1 x_r0_g161 -1 x_r1_g8 -1 x_r1_g9 -1 x_r1_g11 -1 x_r1_g25 -2 x_r1_g31 -1 x_r1_g35 -1 x_r1_g57 -1 x_r1_g60 -1 x_r1_g62 -1 x_r1_g64 -1 x_r1_g85 -1 x_r1_g86 -1 x_r1_g90 -1 x_r1_g136 -1 x_r1_g146 -2 x_r1_g166 -1 x_r2_g7 -1 x_r2_g28 -1 x_r2_g29 -1 x_r2_g48 -1 x_r2_g58 -1 x_r2_g67 -2 x_r2_g83 -1 x_r2_g91 -2 x_r2_g102 -1 x_r2_g103 -2 x_r2_g123 -1 x_r2_g130 -1 x_r2_g136 -1 x_r2_g148 -1 x_r2_g160 -1 x_r2_g164 -2 x_r3_g0 -1 x_r3_g2 -1 x_r3_g16 -1 x_r3_g24 -1 x_r3_g27 -2 x_r3_g43 -1 x_r3_g50 -2 x_r3_g51 -1 x_r3_g68 -1 x_r3_g78 -1 x_r3_g90 -1 x_r3_g106 -1 x_r3_g112 -1 x_r3_g134 -1 x_r3_g135 -1 x_r3_g141 -2 x_r3_g149 -1 p_r0_g1_h130_t38 -1 p_r0_g79_h41_t38 -1 p_r0_g100_h62_t38 -1 p_r0_g120_h82_t38 -1 p_r0_g139_h101_t38 -1 p_r1_g8_h137_t38 -1 p_r1_g11_h140_t38 -1 p_r1_g67_h29_t38 -1 p_r2_g7_h136_t38 -1 p_r2_g51_h13_t38 -1 p_r2_g67_h29_t38 -1 p_r3_g18_h147_t38 -1 p_r3_g106_h68_t38 = -47 ;
1 d_38 -1 u_38 <= 0 ;
-1 d_38 -1 u_38 <= 0 ;
1 u_38 -1 M <= 0 ;
1 u_38 <= 2 ;
1 p_r0_g37_h161_t43 -1 x_r0_g37 <= 0 ;
1 p_r0_g37_h161_t43 -1 x_r0_g161 <= 0 ;
1 p_r0_g37_h161_t43 -1 x_r0_g37 -1 x_r0_g161 >= -1 ;
1 p_r0_g143_h100_t43 -1 x_r0_g143 <= 0 ;
1 p_r0_g143_h100_t43 -1 x_r0_g100 <= 0 ;
1 p_r0_g143_h100_t43 -1 x_r0_g143 -1 x_r0_g100 >= -1 ;
1 p_r1_g88_h45_t43 -1 x_r1_g88 <= 0 ;
1 p_r1_g88_h45_t43 -1 x_r1_g45 <= 0 ;
1 p_r1_g88_h45_t43 -1 x_r1_g88 -1 x_r1_g45 >= -1 ;
1 p_r2_g91_h48_t43 -1 x_r2_g91 <= 0 ;
1 p_r2_g91_h48_t43 -1 x_r2_g48 <= 0 ;
1 p_r2_g91_h48_t43 -1 x_r2_g91 -1 x_r2_g48 >= -1 ;
1 p_r2_g160_h117_t43 -1 x_r2_g160 <= 0 ;
1 p_r2_g160_h117_t43 -1 x_r2_g117 <= 0 ;
1 p_r2_g160_h117_t43 -1 x_r2_g160 -1 x_r2_g117 >= -1 ;
1 p_r3_g16_h140_t43 -1 x_r3_g16 <= 0 ;
1 p_r3_g16_h140_t43 -1 x_r3_g140 <= 0 ;
1 p_r3_g16_h140_t43 -1 x_r3_g16 -1 x_r3_g140 >= -1 ;
1 p_r3_g43_h0_t43 -1 x_r3_g43 <= 0 ;
1 p_r3_g43_h0_t43 -1 x_r3_g0 <= 0 ;
1 p_r3_g43_h0_t43 -1 x_r3_g43 -1 x_r3_g0 >= -1 ;
1 p_r3_g149_h106_t43 -1 x_r3_g149 <= 0 ;
1 p_r3_g149_h106_t43 -1 x_r3_g106 <= 0 ;
1 p_r3_g149_h106_t43 -1 x_r3_g149 -1 x_r3_g106 >= -1 ;
1 d_43 -1 x_r0_g0 -1 x_r0_g9 -1 x_r0_g11 -1 x_r0_g20 -1 x_r0_g41 -1 x_r0_g62 -2 x_r0_g79 -2 x_r0_g83 -1 x_r0_g90 -1 x_r0_g97 -1 x_r0_g101 -1 x_r0_g103 -2 x_r0_g120 -1 x_r0_g130 -1 x_r0_g132 -1 x_r0_g139 -1 x_r0_g143 -1 x_r0_g161 -1 x_r1_g8 -1 x_r1_g9 -1 x_r1_g25 -1 x_r1_g31 -1 x_r1_g33 -2 x_r1_g35 -1 x_r1_g57 -1 x_r1_g60 -1 x_r1_g64 -2 x_r1_g85 -1 x_r1_g90 -2 x_r1_g111 -1 x_r1_g146 -2 x_r1_g166 -2 x_r2_g13 -1 x_r2_g28 -1 x_r2_g29 -1 x_r2_g51 -1 x_r2_g58 -1 x_r2_g67 -2 x_r2_g70 -2 x_r2_g73 -1 x_r2_g83 -1 x_r2_g91 -1 x_r2_g103 -1 x_r2_g109 -1 x_r2_g117 -1 x_r2_g123 -1 x_r2_g138 -2 x_r2_g144 -1 x_r2_g148 -1 x_r2_g164 -1 x_r3_g0 -1 x_r3_g2 -1 x_r3_g16 -2 x_r3_g18 -1 x_r3_g24 -1 x_r3_g27 -1 x_r3_g43 -2 x_r3_g51 -1 x_r3_g68 -1 x_r3_g82 -1 x_r3_g90 -1 x_r3_g95 -2 x_r3_g141 -1 x_r3_g147 -2 x_r3_g154 -1 x_r3_g163 -1 p_r0_g37_h161_t43 -1 p_r0_g143_h100_t43 -1 p_r1_g88_h45_t43 -1 p_r2_g91_h48_t43 -1 p_r2_g160_h117_t43 -1 p_r3_g16_h140_t43 -1 p_r3_g43_h0_t43 -1 p_r3_g149_h106_t43 = -34 ;
1 d_43 -1 u_43 <= 0 ;
-1 d_43 -1 u_43 <= 0 ;
1 u_43 -1 M <= 0 ;
1 u_43 <= 2 ;
1 p_r0_g30_h152_t45 -1 x_r0_g30 <= 0 ;
1 p_r0_g30_h152_t45 -1 x_r0_g152 <= 0 ;
1 p_r0_g30_h152_t45 -1 x_r0_g30 -1 x_r0_g152 >= -1 ;
1 p_r0_g82_h37_t45 -1 x_r0_g82 <= 0 ;
1 p_r0_g82_h37_t45 -1 x_r0_g37 <= 0 ;
1 p_r0_g82_h37_t45 -1 x_r0_g82 -1 x_r0_g37 >= -1 ;
1 p_r1_g90_h45_t45 -1 x_r1_g90 <= 0 ;
1 p_r1_g90_h45_t45 -1 x_r1_g45 <= 0 ;
1 p_r1_g90_h45_t45 -1 x_r1_g90 -1 x_r1_g45 >= -1 ;
1 p_r2_g58_h13_t45 -1 x_r2_g58 <= 0 ;
1 p_r2_g58_h13_t45 -1 x_r2_g13 <= 0 ;
1 p_r2_g58_h13_t45 -1 x_r2_g58 -1 x_r2_g13 >= -1 ;
1 p_r2_g73_h28_t45 -1 x_r2_g73 <= 0 ;
1 p_r2_g73_h28_t45 -1 x_r2_g28 <= 0 ;
1 p_r2_g73_h28_t45 -1 x_r2_g73 -1 x_r2_g28 >= -1 ;
1 p_r2_g103_h58_t45 -1 x_r2_g103 <= 0 ;
1 p_r2_g103_h58_t45 -1 x_r2_g58 <= 0 ;
1 p_r2_g103_h58_t45 -1 x_r2_g103 -1 x_r2_g58 >= -1 ;
1 p_r2_g136_h91_t45 -1 x_r2_g136 <= 0 ;
1 p_r2_g136_h91_t45 -1 x_r2_g91 <= 0 ;
1 p_r2_g136_h91_t45 -1 x_r2_g136 -1 x_r2_g91 >= -1 ;
1 p_r2_g148_h103_t45 -1 x_r2_g148 <= 0 ;
1 p_r2_g148_h103_t45 -1 x_r2_g103 <= 0 ;
1 p_r2_g148_h103_t45 -1 x_r2_g148 -1 x_r2_g103 >= -1 ;
1 p_r3_g18_h140_t45 -1 x_r3_g18 <= 0 ;
1 p_r3_g18_h140_t45 -1 x_r3_g140 <= 0 ;
1 p_r3_g18_h140_t45 -1 x_r3_g18 -1 x_r3_g140 >= -1 ;
1 p_r3_g27_h149_t45 -1 x_r3_g27 <= 0 ;
1 p_r3_g27_h149_t45 -1 x_r3_g149 <= 0 ;
1 p_r3_g27_h149_t45 -1 x_r3_g27 -1 x_r3_g149 >= -1 ;
1 p_r3_g95_h50_t45 -1 x_r3_g95 <= 0 ;
1 p_r3_g95_h50_t45 -1 x_r3_g50 <= 0 ;
1 p_r3_g95_h50_t45 -1 x_r3_g95 -1 x_r3_g50 >= -1 ;
1 p_r3_g135_h90_t45 -1 x_r3_g135 <= 0 ;
1 p_r3_g135_h90_t45 -1 x_r3_g90 <= 0 ;
1 p_r3_g135_h90_t45 -1 x_r3_g135 -1 x_r3_g90 >= -1 ;
1 p_r3_g140_h95_t45 -1 x_r3_g140 <= 0 ;
1 p_r3_g140_h95_t45 -1 x_r3_g95 <= 0 ;
1 p_r3_g140_h95_t45 -1 x_r3_g140 -1 x_r3_g95 >= -1 ;
1 d_45 -2 x_r0_g0 -2 x_r0_g1 -2 x_r0_g9 -2 x_r0_g20 -1 x_r0_g37 -1 x_r0_g41 -1 x_r0_g79 -1 x_r0_g82 -1 x_r0_g83 -1 x_r0_g90 -2 x_r0_g97 -1 x_r0_g100 -1 x_r0_g101 -1 x_r0_g103 -1 x_r0_g120 -1 x_r0_g130 -1 x_r0_g143 -1 x_r0_g161 -2 x_r1_g8 -2 x_r1_g11 -2 x_r1_g33 -2 x_r1_g35 -1 x_r1_g60 -1 x_r1_g62 -1 x_r1_g64 -1 x_r1_g67 -2 x_r1_g85 -1 x_r1_g88 -2 x_r1_g111 -1 x_r1_g136 -1 x_r1_g137 -2 x_r1_g140 -1 x_r2_g7 -1 x_r2_g28 -2 x_r2_g29 -1 x_r2_g67 -2 x_r2_g70 -1 x_r2_g83 -1 x_r2_g91 -1 x_r2_g109 -2 x_r2_g123 -1 x_r2_g130 -1 x_r2_g136 -1 x_r2_g148 -1 x_r2_g160 -1 x_r2_g164 -2 x_r3_g0 -2 x_r3_g2 -2 x_r3_g16 -1 x_r3_g24 -1 x_r3_g50 -1 x_r3_g51 -1 x_r3_g68 -1 x_r3_g78 -2 x_r3_g82 -1 x_r3_g90 -2 x_r3_g106 -2 x_r3_g134 -1 x_r3_g135 -1 x_r3_g141 -1 x_r3_g154 -2 x_r3_g163 -1 p_r0_g30_h152_t45 -1 p_r0_g82_h37_t45 -1 p_r1_g90_h45_t45 -1 p_r2_g58_h13_t45 -1 p_r2_g73_h28_t45 -1 p_r2_g103_h58_t45 -1 p_r2_g136_h91_t45 -1 p_r2_g148_h103_t45 -1 p_r3_g18_h140_t45 -1 p_r3_g27_h149_t45 -1 p_r3_g95_h50_t45 -1 p_r3_g135_h90_t45 -1 p_r3_g140_h95_t45 = -37 ;
1 d_45 -1 u_45 <= 0 ;
-1 d_45 -1 u_45 <= 0 ;
1 u_45 -1 M <= 0 ;
1 u_45 <= 2 ;
1 p_r0_g1_h120_t48 -1 x_r0_g1 <= 0 ;
1 p_r0_g1_h120_t48 -1 x_r0_g120 <= 0 ;
1 p_r0_g1_h120_t48 -1 x_r0_g1 -1 x_r0_g120 >= -1 ;
1 p_r0_g11_h130_t48 -1 x_r0_g11 <= 0 ;
1 p_r0_g11_h130_t48 -1 x_r0_g130 <= 0 ;
1 p_r0_g11_h130_t48 -1 x_r0_g11 -1 x_r0_g130 >= -1 ;
1 p_r0_g20_h139_t48 -1 x_r0_g20 <= 0 ;
1 p_r0_g20_h139_t48 -1 x_r0_g139 <= 0 ;
1 p_r0_g20_h139_t48 -1 x_r0_g20 -1 x_r0_g139 >= -1 ;
1 p_r0_g130_h82_t48 -1 x_r0_g130 <= 0 ;
1 p_r0_g130_h82_t48 -1 x_r0_g82 <= 0 ;
1 p_r0_g130_h82_t48 -1 x_r0_g130 -1 x_r0_g82 >= -1 ;
1 p_r1_g57_h9_t48 -1 x_r1_g57 <= 0 ;
1 p_r1_g57_h9_t48 -1 x_r1_g9 <= 0 ;
1 p_r1_g57_h9_t48 -1 x_r1_g57 -1 x_r1_g9 >= -1 ;
1 p_r1_g136_h88_t48 -1 x_r1_g136 <= 0 ;
1 p_r1_g136_h88_t48 -1 x_r1_g88 <= 0 ;
1 p_r1_g136_h88_t48 -1 x_r1_g136 -1 x_r1_g88 >= -1 ;
1 p_r2_g29_h148_t48 -1 x_r2_g29 <= 0 ;
1 p_r2_g29_h148_t48 -1 x_r2_g148 <= 0 ;
1 p_r2_g29_h148_t48 -1 x_r2_g29 -1 x_r2_g148 >= -1 ;
1 p_r3_g16_h135_t48 -1 x_r3_g16 <= 0 ;
1 p_r3_g16_h135_t48 -1 x_r3_g135 <= 0 ;
1 p_r3_g16_h135_t48 -1 x_r3_g16 -1 x_r3_g135 >= -1 ;
1 p_r3_g50_h2_t48 -1 x_r3_g50 <= 0 ;
1 p_r3_g50_h2_t48 -1 x_r3_g2 <= 0 ;
1 p_r3_g50_h2_t48 -1 x_r3_g50 -1 x_r3_g2 >= -1 ;
1 p_r3_g154_h106_t48 -1 x_r3_g154 <= 0 ;
1 p_r3_g154_h106_t48 -1 x_r3_g106 <= 0 ;
1 p_r3_g154_h106_t48 -1 x_r3_g154 -1 x_r3_g106 >= -1 ;
1 d_48 -2 x_r0_g0 -1 x_r0_g1 -1 x_r0_g11 -1 x_r0_g20 -1 x_r0_g30 -1 x_r0_g41 -1 x_r0_g79 -1 x_r0_g82 -1 x_r0_g83 -1 x_r0_g90 -1 x_r0_g97 -1 x_r0_g100 -1 x_r0_g101 -2 x_r0_g103 -1 x_r0_g132 -2 x_r0_g161 -2 x_r1_g8 -1 x_r1_g9 -1 x_r1_g11 -1 x_r1_g31 -1 x_r1_g33 -1 x_r1_g35 -1 x_r1_g45 -1 x_r1_g60 -1 x_r1_g64 -1 x_r1_g67 -2 x_r1_g85 -1 x_r1_g86 -1 x_r1_g88 -2 x_r1_g90 -1 x_r1_g111 -2 x_r1_g137 -2 x_r1_g146 -1 x_r2_g7 -2 x_r2_g13 -1 x_r2_g48 -1 x_r2_g67 -2 x_r2_g73 -2 x_r2_g91 -1 x_r2_g102 -1 x_r2_g103 -2 x_r2_g109 -1 x_r2_g117 -2 x_r2_g123 -1 x_r2_g130 -1 x_r2_g138 -1 x_r2_g144 -2 x_r2_g160 -2 x_r2_g164 -1 x_r3_g0 -2 x_r3_g18 -1 x_r3_g24 -2 x_r3_g27 -1 x_r3_g43 -1 x_r3_g50 -1 x_r3_g51 -1 x_r3_g68 -1 x_r3_g78 -1 x_r3_g90 -2 x_r3_g95 -1 x_r3_g112 -1 x_r3_g134 -1 x_r3_g141 -2 x_r3_g147 -1 x_r3_g149 -1 p_r0_g1_h120_t48 -1 p_r0_g11_h130_t48 -1 p_r0_g20_h139_t48 -1 p_r0_g130_h82_t48 -1 p_r1_g57_h9_t48 -1 p_r1_g136_h88_t48 -1 p_r2_g29_h148_t48 -1 p_r3_g16_h135_t48 -1 p_r3_g50_h2_t48 -1 p_r3_g154_h106_t48 = -35 ;
1 d_48 -1 u_48 <= 0 ;
-1 d_48 -1 u_48 <= 0 ;
1 u_48 -1 M <= 0 ;
1 u_48 <= 2 ;
1 p_r0_g79_h30_t49 -1 x_r0_g79 <= 0 ;
1 p_r0_g79_h30_t49 -1 x_r0_g30 <= 0 ;
1 p_r0_g79_h30_t49 -1 x_r0_g79 -1 x_r0_g30 >= -1 ;
1 p_r0_g90_h41_t49 -1 x_r0_g90 <= 0 ;
1 p_r0_g90_h41_t49 -1 x_r0_g41 <= 0 ;
1 p_r0_g90_h41_t49 -1 x_r0_g90 -1 x_r0_g41 >= -1 ;
1 p_r0_g132_h83_t49 -1 x_r0_g132 <= 0 ;
1 p_r0_g132_h83_t49 -1 x_r0_g83 <= 0 ;
1 p_r0_g132_h83_t49 -1 x_r0_g132 -1 x_r0_g83 >= -1 ;
1 p_r0_g139_h90_t49 -1 x_r0_g139 <= 0 ;
1 p_r0_g139_h90_t49 -1 x_r0_g90 <= 0 ;
1 p_r0_g139_h90_t49 -1 x_r0_g139 -1 x_r0_g90 >= -1 ;
1 p_r0_g152_h103_t49 -1 x_r0_g152 <= 0 ;
1 p_r0_g152_h103_t49 -1 x_r0_g103 <= 0 ;
1 p_r0_g152_h103_t49 -1 x_r0_g152 -1 x_r0_g103 >= -1 ;
1 p_r1_g57_h8_t49 -1 x_r1_g57 <= 0 ;
1 p_r1_g57_h8_t49 -1 x_r1_g8 <= 0 ;
1 p_r1_g57_h8_t49 -1 x_r1_g57 -1 x_r1_g8 >= -1 ;
1 p_r1_g60_h11_t49 -1 x_r1_g60 <= 0 ;
1 p_r1_g60_h11_t49 -1 x_r1_g11 <= 0 ;
1 p_r1_g60_h11_t49 -1 x_r1_g60 -1 x_r1_g11 >= -1 ;
1 p_r1_g111_h62_t49 -1 x_r1_g111 <= 0 ;
1 p_r1_g111_h62_t49 -1 x_r1_g62 <= 0 ;
1 p_r1_g111_h62_t49 -1 x_r1_g111 -1 x_r1_g62 >= -1 ;
1 p_r1_g137_h88_t49 -1 x_r1_g137 <= 0 ;
1 p_r1_g137_h88_t49 -1 x_r1_g88 <= 0 ;
1 p_r1_g137_h88_t49 -1 x_r1_g137 -1 x_r1_g88 >= -1 ;
1 p_r3_g16_h134_t49 -1 x_r3_g16 <= 0 ;
1 p_r3_g16_h134_t49 -1 x_r3_g134 <= 0 ;
1 p_r3_g16_h134_t49 -1 x_r3_g16 -1 x_r3_g134 >= -1 ;
1 p_r3_g51_h2_t49 -1 x_r3_g51 <= 0 ;
1 p_r3_g51_h2_t49 -1 x_r3_g2 <= 0 ;
1 p_r3_g51_h2_t49 -1 x_r3_g51 -1 x_r3_g2 >= -1 ;
1 d_49 -2 x_r0_g0 -1 x_r0_g1 -2 x_r0_g9 -1 x_r0_g37 -1 x_r0_g41 -2 x_r0_g62 -1 x_r0_g82 -1 x_r0_g83 -2 x_r0_g97 -2 x_r0_g100 -1 x_r0_g101 -1 x_r0_g103 -1 x_r0_g130 -1 x_r0_g139 -1 x_r0_g143 -1 x_r0_g152 -1 x_r0_g161 -1 x_r1_g9 -1 x_r1_g29 -1 x_r1_g31 -1 x_r1_g33 -1 x_r1_g35 -1 x_r1_g45 -1 x_r1_g60 -2 x_r1_g64 -1 x_r1_g67 -1 x_r1_g85 -1 x_r1_g86 -1 x_r1_g88 -1 x_r1_g111 -2 x_r1_g136 -1 x_r1_g140 -1 x_r2_g7 -1 x_r2_g29 -2 x_r2_g67 -2 x_r2_g70 -1 x_r2_g73 -2 x_r2_g83 -1 x_r2_g91 -1 x_r2_g102 -1 x_r2_g103 -2 x_r2_g109 -1 x_r2_g117 -1 x_r2_g123 -1 x_r2_g136 -1 x_r2_g138 -1 x_r2_g144 -1 x_r2_g148 -2 x_r2_g164 -2 x_r3_g0 -1 x_r3_g16 -1 x_r3_g24 -2 x_r3_g27 -2 x_r3_g50 -1 x_r3_g51 -1 x_r3_g68 -1 x_r3_g78 -2 x_r3_g90 -2 x_r3_g95 -2 x_r3_g135 -1 x_r3_g140 -1 x_r3_g141 -1 x_r3_g147 -1 x_r3_g149 -1 x_r3_g154 -1 x_r3_g163 -1 p_r0_g79_h30_t49 -1 p_r0_g90_h41_t49 -1 p_r0_g132_h83_t49 -1 p_r0_g139_h90_t49 -1 p_r0_g152_h103_t49 -1 p_r1_g57_h8_t49 -1 p_r1_g60_h11_t49 -1 p_r1_g111_h62_t49 -1 p_r1_g137_h88_t49 -1 p_r3_g16_h134_t49 -1 p_r3_g51_h2_t49 = -31 ;
1 d_49 -1 u_49 <= 0 ;
-1 d_49 -1 u_49 <= 0 ;
1 u_49 -1 M <= 0 ;
1 u_49 <= 2 ;
1 p_r0_g132_h82_t50 -1 x_r0_g132 <= 0 ;
1 p_r0_g132_h82_t50 -1 x_r0_g82 <= 0 ;
1 p_r0_g132_h82_t50 -1 x_r0_g132 -1 x_r0_g82 >= -1 ;
1 p_r1_g29_h146_t50 -1 x_r1_g29 <= 0 ;
1 p_r1_g29_h146_t50 -1 x_r1_g146 <= 0 ;
1 p_r1_g29_h146_t50 -1 x_r1_g29 -1 x_r1_g146 >= -1 ;
1 p_r1_g85_h35_t50 -1 x_r1_g85 <= 0 ;
1 p_r1_g85_h35_t50 -1 x_r1_g35 <= 0 ;
1 p_r1_g85_h35_t50 -1 x_r1_g85 -1 x_r1_g35 >= -1 ;
1 p_r1_g136_h86_t50 -1 x_r1_g136 <= 0 ;
1 p_r1_g136_h86_t50 -1 x_r1_g86 <= 0 ;
1 p_r1_g136_h86_t50 -1 x_r1_g136 -1 x_r1_g86 >= -1 ;
1 p_r1_g140_h90_t50 -1 x_r1_g140 <= 0 ;
1 p_r1_g140_h90_t50 -1 x_r1_g90 <= 0 ;
1 p_r1_g140_h90_t50 -1 x_r1_g140 -1 x_r1_g90 >= -1 ;
1 p_r2_g13_h130_t50 -1 x_r2_g13 <= 0 ;
1 p_r2_g13_h130_t50 -1 x_r2_g130 <= 0 ;
1 p_r2_g13_h130_t50 -1 x_r2_g13 -1 x_r2_g130 >= -1 ;
1 p_r2_g117_h67_t50 -1 x_r2_g117 <= 0 ;
1 p_r2_g117_h67_t50 -1 x_r2_g67 <= 0 ;
1 p_r2_g117_h67_t50 -1 x_r2_g117 -1 x_r2_g67 >= -1 ;
1 p_r2_g123_h73_t50 -1 x_r2_g123 <= 0 ;
1 p_r2_g123_h73_t50 -1 x_r2_g73 <= 0 ;
1 p_r2_g123_h73_t50 -1 x_r2_g123 -1 x_r2_g73 >= -1 ;
1 p_r3_g18_h135_t50 -1 x_r3_g18 <= 0 ;
1 p_r3_g18_h135_t50 -1 x_r3_g135 <= 0 ;
1 p_r3_g18_h135_t50 -1 x_r3_g18 -1 x_r3_g135 >= -1 ;
1 p_r3_g24_h141_t50 -1 x_r3_g24 <= 0 ;
1 p_r3_g24_h141_t50 -1 x_r3_g141 <= 0 ;
1 p_r3_g24_h141_t50 -1 x_r3_g24 -1 x_r3_g141 >= -1 ;
1 p_r3_g50_h0_t50 -1 x_r3_g50 <= 0 ;
1 p_r3_g50_h0_t50 -1 x_r3_g0 <= 0 ;
1 p_r3_g50_h0_t50 -1 x_r3_g50 -1 x_r3_g0 >= -1 ;
1 p_r3_g68_h18_t50 -1 x_r3_g68 <= 0 ;
1 p_r3_g68_h18_t50 -1 x_r3_g18 <= 0 ;
1 p_r3_g68_h18_t50 -1 x_r3_g68 -1 x_r3_g18 >= -1 ;
1 p_r3_g140_h90_t50 -1 x_r3_g140 <= 0 ;
1 p_r3_g140_h90_t50 -1 x_r3_g90 <= 0 ;
1 p_r3_g140_h90_t50 -1 x_r3_g140 -1 x_r3_g90 >= -1 ;
1 d_50 -2 x_r0_g1 -2 x_r0_g9 -2 x_r0_g20 -1 x_r0_g30 -1 x_r0_g41 -1 x_r0_g62 -1 x_r0_g90 -2 x_r0_g97 -2 x_r0_g101 -2 x_r0_g120 -1 x_r0_g130 -1 x_r0_g132 -1 x_r0_g152 -1 x_r0_g161 -1 x_r1_g11 -1 x_r1_g29 -1 x_r1_g31 -1 x_r1_g45 -1 x_r1_g57 -1 x_r1_g60 -1 x_r1_g62 -1 x_r1_g64 -1 x_r1_g86 -2 x_r1_g88 -1 x_r1_g90 -2 x_r1_g137 -1 x_r1_g146 -1 x_r1_g166 -1 x_r2_g13 -1 x_r2_g28 -2 x_r2_g48 -2 x_r2_g51 -2 x_r2_g70 -1 x_r2_g83 -1 x_r2_g91 -1 x_r2_g102 -1 x_r2_g103 -1 x_r2_g117 -1 x_r2_g130 -1 x_r2_g136 -1 x_r2_g138 -2 x_r2_g144 -1 x_r2_g148 -2 x_r2_g160 -1 x_r2_g164 -1 x_r3_g2 -1 x_r3_g16 -1 x_r3_g24 -1 x_r3_g27 -1 x_r3_g43 -1 x_r3_g50 -1 x_r3_g51 -1 x_r3_g68 -2 x_r3_g78 -2 x_r3_g82 -1 x_r3_g90 -2 x_r3_g95 -2 x_r3_g112 -1 x_r3_g134 -1 x_r3_g140 -1 x_r3_g147 -2 x_r3_g149 -1 x_r3_g154 -1 x_r3_g163 -1 p_r0_g132_h82_t50 -1 p_r1_g29_h146_t50 -1 p_r1_g85_h35_t50 -1 p_r1_g136_h86_t50 -1 p_r1_g140_h90_t50 -1 p_r2_g13_h130_t50 -1 p_r2_g117_h67_t50 -1 p_r2_g123_h73_t50 -1 p_r3_g18_h135_t50 -1 p_r3_g24_h141_t50 -1 p_r3_g50_h0_t50 -1 p_r3_g68_h18_t50 -1 p_r3_g140_h90_t50 = -50 ;
1 d_50 -1 u_50 <= 0 ;
-1 d_50 -1 u_50 <= 0 ;
1 u_50 -1 M <= 0 ;
1 u_50 <= 2 ;
1 p_r0_g62_h11_t51 -1 x_r0_g62 <= 0 ;
1 p_r0_g62_h11_t51 -1 x_r0_g11 <= 0 ;
1 p_r0_g62_h11_t51 -1 x_r0_g62 -1 x_r0_g11 >= -1 ;
1 p_r0_g130_h79_t51 -1 x_r0_g130 <= 0 ;
1 p_r0_g130_h79_t51 -1 x_r0_g79 <= 0 ;
1 p_r0_g130_h79_t51 -1 x_r0_g130 -1 x_r0_g79 >= -1 ;
1 p_r0_g152_h101_t51 -1 x_r0_g152 <= 0 ;
1 p_r0_g152_h101_t51 -1 x_r0_g101 <= 0 ;
1 p_r0_g152_h101_t51 -1 x_r0_g152 -1 x_r0_g101 >= -1 ;
1 p_r1_g60_h9_t51 -1 x_r1_g60 <= 0 ;
1 p_r1_g60_h9_t51 -1 x_r1_g9 <= 0 ;
1 p_r1_g60_h9_t51 -1 x_r1_g60 -1 x_r1_g9 >= -1 ;
1 p_r1_g62_h11_t51 -1 x_r1_g62 <= 0 ;
1 p_r1_g62_h11_t51 -1 x_r1_g11 <= 0 ;
1 p_r1_g62_h11_t51 -1 x_r1_g62 -1 x_r1_g11 >= -1 ;
1 p_r1_g86_h35_t51 -1 x_r1_g86 <= 0 ;
1 p_r1_g86_h35_t51 -1 x_r1_g35 <= 0 ;
1 p_r1_g86_h35_t51 -1 x_r1_g86 -1 x_r1_g35 >= -1 ;
1 p_r1_g111_h60_t51 -1 x_r1_g111 <= 0 ;
1 p_r1_g111_h60_t51 -1 x_r1_g60 <= 0 ;
1 p_r1_g111_h60_t51 -1 x_r1_g111 -1 x_r1_g60 >= -1 ;
1 p_r1_g136_h85_t51 -1 x_r1_g136 <= 0 ;
1 p_r1_g136_h85_t51 -1 x_r1_g85 <= 0 ;
1 p_r1_g136_h85_t51 -1 x_r1_g136 -1 x_r1_g85 >= -1 ;
1 p_r1_g137_h86_t51 -1 x_r1_g137 <= 0 ;
1 p_r1_g137_h86_t51 -1 x_r1_g86 <= 0 ;
1 p_r1_g137_h86_t51 -1 x_r1_g137 -1 x_r1_g86 >= -1 ;
1 p_r2_g7_h123_t51 -1 x_r2_g7 <= 0 ;
1 p_r2_g7_h123_t51 -1 x_r2_g123 <= 0 ;
1 p_r2_g7_h123_t51 -1 x_r2_g7 -1 x_r2_g123 >= -1 ;
1 p_r2_g28_h144_t51 -1 x_r2_g28 <= 0 ;
1 p_r2_g28_h144_t51 -1 x_r2_g144 <= 0 ;
1 p_r2_g28_h144_t51 -1 x_r2_g28 -1 x_r2_g144 >= -1 ;
1 p_r2_g48_h164_t51 -1 x_r2_g48 <= 0 ;
1 p_r2_g48_h164_t51 -1 x_r2_g164 <= 0 ;
1 p_r2_g48_h164_t51 -1 x_r2_g48 -1 x_r2_g164 >= -1 ;
1 p_r2_g58_h7_t51 -1 x_r2_g58 <= 0 ;
1 p_r2_g58_h7_t51 -1 x_r2_g7 <= 0 ;
1 p_r2_g58_h7_t51 -1 x_r2_g58 -1 x_r2_g7 >= -1 ;
1 p_r2_g102_h51_t51 -1 x_r2_g102 <= 0 ;
1 p_r2_g102_h51_t51 -1 x_r2_g51 <= 0 ;
1 p_r2_g102_h51_t51 -1 x_r2_g102 -1 x_r2_g51 >= -1 ;
1 p_r2_g109_h58_t51 -1 x_r2_g109 <= 0 ;
1 p_r2_g109_h58_t51 -1 x_r2_g58 <= 0 ;
1 p_r2_g109_h58_t51 -1 x_r2_g109 -1 x_r2_g58 >= -1 ;
1 p_r2_g160_h109_t51 -1 x_r2_g160 <= 0 ;
1 p_r2_g160_h109_t51 -1 x_r2_g109 <= 0 ;
1 p_r2_g160_h109_t51 -1 x_r2_g160 -1 x_r2_g109 >= -1 ;
1 p_r3_g18_h134_t51 -1 x_r3_g18 <= 0 ;
1 p_r3_g18_h134_t51 -1 x_r3_g134 <= 0 ;
1 p_r3_g18_h134_t51 -1 x_r3_g18 -1 x_r3_g134 >= -1 ;
1 p_r3_g24_h140_t51 -1 x_r3_g24 <= 0 ;
1 p_r3_g24_h140_t51 -1 x_r3_g140 <= 0 ;
1 p_r3_g24_h140_t51 -1 x_r3_g24 -1 x_r3_g140 >= -1 ;
1 p_r3_g51_h0_t51 -1 x_r3_g51 <= 0 ;
1 p_r3_g51_h0_t51 -1 x_r3_g0 <= 0 ;
1 p_r3_g51_h0_t51 -1 x_r3_g51 -1 x_r3_g0 >= -1 ;
1 p_r3_g78_h27_t51 -1 x_r3_g78 <= 0 ;
1 p_r3_g78_h27_t51 -1 x_r3_g27 <= 0 ;
1 p_r3_g78_h27_t51 -1 x_r3_g78 -1 x_r3_g27 >= -1 ;
1 p_r3_g141_h90_t51 -1 x_r3_g141 <= 0 ;
1 p_r3_g141_h90_t51 -1 x_r3_g90 <= 0 ;
1 p_r3_g141_h90_t51 -1 x_r3_g141 -1 x_r3_g90 >= -1 ;
1 p_r3_g163_h112_t51 -1 x_r3_g163 <= 0 ;
1 p_r3_g163_h112_t51 -1 x_r3_g112 <= 0 ;
1 p_r3_g163_h112_t51 -1 x_r3_g163 -1 x_r3_g112 >= -1 ;
1 d_51 -2 x_r0_g0 -1 x_r0_g1 -1 x_r0_g11 -1 x_r0_g20 -1 x_r0_g30 -1 x_r0_g37 -1 x_r0_g41 -1 x_r0_g62 -1 x_r0_g97 -2 x_r0_g100 -1 x_r0_g103 -1 x_r0_g120 -1 x_r0_g139 -1 x_r0_g152 -1 x_r0_g161 -1 x_r1_g8 -1 x_r1_g11 -1 x_r1_g25 -1 x_r1_g29 -1 x_r1_g31 -1 x_r1_g33 -1 x_r1_g45 -1 x_r1_g57 -1 x_r1_g62 -1 x_r1_g64 -1 x_r1_g88 -2 x_r1_g90 -1 x_r1_g136 -1 x_r1_g140 -1 x_r1_g146 -1 x_r1_g166 -2 x_r2_g13 -1 x_r2_g29 -1 x_r2_g51 -1 x_r2_g70 -1 x_r2_g83 -1 x_r2_g102 -1 x_r2_g117 -1 x_r2_g130 -2 x_r2_g136 -1 x_r2_g164 -2 x_r3_g2 -1 x_r3_g16 -1 x_r3_g24 -1 x_r3_g27 -1 x_r3_g43 -1 x_r3_g50 -2 x_r3_g68 -1 x_r3_g78 -1 x_r3_g90 -1 x_r3_g95 -1 x_r3_g106 -1 x_r3_g112 -1 x_r3_g134 -1 x_r3_g135 -1 x_r3_g140 -1 x_r3_g149 -1 x_r3_g154 -1 x_r3_g163 -1 p_r0_g62_h11_t51 -1 p_r0_g130_h79_t51 -1 p_r0_g152_h101_t51 -1 p_r1_g60_h9_t51 -1 p_r1_g62_h11_t51 -1 p_r1_g86_h35_t51 -1 p_r1_g111_h60_t51 -1 p_r1_g136_h85_t51 -1 p_r1_g137_h86_t51 -1 p_r2_g7_h123_t51 -1 p_r2_g28_h144_t51 -1 p_r2_g48_h164_t51 -1 p_r2_g58_h7_t51 -1 p_r2_g102_h51_t51 -1 p_r2_g109_h58_t51 -1 p_r2_g160_h109_t51 -1 p_r3_g18_h134_t51 -1 p_r3_g24_h140_t51 -1 p_r3_g51_h0_t51 -1 p_r3_g78_h27_t51 -1 p_r3_g141_h90_t51 -1 p_r3_g163_h112_t51 = -50 ;
1 d_51 -1 u_51 <= 0 ;
-1 d_51 -1 u_51 <= 0 ;
1 u_51 -1 M <= 0 ;
1 u_51 <= 2 ;
1 p_r0_g1_h103_t65 -1 x_r0_g1 <= 0 ;
1 p_r0_g1_h103_t65 -1 x_r0_g103 <= 0 ;
1 p_r0_g1_h103_t65 -1 x_r0_g1 -1 x_r0_g103 >= -1 ;
1 p_r0_g30_h132_t65 -1 x_r0_g30 <= 0 ;
1 p_r0_g30_h132_t65 -1 x_r0_g132 <= 0 ;
1 p_r0_g30_h132_t65 -1 x_r0_g30 -1 x_r0_g132 >= -1 ;
1 p_r0_g37_h139_t65 -1 x_r0_g37 <= 0 ;
1 p_r0_g37_h139_t65 -1 x_r0_g139 <= 0 ;
1 p_r0_g37_h139_t65 -1 x_r0_g37 -1 x_r0_g139 >= -1 ;
1 p_r0_g41_h143_t65 -1 x_r0_g41 <= 0 ;
1 p_r0_g41_h143_t65 -1 x_r0_g143 <= 0 ;
1 p_r0_g41_h143_t65 -1 x_r0_g41 -1 x_r0_g143 >= -1 ;
1 p_r1_g9_h111_t65 -1 x_r1_g9 <= 0 ;
1 p_r1_g9_h111_t65 -1 x_r1_g111 <= 0 ;
1 p_r1_g9_h111_t65 -1 x_r1_g9 -1 x_r1_g111 >= -1 ;
1 p_r1_g35_h137_t65 -1 x_r1_g35 <= 0 ;
1 p_r1_g35_h137_t65 -1 x_r1_g137 <= 0 ;
1 p_r1_g35_h137_t65 -1 x_r1_g35 -1 x_r1_g137 >= -1 ;
1 p_r1_g64_h166_t65 -1 x_r1_g64 <= 0 ;
1 p_r1_g64_h166_t65 -1 x_r1_g166 <= 0 ;
1 p_r1_g64_h166_t65 -1 x_r1_g64 -1 x_r1_g166 >= -1 ;
1 p_r1_g90_h25_t65 -1 x_r1_g90 <= 0 ;
1 p_r1_g90_h25_t65 -1 x_r1_g25 <= 0 ;
1 p_r1_g90_h25_t65 -1 x_r1_g90 -1 x_r1_g25 >= -1 ;
1 p_r2_g7_h109_t65 -1 x_r2_g7 <= 0 ;
1 p_r2_g7_h109_t65 -1 x_r2_g109 <= 0 ;
1 p_r2_g7_h109_t65 -1 x_r2_g7 -1 x_r2_g109 >= -1 ;
1 p_r2_g28_h130_t65 -1 x_r2_g28 <= 0 ;
1 p_r2_g28_h130_t65 -1 x_r2_g130 <= 0 ;
1 p_r2_g28_h130_t65 -1 x_r2_g28 -1 x_r2_g130 >= -1 ;
1 p_r2_g58_h160_t65 -1 x_r2_g58 <= 0 ;
1 p_r2_g58_h160_t65 -1 x_r2_g160 <= 0 ;
1 p_r2_g58_h160_t65 -1 x_r2_g58 -1 x_r2_g160 >= -1 ;
1 p_r2_g123_h58_t65 -1 x_r2_g123 <= 0 ;
1 p_r2_g123_h58_t65 -1 x_r2_g58 <= 0 ;
1 p_r2_g123_h58_t65 -1 x_r2_g123 -1 x_r2_g58 >= -1 ;
1 p_r2_g138_h73_t65 -1 x_r2_g138 <= 0 ;
1 p_r2_g138_h73_t65 -1 x_r2_g73 <= 0 ;
1 p_r2_g138_h73_t65 -1 x_r2_g138 -1 x_r2_g73 >= -1 ;
1 p_r2_g148_h83_t65 -1 x_r2_g148 <= 0 ;
1 p_r2_g148_h83_t65 -1 x_r2_g83 <= 0 ;
1 p_r2_g148_h83_t65 -1 x_r2_g148 -1 x_r2_g83 >= -1 ;
1 p_r3_g147_h82_t65 -1 x_r3_g147 <= 0 ;
1 p_r3_g147_h82_t65 -1 x_r3_g82 <= 0 ;
1 p_r3_g147_h82_t65 -1 x_r3_g147 -1 x_r3_g82 >= -1 ;
1 d_65 -2 x_r0_g0 -2 x_r0_g9 -1 x_r0_g11 -1 x_r0_g20 -1 x_r0_g37 -1 x_r0_g62 -1 x_r0_g82 -2 x_r0_g90 -1 x_r0_g100 -1 x_r0_g101 -1 x_r0_g103 -1 x_r0_g120 -1 x_r0_g130 -1 x_r0_g132 -1 x_r0_g139 -1 x_r0_g161 -1 x_r1_g11 -1 x_r1_g25 -2 x_r1_g31 -1 x_r1_g33 -1 x_r1_g35 -1 x_r1_g57 -2 x_r1_g62 -1 x_r1_g67 -1 x_r1_g85 -1 x_r1_g90 -1 x_r1_g111 -1 x_r1_g140 -1 x_r1_g146 -2 x_r2_g13 -1 x_r2_g29 -2 x_r2_g48 -2 x_r2_g51 -1 x_r2_g67 -1 x_r2_g83 -1 x_r2_g91 -1 x_r2_g102 -1 x_r2_g103 -1 x_r2_g123 -1 x_r2_g130 -1 x_r2_g136 -1 x_r2_g148 -1 x_r3_g0 -2 x_r3_g16 -1 x_r3_g18 -1 x_r3_g24 -1 x_r3_g27 -2 x_r3_g43 -2 x_r3_g78 -1 x_r3_g82 -2 x_r3_g95 -2 x_r3_g106 -1 x_r3_g112 -1 x_r3_g134 -2 x_r3_g140 -2 x_r3_g141 -1 x_r3_g147 -1 x_r3_g149 -1 x_r3_g154 -2 x_r3_g163 -1 p_r0_g1_h103_t65 -1 p_r0_g30_h132_t65 -1 p_r0_g37_h139_t65 -1 p_r0_g41_h143_t65 -1 p_r1_g9_h111_t65 -1 p_r1_g35_h137_t65 -1 p_r1_g64_h166_t65 -1 p_r1_g90_h25_t65 -1 p_r2_g7_h109_t65 -1 p_r2_g28_h130_t65 -1 p_r2_g58_h160_t65 -1 p_r2_g123_h58_t65 -1 p_r2_g138_h73_t65 -1 p_r2_g148_h83_t65 -1 p_r3_g147_h82_t65 = -52 ;
1 d_65 -1 u_65 <= 0 ;
-1 d_65 -1 u_65 <= 0 ;
1 u_65 -1 M <= 0 ;
1 u_65 <= 2 ;
1 M <= 3 ;
10 u_26 10 u_32 1 u_4 1 u_29 1 u_38 1 u_43 1 u_45 1 u_48 1 u_49 1 u_50 1 u_51 1 u_65 <= 79 ;
1 F -1 x_r0_g0 -1 x_r0_g1 -1 x_r0_g9 -1 x_r0_g41 -1 x_r0_g79 -1 x_r0_g82 -1 x_r0_g83 -1 x_r0_g97 -1 x_r0_g103 -1 x_r0_g130 -1 x_r0_g143 -1 x_r0_g161 -1 x_r1_g8 -1 x_r1_g9 -1 x_r1_g33 -1 x_r1_g35 -1 x_r1_g45 -1 x_r1_g60 -1 x_r1_g67 -1 x_r1_g85 -1 x_r1_g86 -1 x_r1_g111 -1 x_r1_g136 -1 x_r1_g137 -1 x_r2_g29 -1 x_r2_g67 -1 x_r2_g70 -1 x_r2_g73 -1 x_r2_g91 -1 x_r2_g103 -1 x_r2_g109 -1 x_r2_g117 -1 x_r2_g123 -1 x_r2_g138 -1 x_r2_g144 -1 x_r2_g164 -1 x_r3_g0 -1 x_r3_g16 -1 x_r3_g18 -1 x_r3_g24 -1 x_r3_g50 -1 x_r3_g51 -1 x_r3_g82 -1 x_r3_g90 -1 x_r3_g95 -1 x_r3_g135 -1 x_r3_g141 -1 x_r3_g147 1 x_r0_g11 1 x_r0_g20 1 x_r0_g30 1 x_r0_g37 1 x_r0_g62 1 x_r0_g90 1 x_r0_g100 1 x_r0_g101 1 x_r0_g120 1 x_r0_g132 1 x_r0_g139 1 x_r0_g152 1 x_r1_g11 1 x_r1_g25 1 x_r1_g29 1 x_r1_g31 1 x_r1_g57 1 x_r1_g62 1 x_r1_g64 1 x_r1_g88 1 x_r1_g90 1 x_r1_g140 1 x_r1_g146 1 x_r1_g166 1 x_r2_g7 1 x_r2_g13 1 x_r2_g28 1 x_r2_g48 1 x_r2_g51 1 x_r2_g58 1 x_r2_g83 1 x_r2_g102 1 x_r2_g130 1 x_r2_g136 1 x_r2_g148 1 x_r2_g160 1 x_r3_g2 1 x_r3_g27 1 x_r3_g43 1 x_r3_g68 1 x_r3_g78 1 x_r3_g106 1 x_r3_g112 1 x_r3_g134 1 x_r3_g140 1 x_r3_g149 1 x_r3_g154 1 x_r3_g163 = 48 ;
1 F <= 8 ;
