Minimize
 obj: M
Subject To
 block_size_0: 1 x_r0_g1 + 1 x_r0_g4 + 1 x_r0_g7 + 1 x_r0_g9 + 1 x_r0_g14 + 1 x_r0_g17 + 1 x_r0_g20 + 1 x_r0_g22 + 1 x_r0_g23 + 1 x_r0_g25 + 1 x_r0_g26 + 1 x_r0_g28 + 1 x_r0_g32 + 1 x_r0_g34 + 1 x_r0_g35 + 1 x_r0_g36 + 1 x_r0_g37 + 1 x_r0_g47 + 1 x_r0_g48 + 1 x_r0_g54 + 1 x_r0_g60 + 1 x_r0_g67 + 1 x_r0_g68 + 1 x_r0_g69 + 1 x_r0_g70 + 1 x_r0_g79 + 1 x_r0_g84 + 1 x_r0_g87 + 1 x_r0_g97 + 1 x_r0_g101 + 1 x_r0_g102 + 1 x_r0_g118 + 1 x_r0_g121 + 1 x_r0_g123 + 1 x_r0_g130 + 1 x_r0_g131 + 1 x_r0_g143 + 1 x_r0_g144 + 1 x_r0_g153 + 1 x_r0_g162 = 20
 block_size_1: 1 x_r1_g8 + 1 x_r1_g11 + 1 x_r1_g13 + 1 x_r1_g15 + 1 x_r1_g17 + 1 x_r1_g25 + 1 x_r1_g30 + 1 x_r1_g31 + 1 x_r1_g35 + 1 x_r1_g38 + 1 x_r1_g53 + 1 x_r1_g59 + 1 x_r1_g62 + 1 x_r1_g64 + 1 x_r1_g67 + 1 x_r1_g75 + 1 x_r1_g76 + 1 x_r1_g80 + 1 x_r1_g83 + 1 x_r1_g90 + 1 x_r1_g91 + 1 x_r1_g93 + 1 x_r1_g96 + 1 x_r1_g107 + 1 x_r1_g108 + 1 x_r1_g110 + 1 x_r1_g111 + 1 x_r1_g113 + 1 x_r1_g114 + 1 x_r1_g117 + 1 x_r1_g121 + 1 x_r1_g126 + 1 x_r1_g128 + 1 x_r1_g132 + 1 x_r1_g143 + 1 x_r1_g146 + 1 x_r1_g154 + 1 x_r1_g155 + 1 x_r1_g157 + 1 x_r1_g161 = 20
 block_size_2: 1 x_r2_g2 + 1 x_r2_g18 + 1 x_r2_g29 + 1 x_r2_g30 + 1 x_r2_g34 + 1 x_r2_g48 + 1 x_r2_g60 + 1 x_r2_g62 + 1 x_r2_g64 + 1 x_r2_g66 + 1 x_r2_g67 + 1 x_r2_g70 + 1 x_r2_g73 + 1 x_r2_g74 + 1 x_r2_g77 + 1 x_r2_g80 + 1 x_r2_g82 + 1 x_r2_g86 + 1 x_r2_g91 + 1 x_r2_g95 + 1 x_r2_g98 + 1 x_r2_g100 + 1 x_r2_g107 + 1 x_r2_g110 + 1 x_r2_g111 + 1 x_r2_g120 + 1 x_r2_g128 + 1 x_r2_g135 + 1 x_r2_g136 + 1 x_r2_g139 + 1 x_r2_g142 + 1 x_r2_g149 + 1 x_r2_g152 + 1 x_r2_g155 + 1 x_r2_g158 + 1 x_r2_g159 + 1 x_r2_g162 + 1 x_r2_g163 + 1 x_r2_g164 + 1 x_r2_g165 = 20
 block_size_3: 1 x_r3_g3 + 1 x_r3_g7 + 1 x_r3_g8 + 1 x_r3_g11 + 1 x_r3_g13 + 1 x_r3_g15 + 1 x_r3_g16 + 1 x_r3_g18 + 1 x_r3_g19 + 1 x_r3_g27 + 1 x_r3_g33 + 1 x_r3_g34 + 1 x_r3_g36 + 1 x_r3_g51 + 1 x_r3_g53 + 1 x_r3_g56 + 1 x_r3_g57 + 1 x_r3_g65 + 1 x_r3_g72 + 1 x_r3_g77 + 1 x_r3_g79 + 1 x_r3_g91 + 1 x_r3_g94 + 1 x_r3_g103 + 1 x_r3_g106 + 1 x_r3_g111 + 1 x_r3_g113 + 1 x_r3_g121 + 1 x_r3_g123 + 1 x_r3_g124 + 1 x_r3_g125 + 1 x_r3_g128 + 1 x_r3_g138 + 1 x_r3_g144 + 1 x_r3_g145 + 1 x_r3_g147 + 1 x_r3_g154 + 1 x_r3_g159 + 1 x_r3_g162 + 1 x_r3_g165 = 20
 lin1_1_0_23: p_r0_g23_h22_t1 - x_r0_g23 <= 0
 lin2_1_0_23: p_r0_g23_h22_t1 - x_r0_g22 <= 0
 lin3_1_0_23: p_r0_g23_h22_t1 - x_r0_g23 - x_r0_g22 >= -1
 lin1_1_0_26: p_r0_g26_h25_t1 - x_r0_g26 <= 0
 lin2_1_0_26: p_r0_g26_h25_t1 - x_r0_g25 <= 0
 lin3_1_0_26: p_r0_g26_h25_t1 - x_r0_g26 - x_r0_g25 >= -1
 lin1_1_0_35: p_r0_g35_h34_t1 - x_r0_g35 <= 0
 lin2_1_0_35: p_r0_g35_h34_t1 - x_r0_g34 <= 0
 lin3_1_0_35: p_r0_g35_h34_t1 - x_r0_g35 - x_r0_g34 >= -1
 lin1_1_0_36: p_r0_g36_h35_t1 - x_r0_g36 <= 0
 lin2_1_0_36: p_r0_g36_h35_t1 - x_r0_g35 <= 0
 lin3_1_0_36: p_r0_g36_h35_t1 - x_r0_g36 - x_r0_g35 >= -1
 lin1_1_0_37: p_r0_g37_h36_t1 - x_r0_g37 <= 0
 lin2_1_0_37: p_r0_g37_h36_t1 - x_r0_g36 <= 0
 lin3_1_0_37: p_r0_g37_h36_t1 - x_r0_g37 - x_r0_g36 >= -1
 lin1_1_0_48: p_r0_g48_h47_t1 - x_r0_g48 <= 0
 lin2_1_0_48: p_r0_g48_h47_t1 - x_r0_g47 <= 0
 lin3_1_0_48: p_r0_g48_h47_t1 - x_r0_g48 - x_r0_g47 >= -1
 lin1_1_0_68: p_r0_g68_h67_t1 - x_r0_g68 <= 0
 lin2_1_0_68: p_r0_g68_h67_t1 - x_r0_g67 <= 0
 lin3_1_0_68: p_r0_g68_h67_t1 - x_r0_g68 - x_r0_g67 >= -1
 lin1_1_0_69: p_r0_g69_h68_t1 - x_r0_g69 <= 0
 lin2_1_0_69: p_r0_g69_h68_t1 - x_r0_g68 <= 0
 lin3_1_0_69: p_r0_g69_h68_t1 - x_r0_g69 - x_r0_g68 >= -1
 lin1_1_0_70: p_r0_g70_h69_t1 - x_r0_g70 <= 0
 lin2_1_0_70: p_r0_g70_h69_t1 - x_r0_g69 <= 0
 lin3_1_0_70: p_r0_g70_h69_t1 - x_r0_g70 - x_r0_g69 >= -1
 lin1_1_0_102: p_r0_g102_h101_t1 - x_r0_g102 <= 0
 lin2_1_0_102: p_r0_g102_h101_t1 - x_r0_g101 <= 0
 lin3_1_0_102: p_r0_g102_h101_t1 - x_r0_g102 - x_r0_g101 >= -1
 lin1_1_0_131: p_r0_g131_h130_t1 - x_r0_g131 <= 0
 lin2_1_0_131: p_r0_g131_h130_t1 - x_r0_g130 <= 0
 lin3_1_0_131: p_r0_g131_h130_t1 - x_r0_g131 - x_r0_g130 >= -1
 lin1_1_0_144: p_r0_g144_h143_t1 - x_r0_g144 <= 0
 lin2_1_0_144: p_r0_g144_h143_t1 - x_r0_g143 <= 0
 lin3_1_0_144: p_r0_g144_h143_t1 - x_r0_g144 - x_r0_g143 >= -1
 lin1_1_1_31: p_r1_g31_h30_t1 - x_r1_g31 <= 0
 lin2_1_1_31: p_r1_g31_h30_t1 - x_r1_g30 <= 0
 lin3_1_1_31: p_r1_g31_h30_t1 - x_r1_g31 - x_r1_g30 >= -1
 lin1_1_1_76: p_r1_g76_h75_t1 - x_r1_g76 <= 0
 lin2_1_1_76: p_r1_g76_h75_t1 - x_r1_g75 <= 0
 lin3_1_1_76: p_r1_g76_h75_t1 - x_r1_g76 - x_r1_g75 >= -1
 lin1_1_1_91: p_r1_g91_h90_t1 - x_r1_g91 <= 0
 lin2_1_1_91: p_r1_g91_h90_t1 - x_r1_g90 <= 0
 lin3_1_1_91: p_r1_g91_h90_t1 - x_r1_g91 - x_r1_g90 >= -1
 lin1_1_1_108: p_r1_g108_h107_t1 - x_r1_g108 <= 0
 lin2_1_1_108: p_r1_g108_h107_t1 - x_r1_g107 <= 0
 lin3_1_1_108: p_r1_g108_h107_t1 - x_r1_g108 - x_r1_g107 >= -1
 lin1_1_1_111: p_r1_g111_h110_t1 - x_r1_g111 <= 0
 lin2_1_1_111: p_r1_g111_h110_t1 - x_r1_g110 <= 0
 lin3_1_1_111: p_r1_g111_h110_t1 - x_r1_g111 - x_r1_g110 >= -1
 lin1_1_1_114: p_r1_g114_h113_t1 - x_r1_g114 <= 0
 lin2_1_1_114: p_r1_g114_h113_t1 - x_r1_g113 <= 0
 lin3_1_1_114: p_r1_g114_h113_t1 - x_r1_g114 - x_r1_g113 >= -1
 lin1_1_1_155: p_r1_g155_h154_t1 - x_r1_g155 <= 0
 lin2_1_1_155: p_r1_g155_h154_t1 - x_r1_g154 <= 0
 lin3_1_1_155: p_r1_g155_h154_t1 - x_r1_g155 - x_r1_g154 >= -1
 lin1_1_2_30: p_r2_g30_h29_t1 - x_r2_g30 <= 0
 lin2_1_2_30: p_r2_g30_h29_t1 - x_r2_g29 <= 0
 lin3_1_2_30: p_r2_g30_h29_t1 - x_r2_g30 - x_r2_g29 >= -1
 lin1_1_2_67: p_r2_g67_h66_t1 - x_r2_g67 <= 0
 lin2_1_2_67: p_r2_g67_h66_t1 - x_r2_g66 <= 0
 lin3_1_2_67: p_r2_g67_h66_t1 - x_r2_g67 - x_r2_g66 >= -1
 lin1_1_2_74: p_r2_g74_h73_t1 - x_r2_g74 <= 0
 lin2_1_2_74: p_r2_g74_h73_t1 - x_r2_g73 <= 0
 lin3_1_2_74: p_r2_g74_h73_t1 - x_r2_g74 - x_r2_g73 >= -1
 lin1_1_2_111: p_r2_g111_h110_t1 - x_r2_g111 <= 0
 lin2_1_2_111: p_r2_g111_h110_t1 - x_r2_g110 <= 0
 lin3_1_2_111: p_r2_g111_h110_t1 - x_r2_g111 - x_r2_g110 >= -1
 lin1_1_2_136: p_r2_g136_h135_t1 - x_r2_g136 <= 0
 lin2_1_2_136: p_r2_g136_h135_t1 - x_r2_g135 <= 0
 lin3_1_2_136: p_r2_g136_h135_t1 - x_r2_g136 - x_r2_g135 >= -1
 lin1_1_2_159: p_r2_g159_h158_t1 - x_r2_g159 <= 0
 lin2_1_2_159: p_r2_g159_h158_t1 - x_r2_g158 <= 0
 lin3_1_2_159: p_r2_g159_h158_t1 - x_r2_g159 - x_r2_g158 >= -1
 lin1_1_2_163: p_r2_g163_h162_t1 - x_r2_g163 <= 0
 lin2_1_2_163: p_r2_g163_h162_t1 - x_r2_g162 <= 0
 lin3_1_2_163: p_r2_g163_h162_t1 - x_r2_g163 - x_r2_g162 >= -1
 lin1_1_2_164: p_r2_g164_h163_t1 - x_r2_g164 <= 0
 lin2_1_2_164: p_r2_g164_h163_t1 - x_r2_g163 <= 0
 lin3_1_2_164: p_r2_g164_h163_t1 - x_r2_g164 - x_r2_g163 >= -1
 lin1_1_2_165: p_r2_g165_h164_t1 - x_r2_g165 <= 0
 lin2_1_2_165: p_r2_g165_h164_t1 - x_r2_g164 <= 0
 lin3_1_2_165: p_r2_g165_h164_t1 - x_r2_g165 - x_r2_g164 >= -1
 lin1_1_3_8: p_r3_g8_h7_t1 - x_r3_g8 <= 0
 lin2_1_3_8: p_r3_g8_h7_t1 - x_r3_g7 <= 0
 lin3_1_3_8: p_r3_g8_h7_t1 - x_r3_g8 - x_r3_g7 >= -1
 lin1_1_3_16: p_r3_g16_h15_t1 - x_r3_g16 <= 0
 lin2_1_3_16: p_r3_g16_h15_t1 - x_r3_g15 <= 0
 lin3_1_3_16: p_r3_g16_h15_t1 - x_r3_g16 - x_r3_g15 >= -1
 lin1_1_3_19: p_r3_g19_h18_t1 - x_r3_g19 <= 0
 lin2_1_3_19: p_r3_g19_h18_t1 - x_r3_g18 <= 0
 lin3_1_3_19: p_r3_g19_h18_t1 - x_r3_g19 - x_r3_g18 >= -1
 lin1_1_3_34: p_r3_g34_h33_t1 - x_r3_g34 <= 0
 lin2_1_3_34: p_r3_g34_h33_t1 - x_r3_g33 <= 0
 lin3_1_3_34: p_r3_g34_h33_t1 - x_r3_g34 - x_r3_g33 >= -1
 lin1_1_3_57: p_r3_g57_h56_t1 - x_r3_g57 <= 0
 lin2_1_3_57: p_r3_g57_h56_t1 - x_r3_g56 <= 0
 lin3_1_3_57: p_r3_g57_h56_t1 - x_r3_g57 - x_r3_g56 >= -1
 lin1_1_3_124: p_r3_g124_h123_t1 - x_r3_g124 <= 0
 lin2_1_3_124: p_r3_g124_h123_t1 - x_r3_g123 <= 0
 lin3_1_3_124: p_r3_g124_h123_t1 - x_r3_g124 - x_r3_g123 >= -1
 lin1_1_3_125: p_r3_g125_h124_t1 - x_r3_g125 <= 0
 lin2_1_3_125: p_r3_g125_h124_t1 - x_r3_g124 <= 0
 lin3_1_3_125: p_r3_g125_h124_t1 - x_r3_g125 - x_r3_g124 >= -1
 lin1_1_3_145: p_r3_g145_h144_t1 - x_r3_g145 <= 0
 lin2_1_3_145: p_r3_g145_h144_t1 - x_r3_g144 <= 0
 lin3_1_3_145: p_r3_g145_h144_t1 - x_r3_g145 - x_r3_g144 >= -1
 defect_1: 1 d_1 - 2 x_r0_g4 - 1 x_r0_g7 - 2 x_r0_g14 - 1 x_r0_g20 - 1 x_r0_g37 - 1 x_r0_g48 - 1 x_r0_g54 - 1 x_r0_g60 - 1 x_r0_g87 - 1 x_r0_g97 - 1 x_r0_g101 - 1 x_r0_g102 - 1 x_r0_g118 - 2 x_r0_g121 - 1 x_r0_g123 - 1 x_r0_g131 - 1 x_r0_g143 - 1 x_r0_g153 - 1 x_r0_g162 - 1 x_r1_g11 - 1 x_r1_g15 - 2 x_r1_g17 - 1 x_r1_g25 - 1 x_r1_g30 - 1 x_r1_g31 - 1 x_r1_g35 - 2 x_r1_g38 - 1 x_r1_g64 - 2 x_r1_g67 - 2 x_r1_g80 - 2 x_r1_g83 - 1 x_r1_g90 - 1 x_r1_g96 - 1 x_r1_g108 - 1 x_r1_g110 - 1 x_r1_g111 - 1 x_r1_g113 - 1 x_r1_g114 - 1 x_r1_g117 - 1 x_r1_g126 - 1 x_r1_g128 - 1 x_r1_g155 - 1 x_r1_g157 - 1 x_r1_g161 - 1 x_r2_g2 - 1 x_r2_g29 - 1 x_r2_g30 - 1 x_r2_g34 - 1 x_r2_g48 - 1 x_r2_g60 - 2 x_r2_g62 - 2 x_r2_g64 - 1 x_r2_g66 - 1 x_r2_g67 - 1 x_r2_g74 - 1 x_r2_g77 - 1 x_r2_g82 - 2 x_r2_g86 - 1 x_r2_g91 - 1 x_r2_g95 - 1 x_r2_g100 - 1 x_r2_g111 - 2 x_r2_g120 - 1 x_r2_g128 - 1 x_r2_g135 - 1 x_r2_g136 - 1 x_r2_g139 - 2 x_r2_g149 - 2 x_r2_g152 - 1 x_r2_g158 - 1 x_r2_g159 - 1 x_r2_g162 - 2 x_r3_g3 - 1 x_r3_g7 - 1 x_r3_g8 - 1 x_r3_g11 - 1 x_r3_g13 - 1 x_r3_g16 - 1 x_r3_g18 - 1 x_r3_g19 - 2 x_r3_g27 - 1 x_r3_g33 - 1 x_r3_g36 - 1 x_r3_g56 - 1 x_r3_g65 - 2 x_r3_g77 - 2 x_r3_g79 - 2 x_r3_g111 - 1 x_r3_g113 - 1 x_r3_g121 - 1 x_r3_g123 - 2 x_r3_g128 - 2 x_r3_g138 - 1 x_r3_g144 - 1 x_r3_g147 - 1 x_r3_g159 - 1 x_r3_g162 - 1 x_r3_g165 - 1 p_r0_g23_h22_t1 - 1 p_r0_g26_h25_t1 - 1 p_r0_g35_h34_t1 - 1 p_r0_g36_h35_t1 - 1 p_r0_g37_h36_t1 - 1 p_r0_g48_h47_t1 - 1 p_r0_g68_h67_t1 - 1 p_r0_g69_h68_t1 - 1 p_r0_g70_h69_t1 - 1 p_r0_g102_h101_t1 - 1 p_r0_g131_h130_t1 - 1 p_r0_g144_h143_t1 - 1 p_r1_g31_h30_t1 - 1 p_r1_g76_h75_t1 - 1 p_r1_g91_h90_t1 - 1 p_r1_g108_h107_t1 - 1 p_r1_g111_h110_t1 - 1 p_r1_g114_h113_t1 - 1 p_r1_g155_h154_t1 - 1 p_r2_g30_h29_t1 - 1 p_r2_g67_h66_t1 - 1 p_r2_g74_h73_t1 - 1 p_r2_g111_h110_t1 - 1 p_r2_g136_h135_t1 - 1 p_r2_g159_h158_t1 - 1 p_r2_g163_h162_t1 - 1 p_r2_g164_h163_t1 - 1 p_r2_g165_h164_t1 - 1 p_r3_g8_h7_t1 - 1 p_r3_g16_h15_t1 - 1 p_r3_g19_h18_t1 - 1 p_r3_g34_h33_t1 - 1 p_r3_g57_h56_t1 - 1 p_r3_g124_h123_t1 - 1 p_r3_g125_h124_t1 - 1 p_r3_g145_h144_t1 = -79
 abs_pos_1: d_1 - u_1 <= 0
 abs_neg_1: - d_1 - u_1 <= 0
 max_def_1: u_1 - M <= 0
 cap_1: u_1 <= 1
 lin1_2_0_9: p_r0_g9_h7_t2 - x_r0_g9 <= 0
 lin2_2_0_9: p_r0_g9_h7_t2 - x_r0_g7 <= 0
 lin3_2_0_9: p_r0_g9_h7_t2 - x_r0_g9 - x_r0_g7 >= -1
 lin1_2_0_22: p_r0_g22_h20_t2 - x_r0_g22 <= 0
 lin2_2_0_22: p_r0_g22_h20_t2 - x_r0_g20 <= 0
 lin3_2_0_22: p_r0_g22_h20_t2 - x_r0_g22 - x_r0_g20 >= -1
 lin1_2_0_25: p_r0_g25_h23_t2 - x_r0_g25 <= 0
 lin2_2_0_25: p_r0_g25_h23_t2 - x_r0_g23 <= 0
 lin3_2_0_25: p_r0_g25_h23_t2 - x_r0_g25 - x_r0_g23 >= -1
 lin1_2_0_28: p_r0_g28_h26_t2 - x_r0_g28 <= 0
 lin2_2_0_28: p_r0_g28_h26_t2 - x_r0_g26 <= 0
 lin3_2_0_28: p_r0_g28_h26_t2 - x_r0_g28 - x_r0_g26 >= -1
 lin1_2_0_34: p_r0_g34_h32_t2 - x_r0_g34 <= 0
 lin2_2_0_34: p_r0_g34_h32_t2 - x_r0_g32 <= 0
 lin3_2_0_34: p_r0_g34_h32_t2 - x_r0_g34 - x_r0_g32 >= -1
 lin1_2_0_36: p_r0_g36_h34_t2 - x_r0_g36 <= 0
 lin2_2_0_36: p_r0_g36_h34_t2 - x_r0_g34 <= 0
 lin3_2_0_36: p_r0_g36_h34_t2 - x_r0_g36 - x_r0_g34 >= -1
 lin1_2_0_37: p_r0_g37_h35_t2 - x_r0_g37 <= 0
 lin2_2_0_37: p_r0_g37_h35_t2 - x_r0_g35 <= 0
 lin3_2_0_37: p_r0_g37_h35_t2 - x_r0_g37 - x_r0_g35 >= -1
 lin1_2_0_69: p_r0_g69_h67_t2 - x_r0_g69 <= 0
 lin2_2_0_69: p_r0_g69_h67_t2 - x_r0_g67 <= 0
 lin3_2_0_69: p_r0_g69_h67_t2 - x_r0_g69 - x_r0_g67 >= -1
 lin1_2_0_70: p_r0_g70_h68_t2 - x_r0_g70 <= 0
 lin2_2_0_70: p_r0_g70_h68_t2 - x_r0_g68 <= 0
 lin3_2_0_70: p_r0_g70_h68_t2 - x_r0_g70 - x_r0_g68 >= -1
 lin1_2_0_123: p_r0_g123_h121_t2 - x_r0_g123 <= 0
 lin2_2_0_123: p_r0_g123_h121_t2 - x_r0_g121 <= 0
 lin3_2_0_123: p_r0_g123_h121_t2 - x_r0_g123 - x_r0_g121 >= -1
 lin1_2_1_13: p_r1_g13_h11_t2 - x_r1_g13 <= 0
 lin2_2_1_13: p_r1_g13_h11_t2 - x_r1_g11 <= 0
 lin3_2_1_13: p_r1_g13_h11_t2 - x_r1_g13 - x_r1_g11 >= -1
 lin1_2_1_15: p_r1_g15_h13_t2 - x_r1_g15 <= 0
 lin2_2_1_15: p_r1_g15_h13_t2 - x_r1_g13 <= 0
 lin3_2_1_15: p_r1_g15_h13_t2 - x_r1_g15 - x_r1_g13 >= -1
 lin1_2_1_17: p_r1_g17_h15_t2 - x_r1_g17 <= 0
 lin2_2_1_17: p_r1_g17_h15_t2 - x_r1_g15 <= 0
 lin3_2_1_17: p_r1_g17_h15_t2 - x_r1_g17 - x_r1_g15 >= -1
 lin1_2_1_64: p_r1_g64_h62_t2 - x_r1_g64 <= 0
 lin2_2_1_64: p_r1_g64_h62_t2 - x_r1_g62 <= 0
 lin3_2_1_64: p_r1_g64_h62_t2 - x_r1_g64 - x_r1_g62 >= -1
 lin1_2_1_93: p_r1_g93_h91_t2 - x_r1_g93 <= 0
 lin2_2_1_93: p_r1_g93_h91_t2 - x_r1_g91 <= 0
 lin3_2_1_93: p_r1_g93_h91_t2 - x_r1_g93 - x_r1_g91 >= -1
 lin1_2_1_110: p_r1_g110_h108_t2 - x_r1_g110 <= 0
 lin2_2_1_110: p_r1_g110_h108_t2 - x_r1_g108 <= 0
 lin3_2_1_110: p_r1_g110_h108_t2 - x_r1_g110 - x_r1_g108 >= -1
 lin1_2_1_113: p_r1_g113_h111_t2 - x_r1_g113 <= 0
 lin2_2_1_113: p_r1_g113_h111_t2 - x_r1_g111 <= 0
 lin3_2_1_113: p_r1_g113_h111_t2 - x_r1_g113 - x_r1_g111 >= -1
 lin1_2_1_128: p_r1_g128_h126_t2 - x_r1_g128 <= 0
 lin2_2_1_128: p_r1_g128_h126_t2 - x_r1_g126 <= 0
 lin3_2_1_128: p_r1_g128_h126_t2 - x_r1_g128 - x_r1_g126 >= -1
 lin1_2_1_157: p_r1_g157_h155_t2 - x_r1_g157 <= 0
 lin2_2_1_157: p_r1_g157_h155_t2 - x_r1_g155 <= 0
 lin3_2_1_157: p_r1_g157_h155_t2 - x_r1_g157 - x_r1_g155 >= -1
 lin1_2_2_62: p_r2_g62_h60_t2 - x_r2_g62 <= 0
 lin2_2_2_62: p_r2_g62_h60_t2 - x_r2_g60 <= 0
 lin3_2_2_62: p_r2_g62_h60_t2 - x_r2_g62 - x_r2_g60 >= -1
 lin1_2_2_64: p_r2_g64_h62_t2 - x_r2_g64 <= 0
 lin2_2_2_64: p_r2_g64_h62_t2 - x_r2_g62 <= 0
 lin3_2_2_64: p_r2_g64_h62_t2 - x_r2_g64 - x_r2_g62 >= -1
 lin1_2_2_66: p_r2_g66_h64_t2 - x_r2_g66 <= 0
 lin2_2_2_66: p_r2_g66_h64_t2 - x_r2_g64 <= 0
 lin3_2_2_66: p_r2_g66_h64_t2 - x_r2_g66 - x_r2_g64 >= -1
 lin1_2_2_82: p_r2_g82_h80_t2 - x_r2_g82 <= 0
 lin2_2_2_82: p_r2_g82_h80_t2 - x_r2_g80 <= 0
 lin3_2_2_82: p_r2_g82_h80_t2 - x_r2_g82 - x_r2_g80 >= -1
 lin1_2_2_100: p_r2_g100_h98_t2 - x_r2_g100 <= 0
 lin2_2_2_100: p_r2_g100_h98_t2 - x_r2_g98 <= 0
 lin3_2_2_100: p_r2_g100_h98_t2 - x_r2_g100 - x_r2_g98 >= -1
 lin1_2_2_164: p_r2_g164_h162_t2 - x_r2_g164 <= 0
 lin2_2_2_164: p_r2_g164_h162_t2 - x_r2_g162 <= 0
 lin3_2_2_164: p_r2_g164_h162_t2 - x_r2_g164 - x_r2_g162 >= -1
 lin1_2_2_165: p_r2_g165_h163_t2 - x_r2_g165 <= 0
 lin2_2_2_165: p_r2_g165_h163_t2 - x_r2_g163 <= 0
 lin3_2_2_165: p_r2_g165_h163_t2 - x_r2_g165 - x_r2_g163 >= -1
 lin1_2_3_13: p_r3_g13_h11_t2 - x_r3_g13 <= 0
 lin2_2_3_13: p_r3_g13_h11_t2 - x_r3_g11 <= 0
 lin3_2_3_13: p_r3_g13_h11_t2 - x_r3_g13 - x_r3_g11 >= -1
 lin1_2_3_15: p_r3_g15_h13_t2 - x_r3_g15 <= 0
 lin2_2_3_15: p_r3_g15_h13_t2 - x_r3_g13 <= 0
 lin3_2_3_15: p_r3_g15_h13_t2 - x_r3_g15 - x_r3_g13 >= -1
 lin1_2_3_18: p_r3_g18_h16_t2 - x_r3_g18 <= 0
 lin2_2_3_18: p_r3_g18_h16_t2 - x_r3_g16 <= 0
 lin3_2_3_18: p_r3_g18_h16_t2 - x_r3_g18 - x_r3_g16 >= -1
 lin1_2_3_36: p_r3_g36_h34_t2 - x_r3_g36 <= 0
 lin2_2_3_36: p_r3_g36_h34_t2 - x_r3_g34 <= 0
 lin3_2_3_36: p_r3_g36_h34_t2 - x_r3_g36 - x_r3_g34 >= -1
 lin1_2_3_53: p_r3_g53_h51_t2 - x_r3_g53 <= 0
 lin2_2_3_53: p_r3_g53_h51_t2 - x_r3_g51 <= 0
 lin3_2_3_53: p_r3_g53_h51_t2 - x_r3_g53 - x_r3_g51 >= -1
 lin1_2_3_79: p_r3_g79_h77_t2 - x_r3_g79 <= 0
 lin2_2_3_79: p_r3_g79_h77_t2 - x_r3_g77 <= 0
 lin3_2_3_79: p_r3_g79_h77_t2 - x_r3_g79 - x_r3_g77 >= -1
 lin1_2_3_113: p_r3_g113_h111_t2 - x_r3_g113 <= 0
 lin2_2_3_113: p_r3_g113_h111_t2 - x_r3_g111 <= 0
 lin3_2_3_113: p_r3_g113_h111_t2 - x_r3_g113 - x_r3_g111 >= -1
 lin1_2_3_123: p_r3_g123_h121_t2 - x_r3_g123 <= 0
 lin2_2_3_123: p_r3_g123_h121_t2 - x_r3_g121 <= 0
 lin3_2_3_123: p_r3_g123_h121_t2 - x_r3_g123 - x_r3_g121 >= -1
 lin1_2_3_125: p_r3_g125_h123_t2 - x_r3_g125 <= 0
 lin2_2_3_125: p_r3_g125_h123_t2 - x_r3_g123 <= 0
 lin3_2_3_125: p_r3_g125_h123_t2 - x_r3_g125 - x_r3_g123 >= -1
 lin1_2_3_147: p_r3_g147_h145_t2 - x_r3_g147 <= 0
 lin2_2_3_147: p_r3_g147_h145_t2 - x_r3_g145 <= 0
 lin3_2_3_147: p_r3_g147_h145_t2 - x_r3_g147 - x_r3_g145 >= -1
 defect_2: 1 d_2 - 1 x_r0_g1 - 1 x_r0_g4 - 1 x_r0_g7 - 1 x_r0_g9 - 1 x_r0_g14 - 2 x_r0_g17 - 1 x_r0_g28 - 1 x_r0_g32 - 1 x_r0_g36 - 2 x_r0_g47 - 1 x_r0_g54 - 2 x_r0_g60 - 1 x_r0_g67 - 1 x_r0_g79 - 1 x_r0_g101 - 1 x_r0_g102 - 2 x_r0_g118 - 1 x_r0_g121 - 1 x_r0_g123 - 1 x_r0_g130 - 2 x_r0_g144 - 2 x_r0_g153 - 1 x_r0_g162 - 1 x_r1_g8 - 1 x_r1_g25 - 1 x_r1_g30 - 1 x_r1_g31 - 1 x_r1_g35 - 2 x_r1_g38 - 1 x_r1_g59 - 1 x_r1_g64 - 2 x_r1_g67 - 1 x_r1_g76 - 2 x_r1_g80 - 1 x_r1_g83 - 1 x_r1_g90 - 1 x_r1_g91 - 1 x_r1_g93 - 1 x_r1_g96 - 1 x_r1_g107 - 1 x_r1_g110 - 1 x_r1_g111 - 1 x_r1_g113 - 2 x_r1_g114 - 2 x_r1_g117 - 2 x_r1_g121 - 1 x_r1_g126 - 1 x_r1_g128 - 1 x_r1_g132 - 1 x_r1_g143 - 1 x_r1_g154 - 1 x_r1_g157 - 2 x_r1_g161 - 2 x_r2_g2 - 1 x_r2_g18 - 2 x_r2_g29 - 1 x_r2_g30 - 1 x_r2_g48 - 1 x_r2_g60 - 1 x_r2_g66 - 1 x_r2_g67 - 1 x_r2_g70 - 1 x_r2_g73 - 1 x_r2_g77 - 1 x_r2_g80 - 1 x_r2_g91 - 1 x_r2_g95 - 1 x_r2_g100 - 1 x_r2_g107 - 1 x_r2_g110 - 1 x_r2_g111 - 1 x_r2_g120 - 2 x_r2_g128 - 1 x_r2_g135 - 1 x_r2_g136 - 1 x_r2_g139 - 1 x_r2_g142 - 1 x_r2_g149 - 1 x_r2_g152 - 2 x_r2_g155 - 1 x_r2_g158 - 2 x_r2_g159 - 1 x_r2_g162 - 1 x_r2_g163 - 1 x_r2_g165 - 2 x_r3_g3 - 2 x_r3_g7 - 1 x_r3_g8 - 1 x_r3_g11 - 1 x_r3_g15 - 1 x_r3_g18 - 1 x_r3_g19 - 1 x_r3_g34 - 1 x_r3_g36 - 1 x_r3_g51 - 1 x_r3_g53 - 2 x_r3_g57 - 1 x_r3_g72 - 1 x_r3_g77 - 1 x_r3_g79 - 1 x_r3_g91 - 1 x_r3_g106 - 1 x_r3_g121 - 1 x_r3_g124 - 1 x_r3_g125 - 1 x_r3_g138 - 1 x_r3_g144 - 1 x_r3_g145 - 1 x_r3_g147 - 1 x_r3_g162 - 1 x_r3_g165 - 1 p_r0_g9_h7_t2 - 1 p_r0_g22_h20_t2 - 1 p_r0_g25_h23_t2 - 1 p_r0_g28_h26_t2 - 1 p_r0_g34_h32_t2 - 1 p_r0_g36_h34_t2 - 1 p_r0_g37_h35_t2 - 1 p_r0_g69_h67_t2 - 1 p_r0_g70_h68_t2 - 1 p_r0_g123_h121_t2 - 1 p_r1_g13_h11_t2 - 1 p_r1_g15_h13_t2 - 1 p_r1_g17_h15_t2 - 1 p_r1_g64_h62_t2 - 1 p_r1_g93_h91_t2 - 1 p_r1_g110_h108_t2 - 1 p_r1_g113_h111_t2 - 1 p_r1_g128_h126_t2 - 1 p_r1_g157_h155_t2 - 1 p_r2_g62_h60_t2 - 1 p_r2_g64_h62_t2 - 1 p_r2_g66_h64_t2 - 1 p_r2_g82_h80_t2 - 1 p_r2_g100_h98_t2 - 1 p_r2_g164_h162_t2 - 1 p_r2_g165_h163_t2 - 1 p_r3_g13_h11_t2 - 1 p_r3_g15_h13_t2 - 1 p_r3_g18_h16_t2 - 1 p_r3_g36_h34_t2 - 1 p_r3_g53_h51_t2 - 1 p_r3_g79_h77_t2 - 1 p_r3_g113_h111_t2 - 1 p_r3_g123_h121_t2 - 1 p_r3_g125_h123_t2 - 1 p_r3_g147_h145_t2 = -62
 abs_pos_2: d_2 - u_2 <= 0
 abs_neg_2: - d_2 - u_2 <= 0
 max_def_2: u_2 - M <= 0
 cap_2: u_2 <= 2
 lin1_3_0_4: p_r0_g4_h1_t3 - x_r0_g4 <= 0
 lin2_3_0_4: p_r0_g4_h1_t3 - x_r0_g1 <= 0
 lin3_3_0_4: p_r0_g4_h1_t3 - x_r0_g4 - x_r0_g1 >= -1
 lin1_3_0_7: p_r0_g7_h4_t3 - x_r0_g7 <= 0
 lin2_3_0_7: p_r0_g7_h4_t3 - x_r0_g4 <= 0
 lin3_3_0_7: p_r0_g7_h4_t3 - x_r0_g7 - x_r0_g4 >= -1
 lin1_3_0_17: p_r0_g17_h14_t3 - x_r0_g17 <= 0
 lin2_3_0_17: p_r0_g17_h14_t3 - x_r0_g14 <= 0
 lin3_3_0_17: p_r0_g17_h14_t3 - x_r0_g17 - x_r0_g14 >= -1
 lin1_3_0_20: p_r0_g20_h17_t3 - x_r0_g20 <= 0
 lin2_3_0_20: p_r0_g20_h17_t3 - x_r0_g17 <= 0
 lin3_3_0_20: p_r0_g20_h17_t3 - x_r0_g20 - x_r0_g17 >= -1
 lin1_3_0_23: p_r0_g23_h20_t3 - x_r0_g23 <= 0
 lin2_3_0_23: p_r0_g23_h20_t3 - x_r0_g20 <= 0
 lin3_3_0_23: p_r0_g23_h20_t3 - x_r0_g23 - x_r0_g20 >= -1
 lin1_3_0_25: p_r0_g25_h22_t3 - x_r0_g25 <= 0
 lin2_3_0_25: p_r0_g25_h22_t3 - x_r0_g22 <= 0
 lin3_3_0_25: p_r0_g25_h22_t3 - x_r0_g25 - x_r0_g22 >= -1
 lin1_3_0_26: p_r0_g26_h23_t3 - x_r0_g26 <= 0
 lin2_3_0_26: p_r0_g26_h23_t3 - x_r0_g23 <= 0
 lin3_3_0_26: p_r0_g26_h23_t3 - x_r0_g26 - x_r0_g23 >= -1
 lin1_3_0_28: p_r0_g28_h25_t3 - x_r0_g28 <= 0
 lin2_3_0_28: p_r0_g28_h25_t3 - x_r0_g25 <= 0
 lin3_3_0_28: p_r0_g28_h25_t3 - x_r0_g28 - x_r0_g25 >= -1
 lin1_3_0_35: p_r0_g35_h32_t3 - x_r0_g35 <= 0
 lin2_3_0_35: p_r0_g35_h32_t3 - x_r0_g32 <= 0
 lin3_3_0_35: p_r0_g35_h32_t3 - x_r0_g35 - x_r0_g32 >= -1
 lin1_3_0_37: p_r0_g37_h34_t3 - x_r0_g37 <= 0
 lin2_3_0_37: p_r0_g37_h34_t3 - x_r0_g34 <= 0
 lin3_3_0_37: p_r0_g37_h34_t3 - x_r0_g37 - x_r0_g34 >= -1
 lin1_3_0_70: p_r0_g70_h67_t3 - x_r0_g70 <= 0
 lin2_3_0_70: p_r0_g70_h67_t3 - x_r0_g67 <= 0
 lin3_3_0_70: p_r0_g70_h67_t3 - x_r0_g70 - x_r0_g67 >= -1
 lin1_3_0_87: p_r0_g87_h84_t3 - x_r0_g87 <= 0
 lin2_3_0_87: p_r0_g87_h84_t3 - x_r0_g84 <= 0
 lin3_3_0_87: p_r0_g87_h84_t3 - x_r0_g87 - x_r0_g84 >= -1
 lin1_3_0_121: p_r0_g121_h118_t3 - x_r0_g121 <= 0
 lin2_3_0_121: p_r0_g121_h118_t3 - x_r0_g118 <= 0
 lin3_3_0_121: p_r0_g121_h118_t3 - x_r0_g121 - x_r0_g118 >= -1
 lin1_3_1_11: p_r1_g11_h8_t3 - x_r1_g11 <= 0
 lin2_3_1_11: p_r1_g11_h8_t3 - x_r1_g8 <= 0
 lin3_3_1_11: p_r1_g11_h8_t3 - x_r1_g11 - x_r1_g8 >= -1
 lin1_3_1_38: p_r1_g38_h35_t3 - x_r1_g38 <= 0
 lin2_3_1_38: p_r1_g38_h35_t3 - x_r1_g35 <= 0
 lin3_3_1_38: p_r1_g38_h35_t3 - x_r1_g38 - x_r1_g35 >= -1
 lin1_3_1_62: p_r1_g62_h59_t3 - x_r1_g62 <= 0
 lin2_3_1_62: p_r1_g62_h59_t3 - x_r1_g59 <= 0
 lin3_3_1_62: p_r1_g62_h59_t3 - x_r1_g62 - x_r1_g59 >= -1
 lin1_3_1_67: p_r1_g67_h64_t3 - x_r1_g67 <= 0
 lin2_3_1_67: p_r1_g67_h64_t3 - x_r1_g64 <= 0
 lin3_3_1_67: p_r1_g67_h64_t3 - x_r1_g67 - x_r1_g64 >= -1
 lin1_3_1_83: p_r1_g83_h80_t3 - x_r1_g83 <= 0
 lin2_3_1_83: p_r1_g83_h80_t3 - x_r1_g80 <= 0
 lin3_3_1_83: p_r1_g83_h80_t3 - x_r1_g83 - x_r1_g80 >= -1
 lin1_3_1_93: p_r1_g93_h90_t3 - x_r1_g93 <= 0
 lin2_3_1_93: p_r1_g93_h90_t3 - x_r1_g90 <= 0
 lin3_3_1_93: p_r1_g93_h90_t3 - x_r1_g93 - x_r1_g90 >= -1
 lin1_3_1_96: p_r1_g96_h93_t3 - x_r1_g96 <= 0
 lin2_3_1_96: p_r1_g96_h93_t3 - x_r1_g93 <= 0
 lin3_3_1_96: p_r1_g96_h93_t3 - x_r1_g96 - x_r1_g93 >= -1
 lin1_3_1_110: p_r1_g110_h107_t3 - x_r1_g110 <= 0
 lin2_3_1_110: p_r1_g110_h107_t3 - x_r1_g107 <= 0
 lin3_3_1_110: p_r1_g110_h107_t3 - x_r1_g110 - x_r1_g107 >= -1
 lin1_3_1_111: p_r1_g111_h108_t3 - x_r1_g111 <= 0
 lin2_3_1_111: p_r1_g111_h108_t3 - x_r1_g108 <= 0
 lin3_3_1_111: p_r1_g111_h108_t3 - x_r1_g111 - x_r1_g108 >= -1
 lin1_3_1_113: p_r1_g113_h110_t3 - x_r1_g113 <= 0
 lin2_3_1_113: p_r1_g113_h110_t3 - x_r1_g110 <= 0
 lin3_3_1_113: p_r1_g113_h110_t3 - x_r1_g113 - x_r1_g110 >= -1
 lin1_3_1_114: p_r1_g114_h111_t3 - x_r1_g114 <= 0
 lin2_3_1_114: p_r1_g114_h111_t3 - x_r1_g111 <= 0
 lin3_3_1_114: p_r1_g114_h111_t3 - x_r1_g114 - x_r1_g111 >= -1
 lin1_3_1_117: p_r1_g117_h114_t3 - x_r1_g117 <= 0
 lin2_3_1_117: p_r1_g117_h114_t3 - x_r1_g114 <= 0
 lin3_3_1_117: p_r1_g117_h114_t3 - x_r1_g117 - x_r1_g114 >= -1
 lin1_3_1_146: p_r1_g146_h143_t3 - x_r1_g146 <= 0
 lin2_3_1_146: p_r1_g146_h143_t3 - x_r1_g143 <= 0
 lin3_3_1_146: p_r1_g146_h143_t3 - x_r1_g146 - x_r1_g143 >= -1
 lin1_3_1_157: p_r1_g157_h154_t3 - x_r1_g157 <= 0
 lin2_3_1_157: p_r1_g157_h154_t3 - x_r1_g154 <= 0
 lin3_3_1_157: p_r1_g157_h154_t3 - x_r1_g157 - x_r1_g154 >= -1
 lin1_3_2_67: p_r2_g67_h64_t3 - x_r2_g67 <= 0
 lin2_3_2_67: p_r2_g67_h64_t3 - x_r2_g64 <= 0
 lin3_3_2_67: p_r2_g67_h64_t3 - x_r2_g67 - x_r2_g64 >= -1
 lin1_3_2_70: p_r2_g70_h67_t3 - x_r2_g70 <= 0
 lin2_3_2_70: p_r2_g70_h67_t3 - x_r2_g67 <= 0
 lin3_3_2_70: p_r2_g70_h67_t3 - x_r2_g70 - x_r2_g67 >= -1
 lin1_3_2_73: p_r2_g73_h70_t3 - x_r2_g73 <= 0
 lin2_3_2_73: p_r2_g73_h70_t3 - x_r2_g70 <= 0
 lin3_3_2_73: p_r2_g73_h70_t3 - x_r2_g73 - x_r2_g70 >= -1
 lin1_3_2_77: p_r2_g77_h74_t3 - x_r2_g77 <= 0
 lin2_3_2_77: p_r2_g77_h74_t3 - x_r2_g74 <= 0
 lin3_3_2_77: p_r2_g77_h74_t3 - x_r2_g77 - x_r2_g74 >= -1
 lin1_3_2_80: p_r2_g80_h77_t3 - x_r2_g80 <= 0
 lin2_3_2_80: p_r2_g80_h77_t3 - x_r2_g77 <= 0
 lin3_3_2_80: p_r2_g80_h77_t3 - x_r2_g80 - x_r2_g77 >= -1
 lin1_3_2_98: p_r2_g98_h95_t3 - x_r2_g98 <= 0
 lin2_3_2_98: p_r2_g98_h95_t3 - x_r2_g95 <= 0
 lin3_3_2_98: p_r2_g98_h95_t3 - x_r2_g98 - x_r2_g95 >= -1
 lin1_3_2_110: p_r2_g110_h107_t3 - x_r2_g110 <= 0
 lin2_3_2_110: p_r2_g110_h107_t3 - x_r2_g107 <= 0
 lin3_3_2_110: p_r2_g110_h107_t3 - x_r2_g110 - x_r2_g107 >= -1
 lin1_3_2_139: p_r2_g139_h136_t3 - x_r2_g139 <= 0
 lin2_3_2_139: p_r2_g139_h136_t3 - x_r2_g136 <= 0
 lin3_3_2_139: p_r2_g139_h136_t3 - x_r2_g139 - x_r2_g136 >= -1
 lin1_3_2_142: p_r2_g142_h139_t3 - x_r2_g142 <= 0
 lin2_3_2_142: p_r2_g142_h139_t3 - x_r2_g139 <= 0
 lin3_3_2_142: p_r2_g142_h139_t3 - x_r2_g142 - x_r2_g139 >= -1
 lin1_3_2_152: p_r2_g152_h149_t3 - x_r2_g152 <= 0
 lin2_3_2_152: p_r2_g152_h149_t3 - x_r2_g149 <= 0
 lin3_3_2_152: p_r2_g152_h149_t3 - x_r2_g152 - x_r2_g149 >= -1
 lin1_3_2_155: p_r2_g155_h152_t3 - x_r2_g155 <= 0
 lin2_3_2_155: p_r2_g155_h152_t3 - x_r2_g152 <= 0
 lin3_3_2_155: p_r2_g155_h152_t3 - x_r2_g155 - x_r2_g152 >= -1
 lin1_3_2_158: p_r2_g158_h155_t3 - x_r2_g158 <= 0
 lin2_3_2_158: p_r2_g158_h155_t3 - x_r2_g155 <= 0
 lin3_3_2_158: p_r2_g158_h155_t3 - x_r2_g158 - x_r2_g155 >= -1
 lin1_3_2_162: p_r2_g162_h159_t3 - x_r2_g162 <= 0
 lin2_3_2_162: p_r2_g162_h159_t3 - x_r2_g159 <= 0
 lin3_3_2_162: p_r2_g162_h159_t3 - x_r2_g162 - x_r2_g159 >= -1
 lin1_3_2_165: p_r2_g165_h162_t3 - x_r2_g165 <= 0
 lin2_3_2_165: p_r2_g165_h162_t3 - x_r2_g162 <= 0
 lin3_3_2_165: p_r2_g165_h162_t3 - x_r2_g165 - x_r2_g162 >= -1
 lin1_3_3_11: p_r3_g11_h8_t3 - x_r3_g11 <= 0
 lin2_3_3_11: p_r3_g11_h8_t3 - x_r3_g8 <= 0
 lin3_3_3_11: p_r3_g11_h8_t3 - x_r3_g11 - x_r3_g8 >= -1
 lin1_3_3_16: p_r3_g16_h13_t3 - x_r3_g16 <= 0
 lin2_3_3_16: p_r3_g16_h13_t3 - x_r3_g13 <= 0
 lin3_3_3_16: p_r3_g16_h13_t3 - x_r3_g16 - x_r3_g13 >= -1
 lin1_3_3_18: p_r3_g18_h15_t3 - x_r3_g18 <= 0
 lin2_3_3_18: p_r3_g18_h15_t3 - x_r3_g15 <= 0
 lin3_3_3_18: p_r3_g18_h15_t3 - x_r3_g18 - x_r3_g15 >= -1
 lin1_3_3_19: p_r3_g19_h16_t3 - x_r3_g19 <= 0
 lin2_3_3_19: p_r3_g19_h16_t3 - x_r3_g16 <= 0
 lin3_3_3_19: p_r3_g19_h16_t3 - x_r3_g19 - x_r3_g16 >= -1
 lin1_3_3_36: p_r3_g36_h33_t3 - x_r3_g36 <= 0
 lin2_3_3_36: p_r3_g36_h33_t3 - x_r3_g33 <= 0
 lin3_3_3_36: p_r3_g36_h33_t3 - x_r3_g36 - x_r3_g33 >= -1
 lin1_3_3_56: p_r3_g56_h53_t3 - x_r3_g56 <= 0
 lin2_3_3_56: p_r3_g56_h53_t3 - x_r3_g53 <= 0
 lin3_3_3_56: p_r3_g56_h53_t3 - x_r3_g56 - x_r3_g53 >= -1
 lin1_3_3_94: p_r3_g94_h91_t3 - x_r3_g94 <= 0
 lin2_3_3_94: p_r3_g94_h91_t3 - x_r3_g91 <= 0
 lin3_3_3_94: p_r3_g94_h91_t3 - x_r3_g94 - x_r3_g91 >= -1
 lin1_3_3_106: p_r3_g106_h103_t3 - x_r3_g106 <= 0
 lin2_3_3_106: p_r3_g106_h103_t3 - x_r3_g103 <= 0
 lin3_3_3_106: p_r3_g106_h103_t3 - x_r3_g106 - x_r3_g103 >= -1
 lin1_3_3_124: p_r3_g124_h121_t3 - x_r3_g124 <= 0
 lin2_3_3_124: p_r3_g124_h121_t3 - x_r3_g121 <= 0
 lin3_3_3_124: p_r3_g124_h121_t3 - x_r3_g124 - x_r3_g121 >= -1
 lin1_3_3_128: p_r3_g128_h125_t3 - x_r3_g128 <= 0
 lin2_3_3_128: p_r3_g128_h125_t3 - x_r3_g125 <= 0
 lin3_3_3_128: p_r3_g128_h125_t3 - x_r3_g128 - x_r3_g125 >= -1
 lin1_3_3_147: p_r3_g147_h144_t3 - x_r3_g147 <= 0
 lin2_3_3_147: p_r3_g147_h144_t3 - x_r3_g144 <= 0
 lin3_3_3_147: p_r3_g147_h144_t3 - x_r3_g147 - x_r3_g144 >= -1
 lin1_3_3_162: p_r3_g162_h159_t3 - x_r3_g162 <= 0
 lin2_3_3_162: p_r3_g162_h159_t3 - x_r3_g159 <= 0
 lin3_3_3_162: p_r3_g162_h159_t3 - x_r3_g162 - x_r3_g159 >= -1
 lin1_3_3_165: p_r3_g165_h162_t3 - x_r3_g165 <= 0
 lin2_3_3_165: p_r3_g165_h162_t3 - x_r3_g162 <= 0
 lin3_3_3_165: p_r3_g165_h162_t3 - x_r3_g165 - x_r3_g162 >= -1
 defect_3: 1 d_3 - 1 x_r0_g1 - 2 x_r0_g9 - 1 x_r0_g14 - 1 x_r0_g22 - 1 x_r0_g35 - 1 x_r0_g37 - 2 x_r0_g48 - 1 x_r0_g54 - 1 x_r0_g60 - 1 x_r0_g68 - 1 x_r0_g87 - 1 x_r0_g97 - 1 x_r0_g101 - 2 x_r0_g123 - 1 x_r0_g130 - 1 x_r0_g143 - 2 x_r0_g162 - 2 x_r1_g13 - 1 x_r1_g15 - 1 x_r1_g17 - 1 x_r1_g30 - 1 x_r1_g35 - 1 x_r1_g53 - 1 x_r1_g59 - 1 x_r1_g62 - 1 x_r1_g67 - 1 x_r1_g75 - 1 x_r1_g76 - 1 x_r1_g90 - 1 x_r1_g91 - 1 x_r1_g113 - 1 x_r1_g121 - 1 x_r1_g126 - 1 x_r1_g143 - 1 x_r1_g157 - 1 x_r1_g161 - 1 x_r2_g18 - 1 x_r2_g29 - 2 x_r2_g30 - 1 x_r2_g34 - 1 x_r2_g60 - 1 x_r2_g62 - 1 x_r2_g64 - 1 x_r2_g66 - 1 x_r2_g80 - 1 x_r2_g82 - 1 x_r2_g86 - 1 x_r2_g91 - 1 x_r2_g98 - 1 x_r2_g107 - 1 x_r2_g110 - 1 x_r2_g111 - 1 x_r2_g135 - 1 x_r2_g149 - 1 x_r2_g158 - 1 x_r2_g163 - 2 x_r2_g164 - 1 x_r2_g165 - 1 x_r3_g3 - 1 x_r3_g7 - 1 x_r3_g8 - 1 x_r3_g15 - 1 x_r3_g19 - 1 x_r3_g27 - 1 x_r3_g33 - 1 x_r3_g34 - 1 x_r3_g36 - 1 x_r3_g56 - 2 x_r3_g65 - 1 x_r3_g72 - 2 x_r3_g77 - 1 x_r3_g79 - 1 x_r3_g111 - 1 x_r3_g113 - 1 x_r3_g121 - 1 x_r3_g124 - 1 x_r3_g125 - 2 x_r3_g145 - 1 x_r3_g154 - 1 x_r3_g165 - 1 p_r0_g4_h1_t3 - 1 p_r0_g7_h4_t3 - 1 p_r0_g17_h14_t3 - 1 p_r0_g20_h17_t3 - 1 p_r0_g23_h20_t3 - 1 p_r0_g25_h22_t3 - 1 p_r0_g26_h23_t3 - 1 p_r0_g28_h25_t3 - 1 p_r0_g35_h32_t3 - 1 p_r0_g37_h34_t3 - 1 p_r0_g70_h67_t3 - 1 p_r0_g87_h84_t3 - 1 p_r0_g121_h118_t3 - 1 p_r1_g11_h8_t3 - 1 p_r1_g38_h35_t3 - 1 p_r1_g62_h59_t3 - 1 p_r1_g67_h64_t3 - 1 p_r1_g83_h80_t3 - 1 p_r1_g93_h90_t3 - 1 p_r1_g96_h93_t3 - 1 p_r1_g110_h107_t3 - 1 p_r1_g111_h108_t3 - 1 p_r1_g113_h110_t3 - 1 p_r1_g114_h111_t3 - 1 p_r1_g117_h114_t3 - 1 p_r1_g146_h143_t3 - 1 p_r1_g157_h154_t3 - 1 p_r2_g67_h64_t3 - 1 p_r2_g70_h67_t3 - 1 p_r2_g73_h70_t3 - 1 p_r2_g77_h74_t3 - 1 p_r2_g80_h77_t3 - 1 p_r2_g98_h95_t3 - 1 p_r2_g110_h107_t3 - 1 p_r2_g139_h136_t3 - 1 p_r2_g142_h139_t3 - 1 p_r2_g152_h149_t3 - 1 p_r2_g155_h152_t3 - 1 p_r2_g158_h155_t3 - 1 p_r2_g162_h159_t3 - 1 p_r2_g165_h162_t3 - 1 p_r3_g11_h8_t3 - 1 p_r3_g16_h13_t3 - 1 p_r3_g18_h15_t3 - 1 p_r3_g19_h16_t3 - 1 p_r3_g36_h33_t3 - 1 p_r3_g56_h53_t3 - 1 p_r3_g94_h91_t3 - 1 p_r3_g106_h103_t3 - 1 p_r3_g124_h121_t3 - 1 p_r3_g128_h125_t3 - 1 p_r3_g147_h144_t3 - 1 p_r3_g162_h159_t3 - 1 p_r3_g165_h162_t3 = -47
 abs_pos_3: d_3 - u_3 <= 0
 abs_neg_3: - d_3 - u_3 <= 0
 max_def_3: u_3 - M <= 0
 cap_3: u_3 <= 2
 lin1_4_0_26: p_r0_g26_h22_t4 - x_r0_g26 <= 0
 lin2_4_0_26: p_r0_g26_h22_t4 - x_r0_g22 <= 0
 lin3_4_0_26: p_r0_g26_h22_t4 - x_r0_g26 - x_r0_g22 >= -1
 lin1_4_0_32: p_r0_g32_h28_t4 - x_r0_g32 <= 0
 lin2_4_0_32: p_r0_g32_h28_t4 - x_r0_g28 <= 0
 lin3_4_0_32: p_r0_g32_h28_t4 - x_r0_g32 - x_r0_g28 >= -1
 lin1_4_0_36: p_r0_g36_h32_t4 - x_r0_g36 <= 0
 lin2_4_0_36: p_r0_g36_h32_t4 - x_r0_g32 <= 0
 lin3_4_0_36: p_r0_g36_h32_t4 - x_r0_g36 - x_r0_g32 >= -1
 lin1_4_0_101: p_r0_g101_h97_t4 - x_r0_g101 <= 0
 lin2_4_0_101: p_r0_g101_h97_t4 - x_r0_g97 <= 0
 lin3_4_0_101: p_r0_g101_h97_t4 - x_r0_g101 - x_r0_g97 >= -1
 lin1_4_1_15: p_r1_g15_h11_t4 - x_r1_g15 <= 0
 lin2_4_1_15: p_r1_g15_h11_t4 - x_r1_g11 <= 0
 lin3_4_1_15: p_r1_g15_h11_t4 - x_r1_g15 - x_r1_g11 >= -1
 lin1_4_1_17: p_r1_g17_h13_t4 - x_r1_g17 <= 0
 lin2_4_1_17: p_r1_g17_h13_t4 - x_r1_g13 <= 0
 lin3_4_1_17: p_r1_g17_h13_t4 - x_r1_g17 - x_r1_g13 >= -1
 lin1_4_1_35: p_r1_g35_h31_t4 - x_r1_g35 <= 0
 lin2_4_1_35: p_r1_g35_h31_t4 - x_r1_g31 <= 0
 lin3_4_1_35: p_r1_g35_h31_t4 - x_r1_g35 - x_r1_g31 >= -1
 lin1_4_1_80: p_r1_g80_h76_t4 - x_r1_g80 <= 0
 lin2_4_1_80: p_r1_g80_h76_t4 - x_r1_g76 <= 0
 lin3_4_1_80: p_r1_g80_h76_t4 - x_r1_g80 - x_r1_g76 >= -1
 lin1_4_1_111: p_r1_g111_h107_t4 - x_r1_g111 <= 0
 lin2_4_1_111: p_r1_g111_h107_t4 - x_r1_g107 <= 0
 lin3_4_1_111: p_r1_g111_h107_t4 - x_r1_g111 - x_r1_g107 >= -1
 lin1_4_1_114: p_r1_g114_h110_t4 - x_r1_g114 <= 0
 lin2_4_1_114: p_r1_g114_h110_t4 - x_r1_g110 <= 0
 lin3_4_1_114: p_r1_g114_h110_t4 - x_r1_g114 - x_r1_g110 >= -1
 lin1_4_1_117: p_r1_g117_h113_t4 - x_r1_g117 <= 0
 lin2_4_1_117: p_r1_g117_h113_t4 - x_r1_g113 <= 0
 lin3_4_1_117: p_r1_g117_h113_t4 - x_r1_g117 - x_r1_g113 >= -1
 lin1_4_1_121: p_r1_g121_h117_t4 - x_r1_g121 <= 0
 lin2_4_1_121: p_r1_g121_h117_t4 - x_r1_g117 <= 0
 lin3_4_1_121: p_r1_g121_h117_t4 - x_r1_g121 - x_r1_g117 >= -1
 lin1_4_1_132: p_r1_g132_h128_t4 - x_r1_g132 <= 0
 lin2_4_1_132: p_r1_g132_h128_t4 - x_r1_g128 <= 0
 lin3_4_1_132: p_r1_g132_h128_t4 - x_r1_g132 - x_r1_g128 >= -1
 lin1_4_1_161: p_r1_g161_h157_t4 - x_r1_g161 <= 0
 lin2_4_1_161: p_r1_g161_h157_t4 - x_r1_g157 <= 0
 lin3_4_1_161: p_r1_g161_h157_t4 - x_r1_g161 - x_r1_g157 >= -1
 lin1_4_2_2: p_r2_g2_h165_t4 - x_r2_g2 <= 0
 lin2_4_2_2: p_r2_g2_h165_t4 - x_r2_g165 <= 0
 lin3_4_2_2: p_r2_g2_h165_t4 - x_r2_g2 - x_r2_g165 >= -1
 lin1_4_2_34: p_r2_g34_h30_t4 - x_r2_g34 <= 0
 lin2_4_2_34: p_r2_g34_h30_t4 - x_r2_g30 <= 0
 lin3_4_2_34: p_r2_g34_h30_t4 - x_r2_g34 - x_r2_g30 >= -1
 lin1_4_2_64: p_r2_g64_h60_t4 - x_r2_g64 <= 0
 lin2_4_2_64: p_r2_g64_h60_t4 - x_r2_g60 <= 0
 lin3_4_2_64: p_r2_g64_h60_t4 - x_r2_g64 - x_r2_g60 >= -1
 lin1_4_2_66: p_r2_g66_h62_t4 - x_r2_g66 <= 0
 lin2_4_2_66: p_r2_g66_h62_t4 - x_r2_g62 <= 0
 lin3_4_2_66: p_r2_g66_h62_t4 - x_r2_g66 - x_r2_g62 >= -1
 lin1_4_2_70: p_r2_g70_h66_t4 - x_r2_g70 <= 0
 lin2_4_2_70: p_r2_g70_h66_t4 - x_r2_g66 <= 0
 lin3_4_2_70: p_r2_g70_h66_t4 - x_r2_g70 - x_r2_g66 >= -1
 lin1_4_2_74: p_r2_g74_h70_t4 - x_r2_g74 <= 0
 lin2_4_2_74: p_r2_g74_h70_t4 - x_r2_g70 <= 0
 lin3_4_2_74: p_r2_g74_h70_t4 - x_r2_g74 - x_r2_g70 >= -1
 lin1_4_2_77: p_r2_g77_h73_t4 - x_r2_g77 <= 0
 lin2_4_2_77: p_r2_g77_h73_t4 - x_r2_g73 <= 0
 lin3_4_2_77: p_r2_g77_h73_t4 - x_r2_g77 - x_r2_g73 >= -1
 lin1_4_2_86: p_r2_g86_h82_t4 - x_r2_g86 <= 0
 lin2_4_2_86: p_r2_g86_h82_t4 - x_r2_g82 <= 0
 lin3_4_2_86: p_r2_g86_h82_t4 - x_r2_g86 - x_r2_g82 >= -1
 lin1_4_2_95: p_r2_g95_h91_t4 - x_r2_g95 <= 0
 lin2_4_2_95: p_r2_g95_h91_t4 - x_r2_g91 <= 0
 lin3_4_2_95: p_r2_g95_h91_t4 - x_r2_g95 - x_r2_g91 >= -1
 lin1_4_2_111: p_r2_g111_h107_t4 - x_r2_g111 <= 0
 lin2_4_2_111: p_r2_g111_h107_t4 - x_r2_g107 <= 0
 lin3_4_2_111: p_r2_g111_h107_t4 - x_r2_g111 - x_r2_g107 >= -1
 lin1_4_2_139: p_r2_g139_h135_t4 - x_r2_g139 <= 0
 lin2_4_2_139: p_r2_g139_h135_t4 - x_r2_g135 <= 0
 lin3_4_2_139: p_r2_g139_h135_t4 - x_r2_g139 - x_r2_g135 >= -1
 lin1_4_2_159: p_r2_g159_h155_t4 - x_r2_g159 <= 0
 lin2_4_2_159: p_r2_g159_h155_t4 - x_r2_g155 <= 0
 lin3_4_2_159: p_r2_g159_h155_t4 - x_r2_g159 - x_r2_g155 >= -1
 lin1_4_2_162: p_r2_g162_h158_t4 - x_r2_g162 <= 0
 lin2_4_2_162: p_r2_g162_h158_t4 - x_r2_g158 <= 0
 lin3_4_2_162: p_r2_g162_h158_t4 - x_r2_g162 - x_r2_g158 >= -1
 lin1_4_2_163: p_r2_g163_h159_t4 - x_r2_g163 <= 0
 lin2_4_2_163: p_r2_g163_h159_t4 - x_r2_g159 <= 0
 lin3_4_2_163: p_r2_g163_h159_t4 - x_r2_g163 - x_r2_g159 >= -1
 lin1_4_3_7: p_r3_g7_h3_t4 - x_r3_g7 <= 0
 lin2_4_3_7: p_r3_g7_h3_t4 - x_r3_g3 <= 0
 lin3_4_3_7: p_r3_g7_h3_t4 - x_r3_g7 - x_r3_g3 >= -1
 lin1_4_3_11: p_r3_g11_h7_t4 - x_r3_g11 <= 0
 lin2_4_3_11: p_r3_g11_h7_t4 - x_r3_g7 <= 0
 lin3_4_3_11: p_r3_g11_h7_t4 - x_r3_g11 - x_r3_g7 >= -1
 lin1_4_3_15: p_r3_g15_h11_t4 - x_r3_g15 <= 0
 lin2_4_3_15: p_r3_g15_h11_t4 - x_r3_g11 <= 0
 lin3_4_3_15: p_r3_g15_h11_t4 - x_r3_g15 - x_r3_g11 >= -1
 lin1_4_3_19: p_r3_g19_h15_t4 - x_r3_g19 <= 0
 lin2_4_3_19: p_r3_g19_h15_t4 - x_r3_g15 <= 0
 lin3_4_3_19: p_r3_g19_h15_t4 - x_r3_g19 - x_r3_g15 >= -1
 lin1_4_3_57: p_r3_g57_h53_t4 - x_r3_g57 <= 0
 lin2_4_3_57: p_r3_g57_h53_t4 - x_r3_g53 <= 0
 lin3_4_3_57: p_r3_g57_h53_t4 - x_r3_g57 - x_r3_g53 >= -1
 lin1_4_3_125: p_r3_g125_h121_t4 - x_r3_g125 <= 0
 lin2_4_3_125: p_r3_g125_h121_t4 - x_r3_g121 <= 0
 lin3_4_3_125: p_r3_g125_h121_t4 - x_r3_g125 - x_r3_g121 >= -1
 lin1_4_3_128: p_r3_g128_h124_t4 - x_r3_g128 <= 0
 lin2_4_3_128: p_r3_g128_h124_t4 - x_r3_g124 <= 0
 lin3_4_3_128: p_r3_g128_h124_t4 - x_r3_g128 - x_r3_g124 >= -1
 defect_4: 1 d_4 - 1 x_r0_g1 - 2 x_r0_g7 - 2 x_r0_g9 - 1 x_r0_g17 - 1 x_r0_g23 - 1 x_r0_g26 - 2 x_r0_g34 - 1 x_r0_g36 - 2 x_r0_g47 - 1 x_r0_g48 - 1 x_r0_g54 - 1 x_r0_g67 - 1 x_r0_g69 - 1 x_r0_g70 - 1 x_r0_g84 - 2 x_r0_g102 - 1 x_r0_g118 - 1 x_r0_g121 - 2 x_r0_g123 - 1 x_r0_g130 - 1 x_r0_g131 - 1 x_r0_g143 - 2 x_r0_g153 - 1 x_r0_g162 - 1 x_r1_g25 - 1 x_r1_g30 - 1 x_r1_g31 - 1 x_r1_g35 - 1 x_r1_g38 - 2 x_r1_g53 - 1 x_r1_g62 - 1 x_r1_g64 - 1 x_r1_g75 - 1 x_r1_g80 - 2 x_r1_g83 - 2 x_r1_g91 - 1 x_r1_g93 - 1 x_r1_g96 - 1 x_r1_g107 - 1 x_r1_g108 - 1 x_r1_g111 - 1 x_r1_g113 - 1 x_r1_g126 - 1 x_r1_g128 - 1 x_r1_g155 - 1 x_r2_g18 - 2 x_r2_g29 - 1 x_r2_g30 - 1 x_r2_g60 - 1 x_r2_g62 - 1 x_r2_g64 - 1 x_r2_g67 - 1 x_r2_g74 - 1 x_r2_g82 - 1 x_r2_g86 - 1 x_r2_g91 - 2 x_r2_g98 - 1 x_r2_g100 - 1 x_r2_g110 - 1 x_r2_g111 - 1 x_r2_g120 - 1 x_r2_g128 - 2 x_r2_g136 - 1 x_r2_g142 - 1 x_r2_g149 - 1 x_r2_g152 - 1 x_r2_g155 - 1 x_r2_g163 - 2 x_r2_g164 - 1 x_r2_g165 - 1 x_r3_g3 - 2 x_r3_g8 - 2 x_r3_g13 - 2 x_r3_g16 - 1 x_r3_g18 - 1 x_r3_g33 - 2 x_r3_g34 - 2 x_r3_g36 - 2 x_r3_g51 - 1 x_r3_g53 - 1 x_r3_g57 - 1 x_r3_g65 - 2 x_r3_g72 - 1 x_r3_g77 - 2 x_r3_g79 - 1 x_r3_g94 - 1 x_r3_g103 - 1 x_r3_g106 - 2 x_r3_g123 - 1 x_r3_g125 - 1 x_r3_g128 - 2 x_r3_g138 - 2 x_r3_g144 - 1 x_r3_g145 - 2 x_r3_g147 - 1 x_r3_g159 - 1 x_r3_g162 - 1 x_r3_g165 - 1 p_r0_g26_h22_t4 - 1 p_r0_g32_h28_t4 - 1 p_r0_g36_h32_t4 - 1 p_r0_g101_h97_t4 - 1 p_r1_g15_h11_t4 - 1 p_r1_g17_h13_t4 - 1 p_r1_g35_h31_t4 - 1 p_r1_g80_h76_t4 - 1 p_r1_g111_h107_t4 - 1 p_r1_g114_h110_t4 - 1 p_r1_g117_h113_t4 - 1 p_r1_g121_h117_t4 - 1 p_r1_g132_h128_t4 - 1 p_r1_g161_h157_t4 - 1 p_r2_g2_h165_t4 - 1 p_r2_g34_h30_t4 - 1 p_r2_g64_h60_t4 - 1 p_r2_g66_h62_t4 - 1 p_r2_g70_h66_t4 - 1 p_r2_g74_h70_t4 - 1 p_r2_g77_h73_t4 - 1 p_r2_g86_h82_t4 - 1 p_r2_g95_h91_t4 - 1 p_r2_g111_h107_t4 - 1 p_r2_g139_h135_t4 - 1 p_r2_g159_h155_t4 - 1 p_r2_g162_h158_t4 - 1 p_r2_g163_h159_t4 - 1 p_r3_g7_h3_t4 - 1 p_r3_g11_h7_t4 - 1 p_r3_g15_h11_t4 - 1 p_r3_g19_h15_t4 - 1 p_r3_g57_h53_t4 - 1 p_r3_g125_h121_t4 - 1 p_r3_g128_h124_t4 = -77
 abs_pos_4: d_4 - u_4 <= 0
 abs_neg_4: - d_4 - u_4 <= 0
 max_def_4: u_4 - M <= 0
 cap_4: u_4 <= 1
 lin1_7_0_14: p_r0_g14_h7_t7 - x_r0_g14 <= 0
 lin2_7_0_14: p_r0_g14_h7_t7 - x_r0_g7 <= 0
 lin3_7_0_14: p_r0_g14_h7_t7 - x_r0_g14 - x_r0_g7 >= -1
 lin1_7_0_32: p_r0_g32_h25_t7 - x_r0_g32 <= 0
 lin2_7_0_32: p_r0_g32_h25_t7 - x_r0_g25 <= 0
 lin3_7_0_32: p_r0_g32_h25_t7 - x_r0_g32 - x_r0_g25 >= -1
 lin1_7_0_35: p_r0_g35_h28_t7 - x_r0_g35 <= 0
 lin2_7_0_35: p_r0_g35_h28_t7 - x_r0_g28 <= 0
 lin3_7_0_35: p_r0_g35_h28_t7 - x_r0_g35 - x_r0_g28 >= -1
 lin1_7_0_54: p_r0_g54_h47_t7 - x_r0_g54 <= 0
 lin2_7_0_54: p_r0_g54_h47_t7 - x_r0_g47 <= 0
 lin3_7_0_54: p_r0_g54_h47_t7 - x_r0_g54 - x_r0_g47 >= -1
 lin1_7_0_67: p_r0_g67_h60_t7 - x_r0_g67 <= 0
 lin2_7_0_67: p_r0_g67_h60_t7 - x_r0_g60 <= 0
 lin3_7_0_67: p_r0_g67_h60_t7 - x_r0_g67 - x_r0_g60 >= -1
 lin1_7_0_130: p_r0_g130_h123_t7 - x_r0_g130 <= 0
 lin2_7_0_130: p_r0_g130_h123_t7 - x_r0_g123 <= 0
 lin3_7_0_130: p_r0_g130_h123_t7 - x_r0_g130 - x_r0_g123 >= -1
 lin1_7_1_15: p_r1_g15_h8_t7 - x_r1_g15 <= 0
 lin2_7_1_15: p_r1_g15_h8_t7 - x_r1_g8 <= 0
 lin3_7_1_15: p_r1_g15_h8_t7 - x_r1_g15 - x_r1_g8 >= -1
 lin1_7_1_38: p_r1_g38_h31_t7 - x_r1_g38 <= 0
 lin2_7_1_38: p_r1_g38_h31_t7 - x_r1_g31 <= 0
 lin3_7_1_38: p_r1_g38_h31_t7 - x_r1_g38 - x_r1_g31 >= -1
 lin1_7_1_83: p_r1_g83_h76_t7 - x_r1_g83 <= 0
 lin2_7_1_83: p_r1_g83_h76_t7 - x_r1_g76 <= 0
 lin3_7_1_83: p_r1_g83_h76_t7 - x_r1_g83 - x_r1_g76 >= -1
 lin1_7_1_90: p_r1_g90_h83_t7 - x_r1_g90 <= 0
 lin2_7_1_90: p_r1_g90_h83_t7 - x_r1_g83 <= 0
 lin3_7_1_90: p_r1_g90_h83_t7 - x_r1_g90 - x_r1_g83 >= -1
 lin1_7_1_114: p_r1_g114_h107_t7 - x_r1_g114 <= 0
 lin2_7_1_114: p_r1_g114_h107_t7 - x_r1_g107 <= 0
 lin3_7_1_114: p_r1_g114_h107_t7 - x_r1_g114 - x_r1_g107 >= -1
 lin1_7_1_117: p_r1_g117_h110_t7 - x_r1_g117 <= 0
 lin2_7_1_117: p_r1_g117_h110_t7 - x_r1_g110 <= 0
 lin3_7_1_117: p_r1_g117_h110_t7 - x_r1_g117 - x_r1_g110 >= -1
 lin1_7_1_121: p_r1_g121_h114_t7 - x_r1_g121 <= 0
 lin2_7_1_121: p_r1_g121_h114_t7 - x_r1_g114 <= 0
 lin3_7_1_121: p_r1_g121_h114_t7 - x_r1_g121 - x_r1_g114 >= -1
 lin1_7_1_128: p_r1_g128_h121_t7 - x_r1_g128 <= 0
 lin2_7_1_128: p_r1_g128_h121_t7 - x_r1_g121 <= 0
 lin3_7_1_128: p_r1_g128_h121_t7 - x_r1_g128 - x_r1_g121 >= -1
 lin1_7_1_161: p_r1_g161_h154_t7 - x_r1_g161 <= 0
 lin2_7_1_161: p_r1_g161_h154_t7 - x_r1_g154 <= 0
 lin3_7_1_161: p_r1_g161_h154_t7 - x_r1_g161 - x_r1_g154 >= -1
 lin1_7_2_2: p_r2_g2_h162_t7 - x_r2_g2 <= 0
 lin2_7_2_2: p_r2_g2_h162_t7 - x_r2_g162 <= 0
 lin3_7_2_2: p_r2_g2_h162_t7 - x_r2_g2 - x_r2_g162 >= -1
 lin1_7_2_67: p_r2_g67_h60_t7 - x_r2_g67 <= 0
 lin2_7_2_67: p_r2_g67_h60_t7 - x_r2_g60 <= 0
 lin3_7_2_67: p_r2_g67_h60_t7 - x_r2_g67 - x_r2_g60 >= -1
 lin1_7_2_73: p_r2_g73_h66_t7 - x_r2_g73 <= 0
 lin2_7_2_73: p_r2_g73_h66_t7 - x_r2_g66 <= 0
 lin3_7_2_73: p_r2_g73_h66_t7 - x_r2_g73 - x_r2_g66 >= -1
 lin1_7_2_74: p_r2_g74_h67_t7 - x_r2_g74 <= 0
 lin2_7_2_74: p_r2_g74_h67_t7 - x_r2_g67 <= 0
 lin3_7_2_74: p_r2_g74_h67_t7 - x_r2_g74 - x_r2_g67 >= -1
 lin1_7_2_77: p_r2_g77_h70_t7 - x_r2_g77 <= 0
 lin2_7_2_77: p_r2_g77_h70_t7 - x_r2_g70 <= 0
 lin3_7_2_77: p_r2_g77_h70_t7 - x_r2_g77 - x_r2_g70 >= -1
 lin1_7_2_80: p_r2_g80_h73_t7 - x_r2_g80 <= 0
 lin2_7_2_80: p_r2_g80_h73_t7 - x_r2_g73 <= 0
 lin3_7_2_80: p_r2_g80_h73_t7 - x_r2_g80 - x_r2_g73 >= -1
 lin1_7_2_98: p_r2_g98_h91_t7 - x_r2_g98 <= 0
 lin2_7_2_98: p_r2_g98_h91_t7 - x_r2_g91 <= 0
 lin3_7_2_98: p_r2_g98_h91_t7 - x_r2_g98 - x_r2_g91 >= -1
 lin1_7_2_107: p_r2_g107_h100_t7 - x_r2_g107 <= 0
 lin2_7_2_107: p_r2_g107_h100_t7 - x_r2_g100 <= 0
 lin3_7_2_107: p_r2_g107_h100_t7 - x_r2_g107 - x_r2_g100 >= -1
 lin1_7_2_135: p_r2_g135_h128_t7 - x_r2_g135 <= 0
 lin2_7_2_135: p_r2_g135_h128_t7 - x_r2_g128 <= 0
 lin3_7_2_135: p_r2_g135_h128_t7 - x_r2_g135 - x_r2_g128 >= -1
 lin1_7_2_142: p_r2_g142_h135_t7 - x_r2_g142 <= 0
 lin2_7_2_142: p_r2_g142_h135_t7 - x_r2_g135 <= 0
 lin3_7_2_142: p_r2_g142_h135_t7 - x_r2_g142 - x_r2_g135 >= -1
 lin1_7_2_149: p_r2_g149_h142_t7 - x_r2_g149 <= 0
 lin2_7_2_149: p_r2_g149_h142_t7 - x_r2_g142 <= 0
 lin3_7_2_149: p_r2_g149_h142_t7 - x_r2_g149 - x_r2_g142 >= -1
 lin1_7_2_159: p_r2_g159_h152_t7 - x_r2_g159 <= 0
 lin2_7_2_159: p_r2_g159_h152_t7 - x_r2_g152 <= 0
 lin3_7_2_159: p_r2_g159_h152_t7 - x_r2_g159 - x_r2_g152 >= -1
 lin1_7_2_162: p_r2_g162_h155_t7 - x_r2_g162 <= 0
 lin2_7_2_162: p_r2_g162_h155_t7 - x_r2_g155 <= 0
 lin3_7_2_162: p_r2_g162_h155_t7 - x_r2_g162 - x_r2_g155 >= -1
 lin1_7_2_165: p_r2_g165_h158_t7 - x_r2_g165 <= 0
 lin2_7_2_165: p_r2_g165_h158_t7 - x_r2_g158 <= 0
 lin3_7_2_165: p_r2_g165_h158_t7 - x_r2_g165 - x_r2_g158 >= -1
 lin1_7_3_15: p_r3_g15_h8_t7 - x_r3_g15 <= 0
 lin2_7_3_15: p_r3_g15_h8_t7 - x_r3_g8 <= 0
 lin3_7_3_15: p_r3_g15_h8_t7 - x_r3_g15 - x_r3_g8 >= -1
 lin1_7_3_18: p_r3_g18_h11_t7 - x_r3_g18 <= 0
 lin2_7_3_18: p_r3_g18_h11_t7 - x_r3_g11 <= 0
 lin3_7_3_18: p_r3_g18_h11_t7 - x_r3_g18 - x_r3_g11 >= -1
 lin1_7_3_34: p_r3_g34_h27_t7 - x_r3_g34 <= 0
 lin2_7_3_34: p_r3_g34_h27_t7 - x_r3_g27 <= 0
 lin3_7_3_34: p_r3_g34_h27_t7 - x_r3_g34 - x_r3_g27 >= -1
 lin1_7_3_72: p_r3_g72_h65_t7 - x_r3_g72 <= 0
 lin2_7_3_72: p_r3_g72_h65_t7 - x_r3_g65 <= 0
 lin3_7_3_72: p_r3_g72_h65_t7 - x_r3_g72 - x_r3_g65 >= -1
 lin1_7_3_79: p_r3_g79_h72_t7 - x_r3_g79 <= 0
 lin2_7_3_79: p_r3_g79_h72_t7 - x_r3_g72 <= 0
 lin3_7_3_79: p_r3_g79_h72_t7 - x_r3_g79 - x_r3_g72 >= -1
 lin1_7_3_113: p_r3_g113_h106_t7 - x_r3_g113 <= 0
 lin2_7_3_113: p_r3_g113_h106_t7 - x_r3_g106 <= 0
 lin3_7_3_113: p_r3_g113_h106_t7 - x_r3_g113 - x_r3_g106 >= -1
 lin1_7_3_128: p_r3_g128_h121_t7 - x_r3_g128 <= 0
 lin2_7_3_128: p_r3_g128_h121_t7 - x_r3_g121 <= 0
 lin3_7_3_128: p_r3_g128_h121_t7 - x_r3_g128 - x_r3_g121 >= -1
 lin1_7_3_145: p_r3_g145_h138_t7 - x_r3_g145 <= 0
 lin2_7_3_145: p_r3_g145_h138_t7 - x_r3_g138 <= 0
 lin3_7_3_145: p_r3_g145_h138_t7 - x_r3_g145 - x_r3_g138 >= -1
 lin1_7_3_154: p_r3_g154_h147_t7 - x_r3_g154 <= 0
 lin2_7_3_154: p_r3_g154_h147_t7 - x_r3_g147 <= 0
 lin3_7_3_154: p_r3_g154_h147_t7 - x_r3_g154 - x_r3_g147 >= -1
 defect_7: 1 d_7 - 1 x_r0_g4 - 1 x_r0_g20 - 1 x_r0_g22 - 1 x_r0_g23 - 1 x_r0_g26 - 1 x_r0_g35 - 1 x_r0_g36 - 1 x_r0_g37 - 1 x_r0_g47 - 1 x_r0_g48 - 1 x_r0_g67 - 1 x_r0_g69 - 2 x_r0_g70 - 1 x_r0_g84 - 1 x_r0_g97 - 1 x_r0_g118 - 1 x_r0_g123 - 1 x_r0_g130 - 1 x_r0_g143 - 2 x_r0_g144 - 2 x_r0_g153 - 1 x_r0_g162 - 1 x_r1_g8 - 1 x_r1_g11 - 1 x_r1_g13 - 1 x_r1_g17 - 2 x_r1_g25 - 1 x_r1_g30 - 1 x_r1_g35 - 1 x_r1_g53 - 1 x_r1_g59 - 1 x_r1_g62 - 1 x_r1_g64 - 2 x_r1_g75 - 1 x_r1_g76 - 1 x_r1_g80 - 2 x_r1_g91 - 1 x_r1_g93 - 2 x_r1_g96 - 1 x_r1_g107 - 1 x_r1_g108 - 1 x_r1_g110 - 1 x_r1_g117 - 1 x_r1_g126 - 1 x_r1_g157 - 1 x_r1_g161 - 1 x_r2_g18 - 2 x_r2_g34 - 1 x_r2_g48 - 1 x_r2_g70 - 1 x_r2_g80 - 1 x_r2_g82 - 1 x_r2_g86 - 1 x_r2_g95 - 1 x_r2_g98 - 1 x_r2_g100 - 1 x_r2_g107 - 1 x_r2_g111 - 1 x_r2_g120 - 1 x_r2_g128 - 1 x_r2_g136 - 2 x_r2_g139 - 1 x_r2_g155 - 1 x_r2_g158 - 2 x_r2_g164 - 1 x_r3_g3 - 1 x_r3_g8 - 1 x_r3_g11 - 2 x_r3_g13 - 1 x_r3_g15 - 1 x_r3_g16 - 2 x_r3_g19 - 1 x_r3_g27 - 2 x_r3_g33 - 1 x_r3_g34 - 1 x_r3_g36 - 1 x_r3_g53 - 1 x_r3_g56 - 1 x_r3_g79 - 1 x_r3_g91 - 1 x_r3_g103 - 1 x_r3_g106 - 1 x_r3_g111 - 2 x_r3_g125 - 2 x_r3_g144 - 1 x_r3_g147 - 1 x_r3_g159 - 1 x_r3_g162 - 1 x_r3_g165 - 1 p_r0_g14_h7_t7 - 1 p_r0_g32_h25_t7 - 1 p_r0_g35_h28_t7 - 1 p_r0_g54_h47_t7 - 1 p_r0_g67_h60_t7 - 1 p_r0_g130_h123_t7 - 1 p_r1_g15_h8_t7 - 1 p_r1_g38_h31_t7 - 1 p_r1_g83_h76_t7 - 1 p_r1_g90_h83_t7 - 1 p_r1_g114_h107_t7 - 1 p_r1_g117_h110_t7 - 1 p_r1_g121_h114_t7 - 1 p_r1_g128_h121_t7 - 1 p_r1_g161_h154_t7 - 1 p_r2_g2_h162_t7 - 1 p_r2_g67_h60_t7 - 1 p_r2_g73_h66_t7 - 1 p_r2_g74_h67_t7 - 1 p_r2_g77_h70_t7 - 1 p_r2_g80_h73_t7 - 1 p_r2_g98_h91_t7 - 1 p_r2_g107_h100_t7 - 1 p_r2_g135_h128_t7 - 1 p_r2_g142_h135_t7 - 1 p_r2_g149_h142_t7 - 1 p_r2_g159_h152_t7 - 1 p_r2_g162_h155_t7 - 1 p_r2_g165_h158_t7 - 1 p_r3_g15_h8_t7 - 1 p_r3_g18_h11_t7 - 1 p_r3_g34_h27_t7 - 1 p_r3_g72_h65_t7 - 1 p_r3_g79_h72_t7 - 1 p_r3_g113_h106_t7 - 1 p_r3_g128_h121_t7 - 1 p_r3_g145_h138_t7 - 1 p_r3_g154_h147_t7 = -56
 abs_pos_7: d_7 - u_7 <= 0
 abs_neg_7: - d_7 - u_7 <= 0
 max_def_7: u_7 - M <= 0
 cap_7: u_7 <= 1
 lin1_9_0_4: p_r0_g4_h162_t9 - x_r0_g4 <= 0
 lin2_9_0_4: p_r0_g4_h162_t9 - x_r0_g162 <= 0
 lin3_9_0_4: p_r0_g4_h162_t9 - x_r0_g4 - x_r0_g162 >= -1
 lin1_9_0_23: p_r0_g23_h14_t9 - x_r0_g23 <= 0
 lin2_9_0_23: p_r0_g23_h14_t9 - x_r0_g14 <= 0
 lin3_9_0_23: p_r0_g23_h14_t9 - x_r0_g23 - x_r0_g14 >= -1
 lin1_9_0_26: p_r0_g26_h17_t9 - x_r0_g26 <= 0
 lin2_9_0_26: p_r0_g26_h17_t9 - x_r0_g17 <= 0
 lin3_9_0_26: p_r0_g26_h17_t9 - x_r0_g26 - x_r0_g17 >= -1
 lin1_9_0_32: p_r0_g32_h23_t9 - x_r0_g32 <= 0
 lin2_9_0_32: p_r0_g32_h23_t9 - x_r0_g23 <= 0
 lin3_9_0_32: p_r0_g32_h23_t9 - x_r0_g32 - x_r0_g23 >= -1
 lin1_9_0_34: p_r0_g34_h25_t9 - x_r0_g34 <= 0
 lin2_9_0_34: p_r0_g34_h25_t9 - x_r0_g25 <= 0
 lin3_9_0_34: p_r0_g34_h25_t9 - x_r0_g34 - x_r0_g25 >= -1
 lin1_9_0_35: p_r0_g35_h26_t9 - x_r0_g35 <= 0
 lin2_9_0_35: p_r0_g35_h26_t9 - x_r0_g26 <= 0
 lin3_9_0_35: p_r0_g35_h26_t9 - x_r0_g35 - x_r0_g26 >= -1
 lin1_9_0_37: p_r0_g37_h28_t9 - x_r0_g37 <= 0
 lin2_9_0_37: p_r0_g37_h28_t9 - x_r0_g28 <= 0
 lin3_9_0_37: p_r0_g37_h28_t9 - x_r0_g37 - x_r0_g28 >= -1
 lin1_9_0_69: p_r0_g69_h60_t9 - x_r0_g69 <= 0
 lin2_9_0_69: p_r0_g69_h60_t9 - x_r0_g60 <= 0
 lin3_9_0_69: p_r0_g69_h60_t9 - x_r0_g69 - x_r0_g60 >= -1
 lin1_9_0_79: p_r0_g79_h70_t9 - x_r0_g79 <= 0
 lin2_9_0_79: p_r0_g79_h70_t9 - x_r0_g70 <= 0
 lin3_9_0_79: p_r0_g79_h70_t9 - x_r0_g79 - x_r0_g70 >= -1
 lin1_9_0_130: p_r0_g130_h121_t9 - x_r0_g130 <= 0
 lin2_9_0_130: p_r0_g130_h121_t9 - x_r0_g121 <= 0
 lin3_9_0_130: p_r0_g130_h121_t9 - x_r0_g130 - x_r0_g121 >= -1
 lin1_9_0_153: p_r0_g153_h144_t9 - x_r0_g153 <= 0
 lin2_9_0_153: p_r0_g153_h144_t9 - x_r0_g144 <= 0
 lin3_9_0_153: p_r0_g153_h144_t9 - x_r0_g153 - x_r0_g144 >= -1
 lin1_9_0_162: p_r0_g162_h153_t9 - x_r0_g162 <= 0
 lin2_9_0_162: p_r0_g162_h153_t9 - x_r0_g153 <= 0
 lin3_9_0_162: p_r0_g162_h153_t9 - x_r0_g162 - x_r0_g153 >= -1
 lin1_9_1_17: p_r1_g17_h8_t9 - x_r1_g17 <= 0
 lin2_9_1_17: p_r1_g17_h8_t9 - x_r1_g8 <= 0
 lin3_9_1_17: p_r1_g17_h8_t9 - x_r1_g17 - x_r1_g8 >= -1
 lin1_9_1_62: p_r1_g62_h53_t9 - x_r1_g62 <= 0
 lin2_9_1_62: p_r1_g62_h53_t9 - x_r1_g53 <= 0
 lin3_9_1_62: p_r1_g62_h53_t9 - x_r1_g62 - x_r1_g53 >= -1
 lin1_9_1_76: p_r1_g76_h67_t9 - x_r1_g76 <= 0
 lin2_9_1_76: p_r1_g76_h67_t9 - x_r1_g67 <= 0
 lin3_9_1_76: p_r1_g76_h67_t9 - x_r1_g76 - x_r1_g67 >= -1
 lin1_9_1_117: p_r1_g117_h108_t9 - x_r1_g117 <= 0
 lin2_9_1_117: p_r1_g117_h108_t9 - x_r1_g108 <= 0
 lin3_9_1_117: p_r1_g117_h108_t9 - x_r1_g117 - x_r1_g108 >= -1
 lin1_9_1_126: p_r1_g126_h117_t9 - x_r1_g126 <= 0
 lin2_9_1_126: p_r1_g126_h117_t9 - x_r1_g117 <= 0
 lin3_9_1_126: p_r1_g126_h117_t9 - x_r1_g126 - x_r1_g117 >= -1
 lin1_9_1_155: p_r1_g155_h146_t9 - x_r1_g155 <= 0
 lin2_9_1_155: p_r1_g155_h146_t9 - x_r1_g146 <= 0
 lin3_9_1_155: p_r1_g155_h146_t9 - x_r1_g155 - x_r1_g146 >= -1
 lin1_9_2_73: p_r2_g73_h64_t9 - x_r2_g73 <= 0
 lin2_9_2_73: p_r2_g73_h64_t9 - x_r2_g64 <= 0
 lin3_9_2_73: p_r2_g73_h64_t9 - x_r2_g73 - x_r2_g64 >= -1
 lin1_9_2_82: p_r2_g82_h73_t9 - x_r2_g82 <= 0
 lin2_9_2_82: p_r2_g82_h73_t9 - x_r2_g73 <= 0
 lin3_9_2_82: p_r2_g82_h73_t9 - x_r2_g82 - x_r2_g73 >= -1
 lin1_9_2_86: p_r2_g86_h77_t9 - x_r2_g86 <= 0
 lin2_9_2_86: p_r2_g86_h77_t9 - x_r2_g77 <= 0
 lin3_9_2_86: p_r2_g86_h77_t9 - x_r2_g86 - x_r2_g77 >= -1
 lin1_9_2_91: p_r2_g91_h82_t9 - x_r2_g91 <= 0
 lin2_9_2_91: p_r2_g91_h82_t9 - x_r2_g82 <= 0
 lin3_9_2_91: p_r2_g91_h82_t9 - x_r2_g91 - x_r2_g82 >= -1
 lin1_9_2_95: p_r2_g95_h86_t9 - x_r2_g95 <= 0
 lin2_9_2_95: p_r2_g95_h86_t9 - x_r2_g86 <= 0
 lin3_9_2_95: p_r2_g95_h86_t9 - x_r2_g95 - x_r2_g86 >= -1
 lin1_9_2_100: p_r2_g100_h91_t9 - x_r2_g100 <= 0
 lin2_9_2_100: p_r2_g100_h91_t9 - x_r2_g91 <= 0
 lin3_9_2_100: p_r2_g100_h91_t9 - x_r2_g100 - x_r2_g91 >= -1
 lin1_9_2_107: p_r2_g107_h98_t9 - x_r2_g107 <= 0
 lin2_9_2_107: p_r2_g107_h98_t9 - x_r2_g98 <= 0
 lin3_9_2_107: p_r2_g107_h98_t9 - x_r2_g107 - x_r2_g98 >= -1
 lin1_9_2_120: p_r2_g120_h111_t9 - x_r2_g120 <= 0
 lin2_9_2_120: p_r2_g120_h111_t9 - x_r2_g111 <= 0
 lin3_9_2_120: p_r2_g120_h111_t9 - x_r2_g120 - x_r2_g111 >= -1
 lin1_9_2_158: p_r2_g158_h149_t9 - x_r2_g158 <= 0
 lin2_9_2_158: p_r2_g158_h149_t9 - x_r2_g149 <= 0
 lin3_9_2_158: p_r2_g158_h149_t9 - x_r2_g158 - x_r2_g149 >= -1
 lin1_9_2_164: p_r2_g164_h155_t9 - x_r2_g164 <= 0
 lin2_9_2_164: p_r2_g164_h155_t9 - x_r2_g155 <= 0
 lin3_9_2_164: p_r2_g164_h155_t9 - x_r2_g164 - x_r2_g155 >= -1
 lin1_9_3_7: p_r3_g7_h165_t9 - x_r3_g7 <= 0
 lin2_9_3_7: p_r3_g7_h165_t9 - x_r3_g165 <= 0
 lin3_9_3_7: p_r3_g7_h165_t9 - x_r3_g7 - x_r3_g165 >= -1
 lin1_9_3_16: p_r3_g16_h7_t9 - x_r3_g16 <= 0
 lin2_9_3_16: p_r3_g16_h7_t9 - x_r3_g7 <= 0
 lin3_9_3_16: p_r3_g16_h7_t9 - x_r3_g16 - x_r3_g7 >= -1
 lin1_9_3_27: p_r3_g27_h18_t9 - x_r3_g27 <= 0
 lin2_9_3_27: p_r3_g27_h18_t9 - x_r3_g18 <= 0
 lin3_9_3_27: p_r3_g27_h18_t9 - x_r3_g27 - x_r3_g18 >= -1
 lin1_9_3_36: p_r3_g36_h27_t9 - x_r3_g36 <= 0
 lin2_9_3_36: p_r3_g36_h27_t9 - x_r3_g27 <= 0
 lin3_9_3_36: p_r3_g36_h27_t9 - x_r3_g36 - x_r3_g27 >= -1
 lin1_9_3_65: p_r3_g65_h56_t9 - x_r3_g65 <= 0
 lin2_9_3_65: p_r3_g65_h56_t9 - x_r3_g56 <= 0
 lin3_9_3_65: p_r3_g65_h56_t9 - x_r3_g65 - x_r3_g56 >= -1
 lin1_9_3_103: p_r3_g103_h94_t9 - x_r3_g103 <= 0
 lin2_9_3_103: p_r3_g103_h94_t9 - x_r3_g94 <= 0
 lin3_9_3_103: p_r3_g103_h94_t9 - x_r3_g103 - x_r3_g94 >= -1
 lin1_9_3_147: p_r3_g147_h138_t9 - x_r3_g147 <= 0
 lin2_9_3_147: p_r3_g147_h138_t9 - x_r3_g138 <= 0
 lin3_9_3_147: p_r3_g147_h138_t9 - x_r3_g147 - x_r3_g138 >= -1
 lin1_9_3_154: p_r3_g154_h145_t9 - x_r3_g154 <= 0
 lin2_9_3_154: p_r3_g154_h145_t9 - x_r3_g145 <= 0
 lin3_9_3_154: p_r3_g154_h145_t9 - x_r3_g154 - x_r3_g145 >= -1
 defect_9: 1 d_9 - 1 x_r0_g1 - 1 x_r0_g4 - 1 x_r0_g7 - 1 x_r0_g14 - 1 x_r0_g20 - 1 x_r0_g22 - 1 x_r0_g28 - 1 x_r0_g34 - 1 x_r0_g36 - 1 x_r0_g47 - 2 x_r0_g54 - 1 x_r0_g60 - 1 x_r0_g67 - 2 x_r0_g68 - 1 x_r0_g79 - 2 x_r0_g97 - 1 x_r0_g118 - 1 x_r0_g123 - 1 x_r0_g130 - 1 x_r0_g131 - 1 x_r0_g143 - 1 x_r1_g8 - 1 x_r1_g11 - 1 x_r1_g17 - 1 x_r1_g25 - 1 x_r1_g30 - 1 x_r1_g31 - 2 x_r1_g35 - 1 x_r1_g38 - 1 x_r1_g53 - 1 x_r1_g59 - 2 x_r1_g75 - 1 x_r1_g80 - 1 x_r1_g90 - 2 x_r1_g91 - 1 x_r1_g93 - 1 x_r1_g96 - 2 x_r1_g107 - 1 x_r1_g110 - 1 x_r1_g114 - 2 x_r1_g121 - 1 x_r1_g128 - 2 x_r1_g132 - 1 x_r1_g154 - 1 x_r1_g155 - 1 x_r1_g157 - 1 x_r1_g161 - 1 x_r2_g2 - 1 x_r2_g18 - 1 x_r2_g29 - 2 x_r2_g30 - 2 x_r2_g34 - 1 x_r2_g48 - 1 x_r2_g66 - 1 x_r2_g67 - 1 x_r2_g70 - 2 x_r2_g74 - 1 x_r2_g77 - 1 x_r2_g95 - 1 x_r2_g107 - 2 x_r2_g110 - 1 x_r2_g111 - 1 x_r2_g120 - 2 x_r2_g128 - 1 x_r2_g135 - 2 x_r2_g139 - 1 x_r2_g142 - 1 x_r2_g149 - 1 x_r2_g152 - 1 x_r2_g155 - 1 x_r2_g158 - 2 x_r2_g159 - 2 x_r2_g162 - 1 x_r2_g165 - 1 x_r3_g3 - 2 x_r3_g8 - 2 x_r3_g11 - 2 x_r3_g13 - 1 x_r3_g15 - 1 x_r3_g18 - 1 x_r3_g19 - 1 x_r3_g34 - 1 x_r3_g36 - 1 x_r3_g53 - 1 x_r3_g56 - 1 x_r3_g57 - 1 x_r3_g65 - 1 x_r3_g72 - 2 x_r3_g77 - 1 x_r3_g103 - 1 x_r3_g113 - 1 x_r3_g121 - 1 x_r3_g123 - 1 x_r3_g125 - 2 x_r3_g128 - 1 x_r3_g138 - 1 x_r3_g154 - 1 x_r3_g159 - 1 x_r3_g162 - 1 p_r0_g4_h162_t9 - 1 p_r0_g23_h14_t9 - 1 p_r0_g26_h17_t9 - 1 p_r0_g32_h23_t9 - 1 p_r0_g34_h25_t9 - 1 p_r0_g35_h26_t9 - 1 p_r0_g37_h28_t9 - 1 p_r0_g69_h60_t9 - 1 p_r0_g79_h70_t9 - 1 p_r0_g130_h121_t9 - 1 p_r0_g153_h144_t9 - 1 p_r0_g162_h153_t9 - 1 p_r1_g17_h8_t9 - 1 p_r1_g62_h53_t9 - 1 p_r1_g76_h67_t9 - 1 p_r1_g117_h108_t9 - 1 p_r1_g126_h117_t9 - 1 p_r1_g155_h146_t9 - 1 p_r2_g73_h64_t9 - 1 p_r2_g82_h73_t9 - 1 p_r2_g86_h77_t9 - 1 p_r2_g91_h82_t9 - 1 p_r2_g95_h86_t9 - 1 p_r2_g100_h91_t9 - 1 p_r2_g107_h98_t9 - 1 p_r2_g120_h111_t9 - 1 p_r2_g158_h149_t9 - 1 p_r2_g164_h155_t9 - 1 p_r3_g7_h165_t9 - 1 p_r3_g16_h7_t9 - 1 p_r3_g27_h18_t9 - 1 p_r3_g36_h27_t9 - 1 p_r3_g65_h56_t9 - 1 p_r3_g103_h94_t9 - 1 p_r3_g147_h138_t9 - 1 p_r3_g154_h145_t9 = -75
 abs_pos_9: d_9 - u_9 <= 0
 abs_neg_9: - d_9 - u_9 <= 0
 max_def_9: u_9 - M <= 0
 cap_9: u_9 <= 1
 lin1_10_0_14: p_r0_g14_h4_t10 - x_r0_g14 <= 0
 lin2_10_0_14: p_r0_g14_h4_t10 - x_r0_g4 <= 0
 lin3_10_0_14: p_r0_g14_h4_t10 - x_r0_g14 - x_r0_g4 >= -1
 lin1_10_0_17: p_r0_g17_h7_t10 - x_r0_g17 <= 0
 lin2_10_0_17: p_r0_g17_h7_t10 - x_r0_g7 <= 0
 lin3_10_0_17: p_r0_g17_h7_t10 - x_r0_g17 - x_r0_g7 >= -1
 lin1_10_0_32: p_r0_g32_h22_t10 - x_r0_g32 <= 0
 lin2_10_0_32: p_r0_g32_h22_t10 - x_r0_g22 <= 0
 lin3_10_0_32: p_r0_g32_h22_t10 - x_r0_g32 - x_r0_g22 >= -1
 lin1_10_0_35: p_r0_g35_h25_t10 - x_r0_g35 <= 0
 lin2_10_0_35: p_r0_g35_h25_t10 - x_r0_g25 <= 0
 lin3_10_0_35: p_r0_g35_h25_t10 - x_r0_g35 - x_r0_g25 >= -1
 lin1_10_0_36: p_r0_g36_h26_t10 - x_r0_g36 <= 0
 lin2_10_0_36: p_r0_g36_h26_t10 - x_r0_g26 <= 0
 lin3_10_0_36: p_r0_g36_h26_t10 - x_r0_g36 - x_r0_g26 >= -1
 lin1_10_0_47: p_r0_g47_h37_t10 - x_r0_g47 <= 0
 lin2_10_0_47: p_r0_g47_h37_t10 - x_r0_g37 <= 0
 lin3_10_0_47: p_r0_g47_h37_t10 - x_r0_g47 - x_r0_g37 >= -1
 lin1_10_0_70: p_r0_g70_h60_t10 - x_r0_g70 <= 0
 lin2_10_0_70: p_r0_g70_h60_t10 - x_r0_g60 <= 0
 lin3_10_0_70: p_r0_g70_h60_t10 - x_r0_g70 - x_r0_g60 >= -1
 lin1_10_0_79: p_r0_g79_h69_t10 - x_r0_g79 <= 0
 lin2_10_0_79: p_r0_g79_h69_t10 - x_r0_g69 <= 0
 lin3_10_0_79: p_r0_g79_h69_t10 - x_r0_g79 - x_r0_g69 >= -1
 lin1_10_0_97: p_r0_g97_h87_t10 - x_r0_g97 <= 0
 lin2_10_0_97: p_r0_g97_h87_t10 - x_r0_g87 <= 0
 lin3_10_0_97: p_r0_g97_h87_t10 - x_r0_g97 - x_r0_g87 >= -1
 lin1_10_0_131: p_r0_g131_h121_t10 - x_r0_g131 <= 0
 lin2_10_0_131: p_r0_g131_h121_t10 - x_r0_g121 <= 0
 lin3_10_0_131: p_r0_g131_h121_t10 - x_r0_g131 - x_r0_g121 >= -1
 lin1_10_0_153: p_r0_g153_h143_t10 - x_r0_g153 <= 0
 lin2_10_0_153: p_r0_g153_h143_t10 - x_r0_g143 <= 0
 lin3_10_0_153: p_r0_g153_h143_t10 - x_r0_g153 - x_r0_g143 >= -1
 lin1_10_1_25: p_r1_g25_h15_t10 - x_r1_g25 <= 0
 lin2_10_1_25: p_r1_g25_h15_t10 - x_r1_g15 <= 0
 lin3_10_1_25: p_r1_g25_h15_t10 - x_r1_g25 - x_r1_g15 >= -1
 lin1_10_1_35: p_r1_g35_h25_t10 - x_r1_g35 <= 0
 lin2_10_1_35: p_r1_g35_h25_t10 - x_r1_g25 <= 0
 lin3_10_1_35: p_r1_g35_h25_t10 - x_r1_g35 - x_r1_g25 >= -1
 lin1_10_1_90: p_r1_g90_h80_t10 - x_r1_g90 <= 0
 lin2_10_1_90: p_r1_g90_h80_t10 - x_r1_g80 <= 0
 lin3_10_1_90: p_r1_g90_h80_t10 - x_r1_g90 - x_r1_g80 >= -1
 lin1_10_1_93: p_r1_g93_h83_t10 - x_r1_g93 <= 0
 lin2_10_1_93: p_r1_g93_h83_t10 - x_r1_g83 <= 0
 lin3_10_1_93: p_r1_g93_h83_t10 - x_r1_g93 - x_r1_g83 >= -1
 lin1_10_1_117: p_r1_g117_h107_t10 - x_r1_g117 <= 0
 lin2_10_1_117: p_r1_g117_h107_t10 - x_r1_g107 <= 0
 lin3_10_1_117: p_r1_g117_h107_t10 - x_r1_g117 - x_r1_g107 >= -1
 lin1_10_1_121: p_r1_g121_h111_t10 - x_r1_g121 <= 0
 lin2_10_1_121: p_r1_g121_h111_t10 - x_r1_g111 <= 0
 lin3_10_1_121: p_r1_g121_h111_t10 - x_r1_g121 - x_r1_g111 >= -1
 lin1_10_2_2: p_r2_g2_h159_t10 - x_r2_g2 <= 0
 lin2_10_2_2: p_r2_g2_h159_t10 - x_r2_g159 <= 0
 lin3_10_2_2: p_r2_g2_h159_t10 - x_r2_g2 - x_r2_g159 >= -1
 lin1_10_2_70: p_r2_g70_h60_t10 - x_r2_g70 <= 0
 lin2_10_2_70: p_r2_g70_h60_t10 - x_r2_g60 <= 0
 lin3_10_2_70: p_r2_g70_h60_t10 - x_r2_g70 - x_r2_g60 >= -1
 lin1_10_2_74: p_r2_g74_h64_t10 - x_r2_g74 <= 0
 lin2_10_2_74: p_r2_g74_h64_t10 - x_r2_g64 <= 0
 lin3_10_2_74: p_r2_g74_h64_t10 - x_r2_g74 - x_r2_g64 >= -1
 lin1_10_2_77: p_r2_g77_h67_t10 - x_r2_g77 <= 0
 lin2_10_2_77: p_r2_g77_h67_t10 - x_r2_g67 <= 0
 lin3_10_2_77: p_r2_g77_h67_t10 - x_r2_g77 - x_r2_g67 >= -1
 lin1_10_2_80: p_r2_g80_h70_t10 - x_r2_g80 <= 0
 lin2_10_2_80: p_r2_g80_h70_t10 - x_r2_g70 <= 0
 lin3_10_2_80: p_r2_g80_h70_t10 - x_r2_g80 - x_r2_g70 >= -1
 lin1_10_2_110: p_r2_g110_h100_t10 - x_r2_g110 <= 0
 lin2_10_2_110: p_r2_g110_h100_t10 - x_r2_g100 <= 0
 lin3_10_2_110: p_r2_g110_h100_t10 - x_r2_g110 - x_r2_g100 >= -1
 lin1_10_2_120: p_r2_g120_h110_t10 - x_r2_g120 <= 0
 lin2_10_2_120: p_r2_g120_h110_t10 - x_r2_g110 <= 0
 lin3_10_2_120: p_r2_g120_h110_t10 - x_r2_g120 - x_r2_g110 >= -1
 lin1_10_2_149: p_r2_g149_h139_t10 - x_r2_g149 <= 0
 lin2_10_2_149: p_r2_g149_h139_t10 - x_r2_g139 <= 0
 lin3_10_2_149: p_r2_g149_h139_t10 - x_r2_g149 - x_r2_g139 >= -1
 lin1_10_2_152: p_r2_g152_h142_t10 - x_r2_g152 <= 0
 lin2_10_2_152: p_r2_g152_h142_t10 - x_r2_g142 <= 0
 lin3_10_2_152: p_r2_g152_h142_t10 - x_r2_g152 - x_r2_g142 >= -1
 lin1_10_2_159: p_r2_g159_h149_t10 - x_r2_g159 <= 0
 lin2_10_2_159: p_r2_g159_h149_t10 - x_r2_g149 <= 0
 lin3_10_2_159: p_r2_g159_h149_t10 - x_r2_g159 - x_r2_g149 >= -1
 lin1_10_2_162: p_r2_g162_h152_t10 - x_r2_g162 <= 0
 lin2_10_2_162: p_r2_g162_h152_t10 - x_r2_g152 <= 0
 lin3_10_2_162: p_r2_g162_h152_t10 - x_r2_g162 - x_r2_g152 >= -1
 lin1_10_2_165: p_r2_g165_h155_t10 - x_r2_g165 <= 0
 lin2_10_2_165: p_r2_g165_h155_t10 - x_r2_g155 <= 0
 lin3_10_2_165: p_r2_g165_h155_t10 - x_r2_g165 - x_r2_g155 >= -1
 lin1_10_3_8: p_r3_g8_h165_t10 - x_r3_g8 <= 0
 lin2_10_3_8: p_r3_g8_h165_t10 - x_r3_g165 <= 0
 lin3_10_3_8: p_r3_g8_h165_t10 - x_r3_g8 - x_r3_g165 >= -1
 lin1_10_3_13: p_r3_g13_h3_t10 - x_r3_g13 <= 0
 lin2_10_3_13: p_r3_g13_h3_t10 - x_r3_g3 <= 0
 lin3_10_3_13: p_r3_g13_h3_t10 - x_r3_g13 - x_r3_g3 >= -1
 lin1_10_3_18: p_r3_g18_h8_t10 - x_r3_g18 <= 0
 lin2_10_3_18: p_r3_g18_h8_t10 - x_r3_g8 <= 0
 lin3_10_3_18: p_r3_g18_h8_t10 - x_r3_g18 - x_r3_g8 >= -1
 lin1_10_3_113: p_r3_g113_h103_t10 - x_r3_g113 <= 0
 lin2_10_3_113: p_r3_g113_h103_t10 - x_r3_g103 <= 0
 lin3_10_3_113: p_r3_g113_h103_t10 - x_r3_g113 - x_r3_g103 >= -1
 lin1_10_3_121: p_r3_g121_h111_t10 - x_r3_g121 <= 0
 lin2_10_3_121: p_r3_g121_h111_t10 - x_r3_g111 <= 0
 lin3_10_3_121: p_r3_g121_h111_t10 - x_r3_g121 - x_r3_g111 >= -1
 lin1_10_3_123: p_r3_g123_h113_t10 - x_r3_g123 <= 0
 lin2_10_3_123: p_r3_g123_h113_t10 - x_r3_g113 <= 0
 lin3_10_3_123: p_r3_g123_h113_t10 - x_r3_g123 - x_r3_g113 >= -1
 lin1_10_3_138: p_r3_g138_h128_t10 - x_r3_g138 <= 0
 lin2_10_3_138: p_r3_g138_h128_t10 - x_r3_g128 <= 0
 lin3_10_3_138: p_r3_g138_h128_t10 - x_r3_g138 - x_r3_g128 >= -1
 lin1_10_3_154: p_r3_g154_h144_t10 - x_r3_g154 <= 0
 lin2_10_3_154: p_r3_g154_h144_t10 - x_r3_g144 <= 0
 lin3_10_3_154: p_r3_g154_h144_t10 - x_r3_g154 - x_r3_g144 >= -1
 defect_10: 1 d_10 - 2 x_r0_g1 - 1 x_r0_g9 - 1 x_r0_g20 - 1 x_r0_g22 - 1 x_r0_g23 - 1 x_r0_g25 - 1 x_r0_g28 - 1 x_r0_g32 - 1 x_r0_g35 - 2 x_r0_g48 - 1 x_r0_g67 - 1 x_r0_g68 - 1 x_r0_g69 - 1 x_r0_g84 - 1 x_r0_g87 - 1 x_r0_g123 - 1 x_r0_g130 - 1 x_r0_g153 - 2 x_r0_g162 - 1 x_r1_g8 - 1 x_r1_g11 - 1 x_r1_g13 - 1 x_r1_g17 - 2 x_r1_g30 - 2 x_r1_g59 - 1 x_r1_g67 - 1 x_r1_g75 - 1 x_r1_g76 - 1 x_r1_g80 - 1 x_r1_g90 - 1 x_r1_g91 - 1 x_r1_g93 - 1 x_r1_g108 - 1 x_r1_g110 - 2 x_r1_g113 - 1 x_r1_g114 - 1 x_r1_g117 - 1 x_r1_g126 - 1 x_r1_g128 - 1 x_r1_g146 - 1 x_r1_g154 - 1 x_r2_g18 - 1 x_r2_g29 - 1 x_r2_g30 - 1 x_r2_g48 - 1 x_r2_g66 - 2 x_r2_g73 - 1 x_r2_g77 - 1 x_r2_g80 - 1 x_r2_g91 - 2 x_r2_g95 - 1 x_r2_g100 - 2 x_r2_g111 - 1 x_r2_g120 - 2 x_r2_g136 - 1 x_r2_g139 - 1 x_r2_g142 - 2 x_r2_g158 - 1 x_r2_g163 - 1 x_r2_g164 - 1 x_r3_g3 - 1 x_r3_g7 - 1 x_r3_g11 - 1 x_r3_g15 - 2 x_r3_g16 - 1 x_r3_g18 - 1 x_r3_g19 - 2 x_r3_g27 - 1 x_r3_g33 - 2 x_r3_g36 - 2 x_r3_g51 - 1 x_r3_g53 - 2 x_r3_g56 - 1 x_r3_g57 - 2 x_r3_g65 - 1 x_r3_g72 - 1 x_r3_g79 - 1 x_r3_g91 - 1 x_r3_g124 - 1 x_r3_g128 - 1 x_r3_g138 - 1 x_r3_g144 - 1 x_r3_g147 - 2 x_r3_g159 - 1 x_r3_g162 - 1 p_r0_g14_h4_t10 - 1 p_r0_g17_h7_t10 - 1 p_r0_g32_h22_t10 - 1 p_r0_g35_h25_t10 - 1 p_r0_g36_h26_t10 - 1 p_r0_g47_h37_t10 - 1 p_r0_g70_h60_t10 - 1 p_r0_g79_h69_t10 - 1 p_r0_g97_h87_t10 - 1 p_r0_g131_h121_t10 - 1 p_r0_g153_h143_t10 - 1 p_r1_g25_h15_t10 - 1 p_r1_g35_h25_t10 - 1 p_r1_g90_h80_t10 - 1 p_r1_g93_h83_t10 - 1 p_r1_g117_h107_t10 - 1 p_r1_g121_h111_t10 - 1 p_r2_g2_h159_t10 - 1 p_r2_g70_h60_t10 - 1 p_r2_g74_h64_t10 - 1 p_r2_g77_h67_t10 - 1 p_r2_g80_h70_t10 - 1 p_r2_g110_h100_t10 - 1 p_r2_g120_h110_t10 - 1 p_r2_g149_h139_t10 - 1 p_r2_g152_h142_t10 - 1 p_r2_g159_h149_t10 - 1 p_r2_g162_h152_t10 - 1 p_r2_g165_h155_t10 - 1 p_r3_g8_h165_t10 - 1 p_r3_g13_h3_t10 - 1 p_r3_g18_h8_t10 - 1 p_r3_g113_h103_t10 - 1 p_r3_g121_h111_t10 - 1 p_r3_g123_h113_t10 - 1 p_r3_g138_h128_t10 - 1 p_r3_g154_h144_t10 = -51
 abs_pos_10: d_10 - u_10 <= 0
 abs_neg_10: - d_10 - u_10 <= 0
 max_def_10: u_10 - M <= 0
 cap_10: u_10 <= 1
 lin1_12_0_7: p_r0_g7_h162_t12 - x_r0_g7 <= 0
 lin2_12_0_7: p_r0_g7_h162_t12 - x_r0_g162 <= 0
 lin3_12_0_7: p_r0_g7_h162_t12 - x_r0_g7 - x_r0_g162 >= -1
 lin1_12_0_26: p_r0_g26_h14_t12 - x_r0_g26 <= 0
 lin2_12_0_26: p_r0_g26_h14_t12 - x_r0_g14 <= 0
 lin3_12_0_26: p_r0_g26_h14_t12 - x_r0_g26 - x_r0_g14 >= -1
 lin1_12_0_32: p_r0_g32_h20_t12 - x_r0_g32 <= 0
 lin2_12_0_32: p_r0_g32_h20_t12 - x_r0_g20 <= 0
 lin3_12_0_32: p_r0_g32_h20_t12 - x_r0_g32 - x_r0_g20 >= -1
 lin1_12_0_34: p_r0_g34_h22_t12 - x_r0_g34 <= 0
 lin2_12_0_34: p_r0_g34_h22_t12 - x_r0_g22 <= 0
 lin3_12_0_34: p_r0_g34_h22_t12 - x_r0_g34 - x_r0_g22 >= -1
 lin1_12_0_35: p_r0_g35_h23_t12 - x_r0_g35 <= 0
 lin2_12_0_35: p_r0_g35_h23_t12 - x_r0_g23 <= 0
 lin3_12_0_35: p_r0_g35_h23_t12 - x_r0_g35 - x_r0_g23 >= -1
 lin1_12_0_37: p_r0_g37_h25_t12 - x_r0_g37 <= 0
 lin2_12_0_37: p_r0_g37_h25_t12 - x_r0_g25 <= 0
 lin3_12_0_37: p_r0_g37_h25_t12 - x_r0_g37 - x_r0_g25 >= -1
 lin1_12_0_47: p_r0_g47_h35_t12 - x_r0_g47 <= 0
 lin2_12_0_47: p_r0_g47_h35_t12 - x_r0_g35 <= 0
 lin3_12_0_47: p_r0_g47_h35_t12 - x_r0_g47 - x_r0_g35 >= -1
 lin1_12_0_48: p_r0_g48_h36_t12 - x_r0_g48 <= 0
 lin2_12_0_48: p_r0_g48_h36_t12 - x_r0_g36 <= 0
 lin3_12_0_48: p_r0_g48_h36_t12 - x_r0_g48 - x_r0_g36 >= -1
 lin1_12_0_60: p_r0_g60_h48_t12 - x_r0_g60 <= 0
 lin2_12_0_60: p_r0_g60_h48_t12 - x_r0_g48 <= 0
 lin3_12_0_60: p_r0_g60_h48_t12 - x_r0_g60 - x_r0_g48 >= -1
 lin1_12_0_79: p_r0_g79_h67_t12 - x_r0_g79 <= 0
 lin2_12_0_79: p_r0_g79_h67_t12 - x_r0_g67 <= 0
 lin3_12_0_79: p_r0_g79_h67_t12 - x_r0_g79 - x_r0_g67 >= -1
 lin1_12_0_130: p_r0_g130_h118_t12 - x_r0_g130 <= 0
 lin2_12_0_130: p_r0_g130_h118_t12 - x_r0_g118 <= 0
 lin3_12_0_130: p_r0_g130_h118_t12 - x_r0_g130 - x_r0_g118 >= -1
 lin1_12_0_143: p_r0_g143_h131_t12 - x_r0_g143 <= 0
 lin2_12_0_143: p_r0_g143_h131_t12 - x_r0_g131 <= 0
 lin3_12_0_143: p_r0_g143_h131_t12 - x_r0_g143 - x_r0_g131 >= -1
 lin1_12_1_25: p_r1_g25_h13_t12 - x_r1_g25 <= 0
 lin2_12_1_25: p_r1_g25_h13_t12 - x_r1_g13 <= 0
 lin3_12_1_25: p_r1_g25_h13_t12 - x_r1_g25 - x_r1_g13 >= -1
 lin1_12_1_76: p_r1_g76_h64_t12 - x_r1_g76 <= 0
 lin2_12_1_76: p_r1_g76_h64_t12 - x_r1_g64 <= 0
 lin3_12_1_76: p_r1_g76_h64_t12 - x_r1_g76 - x_r1_g64 >= -1
 lin1_12_1_108: p_r1_g108_h96_t12 - x_r1_g108 <= 0
 lin2_12_1_108: p_r1_g108_h96_t12 - x_r1_g96 <= 0
 lin3_12_1_108: p_r1_g108_h96_t12 - x_r1_g108 - x_r1_g96 >= -1
 lin1_12_1_126: p_r1_g126_h114_t12 - x_r1_g126 <= 0
 lin2_12_1_126: p_r1_g126_h114_t12 - x_r1_g114 <= 0
 lin3_12_1_126: p_r1_g126_h114_t12 - x_r1_g126 - x_r1_g114 >= -1
 lin1_12_1_155: p_r1_g155_h143_t12 - x_r1_g155 <= 0
 lin2_12_1_155: p_r1_g155_h143_t12 - x_r1_g143 <= 0
 lin3_12_1_155: p_r1_g155_h143_t12 - x_r1_g155 - x_r1_g143 >= -1
 lin1_12_2_30: p_r2_g30_h18_t12 - x_r2_g30 <= 0
 lin2_12_2_30: p_r2_g30_h18_t12 - x_r2_g18 <= 0
 lin3_12_2_30: p_r2_g30_h18_t12 - x_r2_g30 - x_r2_g18 >= -1
 lin1_12_2_60: p_r2_g60_h48_t12 - x_r2_g60 <= 0
 lin2_12_2_60: p_r2_g60_h48_t12 - x_r2_g48 <= 0
 lin3_12_2_60: p_r2_g60_h48_t12 - x_r2_g60 - x_r2_g48 >= -1
 lin1_12_2_74: p_r2_g74_h62_t12 - x_r2_g74 <= 0
 lin2_12_2_74: p_r2_g74_h62_t12 - x_r2_g62 <= 0
 lin3_12_2_74: p_r2_g74_h62_t12 - x_r2_g74 - x_r2_g62 >= -1
 lin1_12_2_82: p_r2_g82_h70_t12 - x_r2_g82 <= 0
 lin2_12_2_82: p_r2_g82_h70_t12 - x_r2_g70 <= 0
 lin3_12_2_82: p_r2_g82_h70_t12 - x_r2_g82 - x_r2_g70 >= -1
 lin1_12_2_86: p_r2_g86_h74_t12 - x_r2_g86 <= 0
 lin2_12_2_86: p_r2_g86_h74_t12 - x_r2_g74 <= 0
 lin3_12_2_86: p_r2_g86_h74_t12 - x_r2_g86 - x_r2_g74 >= -1
 lin1_12_2_98: p_r2_g98_h86_t12 - x_r2_g98 <= 0
 lin2_12_2_98: p_r2_g98_h86_t12 - x_r2_g86 <= 0
 lin3_12_2_98: p_r2_g98_h86_t12 - x_r2_g98 - x_r2_g86 >= -1
 lin1_12_2_107: p_r2_g107_h95_t12 - x_r2_g107 <= 0
 lin2_12_2_107: p_r2_g107_h95_t12 - x_r2_g95 <= 0
 lin3_12_2_107: p_r2_g107_h95_t12 - x_r2_g107 - x_r2_g95 >= -1
 lin1_12_2_110: p_r2_g110_h98_t12 - x_r2_g110 <= 0
 lin2_12_2_110: p_r2_g110_h98_t12 - x_r2_g98 <= 0
 lin3_12_2_110: p_r2_g110_h98_t12 - x_r2_g110 - x_r2_g98 >= -1
 lin1_12_2_164: p_r2_g164_h152_t12 - x_r2_g164 <= 0
 lin2_12_2_164: p_r2_g164_h152_t12 - x_r2_g152 <= 0
 lin3_12_2_164: p_r2_g164_h152_t12 - x_r2_g164 - x_r2_g152 >= -1
 lin1_12_3_7: p_r3_g7_h162_t12 - x_r3_g7 <= 0
 lin2_12_3_7: p_r3_g7_h162_t12 - x_r3_g162 <= 0
 lin3_12_3_7: p_r3_g7_h162_t12 - x_r3_g7 - x_r3_g162 >= -1
 lin1_12_3_15: p_r3_g15_h3_t12 - x_r3_g15 <= 0
 lin2_12_3_15: p_r3_g15_h3_t12 - x_r3_g3 <= 0
 lin3_12_3_15: p_r3_g15_h3_t12 - x_r3_g15 - x_r3_g3 >= -1
 lin1_12_3_19: p_r3_g19_h7_t12 - x_r3_g19 <= 0
 lin2_12_3_19: p_r3_g19_h7_t12 - x_r3_g7 <= 0
 lin3_12_3_19: p_r3_g19_h7_t12 - x_r3_g19 - x_r3_g7 >= -1
 lin1_12_3_27: p_r3_g27_h15_t12 - x_r3_g27 <= 0
 lin2_12_3_27: p_r3_g27_h15_t12 - x_r3_g15 <= 0
 lin3_12_3_27: p_r3_g27_h15_t12 - x_r3_g27 - x_r3_g15 >= -1
 lin1_12_3_65: p_r3_g65_h53_t12 - x_r3_g65 <= 0
 lin2_12_3_65: p_r3_g65_h53_t12 - x_r3_g53 <= 0
 lin3_12_3_65: p_r3_g65_h53_t12 - x_r3_g65 - x_r3_g53 >= -1
 lin1_12_3_77: p_r3_g77_h65_t12 - x_r3_g77 <= 0
 lin2_12_3_77: p_r3_g77_h65_t12 - x_r3_g65 <= 0
 lin3_12_3_77: p_r3_g77_h65_t12 - x_r3_g77 - x_r3_g65 >= -1
 lin1_12_3_91: p_r3_g91_h79_t12 - x_r3_g91 <= 0
 lin2_12_3_91: p_r3_g91_h79_t12 - x_r3_g79 <= 0
 lin3_12_3_91: p_r3_g91_h79_t12 - x_r3_g91 - x_r3_g79 >= -1
 lin1_12_3_103: p_r3_g103_h91_t12 - x_r3_g103 <= 0
 lin2_12_3_103: p_r3_g103_h91_t12 - x_r3_g91 <= 0
 lin3_12_3_103: p_r3_g103_h91_t12 - x_r3_g103 - x_r3_g91 >= -1
 lin1_12_3_106: p_r3_g106_h94_t12 - x_r3_g106 <= 0
 lin2_12_3_106: p_r3_g106_h94_t12 - x_r3_g94 <= 0
 lin3_12_3_106: p_r3_g106_h94_t12 - x_r3_g106 - x_r3_g94 >= -1
 lin1_12_3_123: p_r3_g123_h111_t12 - x_r3_g123 <= 0
 lin2_12_3_123: p_r3_g123_h111_t12 - x_r3_g111 <= 0
 lin3_12_3_123: p_r3_g123_h111_t12 - x_r3_g123 - x_r3_g111 >= -1
 lin1_12_3_125: p_r3_g125_h113_t12 - x_r3_g125 <= 0
 lin2_12_3_125: p_r3_g125_h113_t12 - x_r3_g113 <= 0
 lin3_12_3_125: p_r3_g125_h113_t12 - x_r3_g125 - x_r3_g113 >= -1
 lin1_12_3_159: p_r3_g159_h147_t12 - x_r3_g159 <= 0
 lin2_12_3_159: p_r3_g159_h147_t12 - x_r3_g147 <= 0
 lin3_12_3_159: p_r3_g159_h147_t12 - x_r3_g159 - x_r3_g147 >= -1
 defect_12: 1 d_12 - 1 x_r0_g1 - 1 x_r0_g4 - 1 x_r0_g7 - 1 x_r0_g17 - 1 x_r0_g23 - 1 x_r0_g25 - 1 x_r0_g26 - 1 x_r0_g28 - 1 x_r0_g37 - 1 x_r0_g47 - 1 x_r0_g54 - 1 x_r0_g67 - 1 x_r0_g70 - 1 x_r0_g101 - 1 x_r0_g102 - 1 x_r0_g118 - 1 x_r0_g130 - 1 x_r0_g131 - 1 x_r0_g143 - 1 x_r0_g144 - 1 x_r0_g153 - 2 x_r1_g8 - 1 x_r1_g11 - 1 x_r1_g13 - 2 x_r1_g15 - 1 x_r1_g17 - 1 x_r1_g25 - 2 x_r1_g30 - 1 x_r1_g38 - 1 x_r1_g53 - 1 x_r1_g67 - 1 x_r1_g75 - 1 x_r1_g76 - 1 x_r1_g80 - 1 x_r1_g83 - 1 x_r1_g90 - 2 x_r1_g91 - 1 x_r1_g93 - 1 x_r1_g96 - 2 x_r1_g107 - 1 x_r1_g110 - 1 x_r1_g111 - 1 x_r1_g121 - 1 x_r1_g126 - 2 x_r1_g128 - 1 x_r1_g154 - 2 x_r2_g2 - 1 x_r2_g29 - 1 x_r2_g34 - 1 x_r2_g66 - 1 x_r2_g70 - 2 x_r2_g73 - 1 x_r2_g77 - 1 x_r2_g80 - 1 x_r2_g82 - 1 x_r2_g95 - 1 x_r2_g100 - 1 x_r2_g107 - 1 x_r2_g110 - 1 x_r2_g120 - 2 x_r2_g128 - 1 x_r2_g136 - 1 x_r2_g139 - 1 x_r2_g142 - 2 x_r2_g149 - 1 x_r2_g152 - 1 x_r2_g155 - 1 x_r2_g158 - 1 x_r2_g159 - 2 x_r2_g162 - 1 x_r2_g163 - 1 x_r2_g165 - 2 x_r3_g8 - 1 x_r3_g11 - 1 x_r3_g13 - 2 x_r3_g16 - 2 x_r3_g18 - 1 x_r3_g27 - 1 x_r3_g33 - 2 x_r3_g34 - 1 x_r3_g51 - 1 x_r3_g53 - 1 x_r3_g56 - 1 x_r3_g57 - 1 x_r3_g77 - 1 x_r3_g106 - 1 x_r3_g111 - 1 x_r3_g124 - 1 x_r3_g125 - 1 x_r3_g128 - 1 x_r3_g144 - 2 x_r3_g154 - 1 x_r3_g159 - 1 p_r0_g7_h162_t12 - 1 p_r0_g26_h14_t12 - 1 p_r0_g32_h20_t12 - 1 p_r0_g34_h22_t12 - 1 p_r0_g35_h23_t12 - 1 p_r0_g37_h25_t12 - 1 p_r0_g47_h35_t12 - 1 p_r0_g48_h36_t12 - 1 p_r0_g60_h48_t12 - 1 p_r0_g79_h67_t12 - 1 p_r0_g130_h118_t12 - 1 p_r0_g143_h131_t12 - 1 p_r1_g25_h13_t12 - 1 p_r1_g76_h64_t12 - 1 p_r1_g108_h96_t12 - 1 p_r1_g126_h114_t12 - 1 p_r1_g155_h143_t12 - 1 p_r2_g30_h18_t12 - 1 p_r2_g60_h48_t12 - 1 p_r2_g74_h62_t12 - 1 p_r2_g82_h70_t12 - 1 p_r2_g86_h74_t12 - 1 p_r2_g98_h86_t12 - 1 p_r2_g107_h95_t12 - 1 p_r2_g110_h98_t12 - 1 p_r2_g164_h152_t12 - 1 p_r3_g7_h162_t12 - 1 p_r3_g15_h3_t12 - 1 p_r3_g19_h7_t12 - 1 p_r3_g27_h15_t12 - 1 p_r3_g65_h53_t12 - 1 p_r3_g77_h65_t12 - 1 p_r3_g91_h79_t12 - 1 p_r3_g103_h91_t12 - 1 p_r3_g106_h94_t12 - 1 p_r3_g123_h111_t12 - 1 p_r3_g125_h113_t12 - 1 p_r3_g159_h147_t12 = -69
 abs_pos_12: d_12 - u_12 <= 0
 abs_neg_12: - d_12 - u_12 <= 0
 max_def_12: u_12 - M <= 0
 cap_12: u_12 <= 1
 lin1_13_0_14: p_r0_g14_h1_t13 - x_r0_g14 <= 0
 lin2_13_0_14: p_r0_g14_h1_t13 - x_r0_g1 <= 0
 lin3_13_0_14: p_r0_g14_h1_t13 - x_r0_g14 - x_r0_g1 >= -1
 lin1_13_0_17: p_r0_g17_h4_t13 - x_r0_g17 <= 0
 lin2_13_0_17: p_r0_g17_h4_t13 - x_r0_g4 <= 0
 lin3_13_0_17: p_r0_g17_h4_t13 - x_r0_g17 - x_r0_g4 >= -1
 lin1_13_0_20: p_r0_g20_h7_t13 - x_r0_g20 <= 0
 lin2_13_0_20: p_r0_g20_h7_t13 - x_r0_g7 <= 0
 lin3_13_0_20: p_r0_g20_h7_t13 - x_r0_g20 - x_r0_g7 >= -1
 lin1_13_0_22: p_r0_g22_h9_t13 - x_r0_g22 <= 0
 lin2_13_0_22: p_r0_g22_h9_t13 - x_r0_g9 <= 0
 lin3_13_0_22: p_r0_g22_h9_t13 - x_r0_g22 - x_r0_g9 >= -1
 lin1_13_0_35: p_r0_g35_h22_t13 - x_r0_g35 <= 0
 lin2_13_0_35: p_r0_g35_h22_t13 - x_r0_g22 <= 0
 lin3_13_0_35: p_r0_g35_h22_t13 - x_r0_g35 - x_r0_g22 >= -1
 lin1_13_0_36: p_r0_g36_h23_t13 - x_r0_g36 <= 0
 lin2_13_0_36: p_r0_g36_h23_t13 - x_r0_g23 <= 0
 lin3_13_0_36: p_r0_g36_h23_t13 - x_r0_g36 - x_r0_g23 >= -1
 lin1_13_0_47: p_r0_g47_h34_t13 - x_r0_g47 <= 0
 lin2_13_0_47: p_r0_g47_h34_t13 - x_r0_g34 <= 0
 lin3_13_0_47: p_r0_g47_h34_t13 - x_r0_g47 - x_r0_g34 >= -1
 lin1_13_0_48: p_r0_g48_h35_t13 - x_r0_g48 <= 0
 lin2_13_0_48: p_r0_g48_h35_t13 - x_r0_g35 <= 0
 lin3_13_0_48: p_r0_g48_h35_t13 - x_r0_g48 - x_r0_g35 >= -1
 lin1_13_0_60: p_r0_g60_h47_t13 - x_r0_g60 <= 0
 lin2_13_0_60: p_r0_g60_h47_t13 - x_r0_g47 <= 0
 lin3_13_0_60: p_r0_g60_h47_t13 - x_r0_g60 - x_r0_g47 >= -1
 lin1_13_0_67: p_r0_g67_h54_t13 - x_r0_g67 <= 0
 lin2_13_0_67: p_r0_g67_h54_t13 - x_r0_g54 <= 0
 lin3_13_0_67: p_r0_g67_h54_t13 - x_r0_g67 - x_r0_g54 >= -1
 lin1_13_0_97: p_r0_g97_h84_t13 - x_r0_g97 <= 0
 lin2_13_0_97: p_r0_g97_h84_t13 - x_r0_g84 <= 0
 lin3_13_0_97: p_r0_g97_h84_t13 - x_r0_g97 - x_r0_g84 >= -1
 lin1_13_0_131: p_r0_g131_h118_t13 - x_r0_g131 <= 0
 lin2_13_0_131: p_r0_g131_h118_t13 - x_r0_g118 <= 0
 lin3_13_0_131: p_r0_g131_h118_t13 - x_r0_g131 - x_r0_g118 >= -1
 lin1_13_0_143: p_r0_g143_h130_t13 - x_r0_g143 <= 0
 lin2_13_0_143: p_r0_g143_h130_t13 - x_r0_g130 <= 0
 lin3_13_0_143: p_r0_g143_h130_t13 - x_r0_g143 - x_r0_g130 >= -1
 lin1_13_0_144: p_r0_g144_h131_t13 - x_r0_g144 <= 0
 lin2_13_0_144: p_r0_g144_h131_t13 - x_r0_g131 <= 0
 lin3_13_0_144: p_r0_g144_h131_t13 - x_r0_g144 - x_r0_g131 >= -1
 lin1_13_1_30: p_r1_g30_h17_t13 - x_r1_g30 <= 0
 lin2_13_1_30: p_r1_g30_h17_t13 - x_r1_g17 <= 0
 lin3_13_1_30: p_r1_g30_h17_t13 - x_r1_g30 - x_r1_g17 >= -1
 lin1_13_1_38: p_r1_g38_h25_t13 - x_r1_g38 <= 0
 lin2_13_1_38: p_r1_g38_h25_t13 - x_r1_g25 <= 0
 lin3_13_1_38: p_r1_g38_h25_t13 - x_r1_g38 - x_r1_g25 >= -1
 lin1_13_1_75: p_r1_g75_h62_t13 - x_r1_g75 <= 0
 lin2_13_1_75: p_r1_g75_h62_t13 - x_r1_g62 <= 0
 lin3_13_1_75: p_r1_g75_h62_t13 - x_r1_g75 - x_r1_g62 >= -1
 lin1_13_1_80: p_r1_g80_h67_t13 - x_r1_g80 <= 0
 lin2_13_1_80: p_r1_g80_h67_t13 - x_r1_g67 <= 0
 lin3_13_1_80: p_r1_g80_h67_t13 - x_r1_g80 - x_r1_g67 >= -1
 lin1_13_1_93: p_r1_g93_h80_t13 - x_r1_g93 <= 0
 lin2_13_1_93: p_r1_g93_h80_t13 - x_r1_g80 <= 0
 lin3_13_1_93: p_r1_g93_h80_t13 - x_r1_g93 - x_r1_g80 >= -1
 lin1_13_1_96: p_r1_g96_h83_t13 - x_r1_g96 <= 0
 lin2_13_1_96: p_r1_g96_h83_t13 - x_r1_g83 <= 0
 lin3_13_1_96: p_r1_g96_h83_t13 - x_r1_g96 - x_r1_g83 >= -1
 lin1_13_1_121: p_r1_g121_h108_t13 - x_r1_g121 <= 0
 lin2_13_1_121: p_r1_g121_h108_t13 - x_r1_g108 <= 0
 lin3_13_1_121: p_r1_g121_h108_t13 - x_r1_g121 - x_r1_g108 >= -1
 lin1_13_1_126: p_r1_g126_h113_t13 - x_r1_g126 <= 0
 lin2_13_1_126: p_r1_g126_h113_t13 - x_r1_g113 <= 0
 lin3_13_1_126: p_r1_g126_h113_t13 - x_r1_g126 - x_r1_g113 >= -1
 lin1_13_2_73: p_r2_g73_h60_t13 - x_r2_g73 <= 0
 lin2_13_2_73: p_r2_g73_h60_t13 - x_r2_g60 <= 0
 lin3_13_2_73: p_r2_g73_h60_t13 - x_r2_g73 - x_r2_g60 >= -1
 lin1_13_2_77: p_r2_g77_h64_t13 - x_r2_g77 <= 0
 lin2_13_2_77: p_r2_g77_h64_t13 - x_r2_g64 <= 0
 lin3_13_2_77: p_r2_g77_h64_t13 - x_r2_g77 - x_r2_g64 >= -1
 lin1_13_2_80: p_r2_g80_h67_t13 - x_r2_g80 <= 0
 lin2_13_2_80: p_r2_g80_h67_t13 - x_r2_g67 <= 0
 lin3_13_2_80: p_r2_g80_h67_t13 - x_r2_g80 - x_r2_g67 >= -1
 lin1_13_2_86: p_r2_g86_h73_t13 - x_r2_g86 <= 0
 lin2_13_2_86: p_r2_g86_h73_t13 - x_r2_g73 <= 0
 lin3_13_2_86: p_r2_g86_h73_t13 - x_r2_g86 - x_r2_g73 >= -1
 lin1_13_2_95: p_r2_g95_h82_t13 - x_r2_g95 <= 0
 lin2_13_2_95: p_r2_g95_h82_t13 - x_r2_g82 <= 0
 lin3_13_2_95: p_r2_g95_h82_t13 - x_r2_g95 - x_r2_g82 >= -1
 lin1_13_2_111: p_r2_g111_h98_t13 - x_r2_g111 <= 0
 lin2_13_2_111: p_r2_g111_h98_t13 - x_r2_g98 <= 0
 lin3_13_2_111: p_r2_g111_h98_t13 - x_r2_g111 - x_r2_g98 >= -1
 lin1_13_2_120: p_r2_g120_h107_t13 - x_r2_g120 <= 0
 lin2_13_2_120: p_r2_g120_h107_t13 - x_r2_g107 <= 0
 lin3_13_2_120: p_r2_g120_h107_t13 - x_r2_g120 - x_r2_g107 >= -1
 lin1_13_2_149: p_r2_g149_h136_t13 - x_r2_g149 <= 0
 lin2_13_2_149: p_r2_g149_h136_t13 - x_r2_g136 <= 0
 lin3_13_2_149: p_r2_g149_h136_t13 - x_r2_g149 - x_r2_g136 >= -1
 lin1_13_2_152: p_r2_g152_h139_t13 - x_r2_g152 <= 0
 lin2_13_2_152: p_r2_g152_h139_t13 - x_r2_g139 <= 0
 lin3_13_2_152: p_r2_g152_h139_t13 - x_r2_g152 - x_r2_g139 >= -1
 lin1_13_2_155: p_r2_g155_h142_t13 - x_r2_g155 <= 0
 lin2_13_2_155: p_r2_g155_h142_t13 - x_r2_g142 <= 0
 lin3_13_2_155: p_r2_g155_h142_t13 - x_r2_g155 - x_r2_g142 >= -1
 lin1_13_2_162: p_r2_g162_h149_t13 - x_r2_g162 <= 0
 lin2_13_2_162: p_r2_g162_h149_t13 - x_r2_g149 <= 0
 lin3_13_2_162: p_r2_g162_h149_t13 - x_r2_g162 - x_r2_g149 >= -1
 lin1_13_2_165: p_r2_g165_h152_t13 - x_r2_g165 <= 0
 lin2_13_2_165: p_r2_g165_h152_t13 - x_r2_g152 <= 0
 lin3_13_2_165: p_r2_g165_h152_t13 - x_r2_g165 - x_r2_g152 >= -1
 lin1_13_3_8: p_r3_g8_h162_t13 - x_r3_g8 <= 0
 lin2_13_3_8: p_r3_g8_h162_t13 - x_r3_g162 <= 0
 lin3_13_3_8: p_r3_g8_h162_t13 - x_r3_g8 - x_r3_g162 >= -1
 lin1_13_3_11: p_r3_g11_h165_t13 - x_r3_g11 <= 0
 lin2_13_3_11: p_r3_g11_h165_t13 - x_r3_g165 <= 0
 lin3_13_3_11: p_r3_g11_h165_t13 - x_r3_g11 - x_r3_g165 >= -1
 lin1_13_3_16: p_r3_g16_h3_t13 - x_r3_g16 <= 0
 lin2_13_3_16: p_r3_g16_h3_t13 - x_r3_g3 <= 0
 lin3_13_3_16: p_r3_g16_h3_t13 - x_r3_g16 - x_r3_g3 >= -1
 lin1_13_3_124: p_r3_g124_h111_t13 - x_r3_g124 <= 0
 lin2_13_3_124: p_r3_g124_h111_t13 - x_r3_g111 <= 0
 lin3_13_3_124: p_r3_g124_h111_t13 - x_r3_g124 - x_r3_g111 >= -1
 lin1_13_3_138: p_r3_g138_h125_t13 - x_r3_g138 <= 0
 lin2_13_3_138: p_r3_g138_h125_t13 - x_r3_g125 <= 0
 lin3_13_3_138: p_r3_g138_h125_t13 - x_r3_g138 - x_r3_g125 >= -1
 defect_13: 1 d_13 - 1 x_r0_g1 - 1 x_r0_g4 - 1 x_r0_g9 - 1 x_r0_g17 - 2 x_r0_g25 - 1 x_r0_g26 - 1 x_r0_g28 - 2 x_r0_g32 - 1 x_r0_g36 - 1 x_r0_g68 - 2 x_r0_g87 - 1 x_r0_g101 - 1 x_r0_g123 - 1 x_r0_g144 - 1 x_r0_g162 - 1 x_r1_g13 - 2 x_r1_g31 - 2 x_r1_g53 - 1 x_r1_g59 - 1 x_r1_g62 - 1 x_r1_g75 - 1 x_r1_g76 - 1 x_r1_g83 - 1 x_r1_g90 - 1 x_r1_g91 - 1 x_r1_g96 - 1 x_r1_g108 - 1 x_r1_g110 - 2 x_r1_g111 - 1 x_r1_g113 - 1 x_r1_g114 - 1 x_r1_g117 - 2 x_r1_g128 - 1 x_r1_g132 - 2 x_r1_g143 - 1 x_r1_g146 - 1 x_r1_g154 - 1 x_r1_g155 - 1 x_r1_g157 - 1 x_r2_g18 - 1 x_r2_g30 - 1 x_r2_g34 - 1 x_r2_g48 - 2 x_r2_g62 - 1 x_r2_g70 - 2 x_r2_g74 - 1 x_r2_g77 - 1 x_r2_g80 - 2 x_r2_g91 - 1 x_r2_g98 - 2 x_r2_g100 - 1 x_r2_g107 - 1 x_r2_g128 - 2 x_r2_g135 - 1 x_r2_g139 - 1 x_r2_g142 - 1 x_r2_g155 - 1 x_r2_g158 - 1 x_r2_g159 - 1 x_r2_g163 - 1 x_r2_g164 - 1 x_r3_g7 - 1 x_r3_g13 - 2 x_r3_g15 - 1 x_r3_g18 - 2 x_r3_g19 - 1 x_r3_g27 - 2 x_r3_g33 - 1 x_r3_g34 - 1 x_r3_g36 - 1 x_r3_g51 - 2 x_r3_g53 - 1 x_r3_g56 - 1 x_r3_g65 - 1 x_r3_g72 - 1 x_r3_g79 - 1 x_r3_g91 - 1 x_r3_g94 - 1 x_r3_g106 - 1 x_r3_g111 - 2 x_r3_g121 - 1 x_r3_g123 - 1 x_r3_g124 - 1 x_r3_g125 - 1 x_r3_g138 - 1 x_r3_g145 - 2 x_r3_g147 - 1 x_r3_g159 - 1 x_r3_g162 - 1 p_r0_g14_h1_t13 - 1 p_r0_g17_h4_t13 - 1 p_r0_g20_h7_t13 - 1 p_r0_g22_h9_t13 - 1 p_r0_g35_h22_t13 - 1 p_r0_g36_h23_t13 - 1 p_r0_g47_h34_t13 - 1 p_r0_g48_h35_t13 - 1 p_r0_g60_h47_t13 - 1 p_r0_g67_h54_t13 - 1 p_r0_g97_h84_t13 - 1 p_r0_g131_h118_t13 - 1 p_r0_g143_h130_t13 - 1 p_r0_g144_h131_t13 - 1 p_r1_g30_h17_t13 - 1 p_r1_g38_h25_t13 - 1 p_r1_g75_h62_t13 - 1 p_r1_g80_h67_t13 - 1 p_r1_g93_h80_t13 - 1 p_r1_g96_h83_t13 - 1 p_r1_g121_h108_t13 - 1 p_r1_g126_h113_t13 - 1 p_r2_g73_h60_t13 - 1 p_r2_g77_h64_t13 - 1 p_r2_g80_h67_t13 - 1 p_r2_g86_h73_t13 - 1 p_r2_g95_h82_t13 - 1 p_r2_g111_h98_t13 - 1 p_r2_g120_h107_t13 - 1 p_r2_g149_h136_t13 - 1 p_r2_g152_h139_t13 - 1 p_r2_g155_h142_t13 - 1 p_r2_g162_h149_t13 - 1 p_r2_g165_h152_t13 - 1 p_r3_g8_h162_t13 - 1 p_r3_g11_h165_t13 - 1 p_r3_g16_h3_t13 - 1 p_r3_g124_h111_t13 - 1 p_r3_g138_h125_t13 = -61
 abs_pos_13: d_13 - u_13 <= 0
 abs_neg_13: - d_13 - u_13 <= 0
 max_def_13: u_13 - M <= 0
 cap_13: u_13 <= 0
 lin1_16_0_17: p_r0_g17_h1_t16 - x_r0_g17 <= 0
 lin2_16_0_17: p_r0_g17_h1_t16 - x_r0_g1 <= 0
 lin3_16_0_17: p_r0_g17_h1_t16 - x_r0_g17 - x_r0_g1 >= -1
 lin1_16_0_20: p_r0_g20_h4_t16 - x_r0_g20 <= 0
 lin2_16_0_20: p_r0_g20_h4_t16 - x_r0_g4 <= 0
 lin3_16_0_20: p_r0_g20_h4_t16 - x_r0_g20 - x_r0_g4 >= -1
 lin1_16_0_23: p_r0_g23_h7_t16 - x_r0_g23 <= 0
 lin2_16_0_23: p_r0_g23_h7_t16 - x_r0_g7 <= 0
 lin3_16_0_23: p_r0_g23_h7_t16 - x_r0_g23 - x_r0_g7 >= -1
 lin1_16_0_25: p_r0_g25_h9_t16 - x_r0_g25 <= 0
 lin2_16_0_25: p_r0_g25_h9_t16 - x_r0_g9 <= 0
 lin3_16_0_25: p_r0_g25_h9_t16 - x_r0_g25 - x_r0_g9 >= -1
 lin1_16_0_36: p_r0_g36_h20_t16 - x_r0_g36 <= 0
 lin2_16_0_36: p_r0_g36_h20_t16 - x_r0_g20 <= 0
 lin3_16_0_36: p_r0_g36_h20_t16 - x_r0_g36 - x_r0_g20 >= -1
 lin1_16_0_48: p_r0_g48_h32_t16 - x_r0_g48 <= 0
 lin2_16_0_48: p_r0_g48_h32_t16 - x_r0_g32 <= 0
 lin3_16_0_48: p_r0_g48_h32_t16 - x_r0_g48 - x_r0_g32 >= -1
 lin1_16_0_70: p_r0_g70_h54_t16 - x_r0_g70 <= 0
 lin2_16_0_70: p_r0_g70_h54_t16 - x_r0_g54 <= 0
 lin3_16_0_70: p_r0_g70_h54_t16 - x_r0_g70 - x_r0_g54 >= -1
 lin1_16_0_84: p_r0_g84_h68_t16 - x_r0_g84 <= 0
 lin2_16_0_84: p_r0_g84_h68_t16 - x_r0_g68 <= 0
 lin3_16_0_84: p_r0_g84_h68_t16 - x_r0_g84 - x_r0_g68 >= -1
 lin1_16_0_118: p_r0_g118_h102_t16 - x_r0_g118 <= 0
 lin2_16_0_118: p_r0_g118_h102_t16 - x_r0_g102 <= 0
 lin3_16_0_118: p_r0_g118_h102_t16 - x_r0_g118 - x_r0_g102 >= -1
 lin1_16_1_31: p_r1_g31_h15_t16 - x_r1_g31 <= 0
 lin2_16_1_31: p_r1_g31_h15_t16 - x_r1_g15 <= 0
 lin3_16_1_31: p_r1_g31_h15_t16 - x_r1_g31 - x_r1_g15 >= -1
 lin1_16_1_75: p_r1_g75_h59_t16 - x_r1_g75 <= 0
 lin2_16_1_75: p_r1_g75_h59_t16 - x_r1_g59 <= 0
 lin3_16_1_75: p_r1_g75_h59_t16 - x_r1_g75 - x_r1_g59 >= -1
 lin1_16_1_80: p_r1_g80_h64_t16 - x_r1_g80 <= 0
 lin2_16_1_80: p_r1_g80_h64_t16 - x_r1_g64 <= 0
 lin3_16_1_80: p_r1_g80_h64_t16 - x_r1_g80 - x_r1_g64 >= -1
 lin1_16_1_83: p_r1_g83_h67_t16 - x_r1_g83 <= 0
 lin2_16_1_83: p_r1_g83_h67_t16 - x_r1_g67 <= 0
 lin3_16_1_83: p_r1_g83_h67_t16 - x_r1_g83 - x_r1_g67 >= -1
 lin1_16_1_91: p_r1_g91_h75_t16 - x_r1_g91 <= 0
 lin2_16_1_91: p_r1_g91_h75_t16 - x_r1_g75 <= 0
 lin3_16_1_91: p_r1_g91_h75_t16 - x_r1_g91 - x_r1_g75 >= -1
 lin1_16_1_96: p_r1_g96_h80_t16 - x_r1_g96 <= 0
 lin2_16_1_96: p_r1_g96_h80_t16 - x_r1_g80 <= 0
 lin3_16_1_96: p_r1_g96_h80_t16 - x_r1_g96 - x_r1_g80 >= -1
 lin1_16_1_107: p_r1_g107_h91_t16 - x_r1_g107 <= 0
 lin2_16_1_107: p_r1_g107_h91_t16 - x_r1_g91 <= 0
 lin3_16_1_107: p_r1_g107_h91_t16 - x_r1_g107 - x_r1_g91 >= -1
 lin1_16_1_126: p_r1_g126_h110_t16 - x_r1_g126 <= 0
 lin2_16_1_126: p_r1_g126_h110_t16 - x_r1_g110 <= 0
 lin3_16_1_126: p_r1_g126_h110_t16 - x_r1_g126 - x_r1_g110 >= -1
 lin1_16_2_18: p_r2_g18_h2_t16 - x_r2_g18 <= 0
 lin2_16_2_18: p_r2_g18_h2_t16 - x_r2_g2 <= 0
 lin3_16_2_18: p_r2_g18_h2_t16 - x_r2_g18 - x_r2_g2 >= -1
 lin1_16_2_34: p_r2_g34_h18_t16 - x_r2_g34 <= 0
 lin2_16_2_34: p_r2_g34_h18_t16 - x_r2_g18 <= 0
 lin3_16_2_34: p_r2_g34_h18_t16 - x_r2_g34 - x_r2_g18 >= -1
 lin1_16_2_64: p_r2_g64_h48_t16 - x_r2_g64 <= 0
 lin2_16_2_64: p_r2_g64_h48_t16 - x_r2_g48 <= 0
 lin3_16_2_64: p_r2_g64_h48_t16 - x_r2_g64 - x_r2_g48 >= -1
 lin1_16_2_80: p_r2_g80_h64_t16 - x_r2_g80 <= 0
 lin2_16_2_80: p_r2_g80_h64_t16 - x_r2_g64 <= 0
 lin3_16_2_80: p_r2_g80_h64_t16 - x_r2_g80 - x_r2_g64 >= -1
 lin1_16_2_82: p_r2_g82_h66_t16 - x_r2_g82 <= 0
 lin2_16_2_82: p_r2_g82_h66_t16 - x_r2_g66 <= 0
 lin3_16_2_82: p_r2_g82_h66_t16 - x_r2_g82 - x_r2_g66 >= -1
 lin1_16_2_86: p_r2_g86_h70_t16 - x_r2_g86 <= 0
 lin2_16_2_86: p_r2_g86_h70_t16 - x_r2_g70 <= 0
 lin3_16_2_86: p_r2_g86_h70_t16 - x_r2_g86 - x_r2_g70 >= -1
 lin1_16_2_98: p_r2_g98_h82_t16 - x_r2_g98 <= 0
 lin2_16_2_98: p_r2_g98_h82_t16 - x_r2_g82 <= 0
 lin3_16_2_98: p_r2_g98_h82_t16 - x_r2_g98 - x_r2_g82 >= -1
 lin1_16_2_107: p_r2_g107_h91_t16 - x_r2_g107 <= 0
 lin2_16_2_107: p_r2_g107_h91_t16 - x_r2_g91 <= 0
 lin3_16_2_107: p_r2_g107_h91_t16 - x_r2_g107 - x_r2_g91 >= -1
 lin1_16_2_111: p_r2_g111_h95_t16 - x_r2_g111 <= 0
 lin2_16_2_111: p_r2_g111_h95_t16 - x_r2_g95 <= 0
 lin3_16_2_111: p_r2_g111_h95_t16 - x_r2_g111 - x_r2_g95 >= -1
 lin1_16_2_136: p_r2_g136_h120_t16 - x_r2_g136 <= 0
 lin2_16_2_136: p_r2_g136_h120_t16 - x_r2_g120 <= 0
 lin3_16_2_136: p_r2_g136_h120_t16 - x_r2_g136 - x_r2_g120 >= -1
 lin1_16_2_152: p_r2_g152_h136_t16 - x_r2_g152 <= 0
 lin2_16_2_152: p_r2_g152_h136_t16 - x_r2_g136 <= 0
 lin3_16_2_152: p_r2_g152_h136_t16 - x_r2_g152 - x_r2_g136 >= -1
 lin1_16_2_155: p_r2_g155_h139_t16 - x_r2_g155 <= 0
 lin2_16_2_155: p_r2_g155_h139_t16 - x_r2_g139 <= 0
 lin3_16_2_155: p_r2_g155_h139_t16 - x_r2_g155 - x_r2_g139 >= -1
 lin1_16_2_158: p_r2_g158_h142_t16 - x_r2_g158 <= 0
 lin2_16_2_158: p_r2_g158_h142_t16 - x_r2_g142 <= 0
 lin3_16_2_158: p_r2_g158_h142_t16 - x_r2_g158 - x_r2_g142 >= -1
 lin1_16_2_165: p_r2_g165_h149_t16 - x_r2_g165 <= 0
 lin2_16_2_165: p_r2_g165_h149_t16 - x_r2_g149 <= 0
 lin3_16_2_165: p_r2_g165_h149_t16 - x_r2_g165 - x_r2_g149 >= -1
 lin1_16_3_3: p_r3_g3_h154_t16 - x_r3_g3 <= 0
 lin2_16_3_3: p_r3_g3_h154_t16 - x_r3_g154 <= 0
 lin3_16_3_3: p_r3_g3_h154_t16 - x_r3_g3 - x_r3_g154 >= -1
 lin1_16_3_8: p_r3_g8_h159_t16 - x_r3_g8 <= 0
 lin2_16_3_8: p_r3_g8_h159_t16 - x_r3_g159 <= 0
 lin3_16_3_8: p_r3_g8_h159_t16 - x_r3_g8 - x_r3_g159 >= -1
 lin1_16_3_11: p_r3_g11_h162_t16 - x_r3_g11 <= 0
 lin2_16_3_11: p_r3_g11_h162_t16 - x_r3_g162 <= 0
 lin3_16_3_11: p_r3_g11_h162_t16 - x_r3_g11 - x_r3_g162 >= -1
 lin1_16_3_19: p_r3_g19_h3_t16 - x_r3_g19 <= 0
 lin2_16_3_19: p_r3_g19_h3_t16 - x_r3_g3 <= 0
 lin3_16_3_19: p_r3_g19_h3_t16 - x_r3_g19 - x_r3_g3 >= -1
 lin1_16_3_27: p_r3_g27_h11_t16 - x_r3_g27 <= 0
 lin2_16_3_27: p_r3_g27_h11_t16 - x_r3_g11 <= 0
 lin3_16_3_27: p_r3_g27_h11_t16 - x_r3_g27 - x_r3_g11 >= -1
 lin1_16_3_34: p_r3_g34_h18_t16 - x_r3_g34 <= 0
 lin2_16_3_34: p_r3_g34_h18_t16 - x_r3_g18 <= 0
 lin3_16_3_34: p_r3_g34_h18_t16 - x_r3_g34 - x_r3_g18 >= -1
 lin1_16_3_72: p_r3_g72_h56_t16 - x_r3_g72 <= 0
 lin2_16_3_72: p_r3_g72_h56_t16 - x_r3_g56 <= 0
 lin3_16_3_72: p_r3_g72_h56_t16 - x_r3_g72 - x_r3_g56 >= -1
 lin1_16_3_144: p_r3_g144_h128_t16 - x_r3_g144 <= 0
 lin2_16_3_144: p_r3_g144_h128_t16 - x_r3_g128 <= 0
 lin3_16_3_144: p_r3_g144_h128_t16 - x_r3_g144 - x_r3_g128 >= -1
 lin1_16_3_154: p_r3_g154_h138_t16 - x_r3_g154 <= 0
 lin2_16_3_154: p_r3_g154_h138_t16 - x_r3_g138 <= 0
 lin3_16_3_154: p_r3_g154_h138_t16 - x_r3_g154 - x_r3_g138 >= -1
 defect_16: 1 d_16 - 1 x_r0_g1 - 1 x_r0_g4 - 1 x_r0_g7 - 1 x_r0_g9 - 2 x_r0_g14 - 2 x_r0_g22 - 1 x_r0_g26 - 1 x_r0_g28 - 2 x_r0_g35 - 1 x_r0_g36 - 1 x_r0_g47 - 1 x_r0_g54 - 1 x_r0_g67 - 1 x_r0_g68 - 1 x_r0_g79 - 1 x_r0_g84 - 1 x_r0_g87 - 1 x_r0_g97 - 1 x_r0_g121 - 1 x_r0_g123 - 1 x_r0_g130 - 2 x_r0_g143 - 1 x_r0_g144 - 1 x_r0_g153 - 2 x_r0_g162 - 1 x_r1_g8 - 1 x_r1_g11 - 2 x_r1_g13 - 1 x_r1_g15 - 1 x_r1_g17 - 1 x_r1_g30 - 2 x_r1_g53 - 2 x_r1_g62 - 1 x_r1_g93 - 1 x_r1_g96 - 1 x_r1_g107 - 1 x_r1_g108 - 2 x_r1_g111 - 2 x_r1_g114 - 1 x_r1_g128 - 1 x_r1_g132 - 2 x_r1_g143 - 1 x_r1_g146 - 2 x_r1_g154 - 1 x_r1_g157 - 1 x_r1_g161 - 1 x_r2_g2 - 2 x_r2_g30 - 2 x_r2_g62 - 1 x_r2_g67 - 2 x_r2_g74 - 2 x_r2_g77 - 1 x_r2_g86 - 1 x_r2_g91 - 1 x_r2_g98 - 1 x_r2_g100 - 2 x_r2_g110 - 1 x_r2_g120 - 1 x_r2_g128 - 2 x_r2_g135 - 1 x_r2_g142 - 1 x_r2_g152 - 1 x_r2_g155 - 1 x_r2_g158 - 1 x_r2_g162 - 1 x_r2_g164 - 1 x_r2_g165 - 1 x_r3_g15 - 1 x_r3_g16 - 1 x_r3_g18 - 1 x_r3_g27 - 2 x_r3_g33 - 1 x_r3_g36 - 1 x_r3_g53 - 1 x_r3_g56 - 1 x_r3_g57 - 2 x_r3_g65 - 1 x_r3_g77 - 1 x_r3_g91 - 2 x_r3_g94 - 1 x_r3_g103 - 1 x_r3_g106 - 1 x_r3_g111 - 1 x_r3_g113 - 1 x_r3_g121 - 1 x_r3_g123 - 2 x_r3_g124 - 1 x_r3_g128 - 1 x_r3_g138 - 1 x_r3_g144 - 1 x_r3_g145 - 1 x_r3_g147 - 1 x_r3_g159 - 1 x_r3_g165 - 1 p_r0_g17_h1_t16 - 1 p_r0_g20_h4_t16 - 1 p_r0_g23_h7_t16 - 1 p_r0_g25_h9_t16 - 1 p_r0_g36_h20_t16 - 1 p_r0_g48_h32_t16 - 1 p_r0_g70_h54_t16 - 1 p_r0_g84_h68_t16 - 1 p_r0_g118_h102_t16 - 1 p_r1_g31_h15_t16 - 1 p_r1_g75_h59_t16 - 1 p_r1_g80_h64_t16 - 1 p_r1_g83_h67_t16 - 1 p_r1_g91_h75_t16 - 1 p_r1_g96_h80_t16 - 1 p_r1_g107_h91_t16 - 1 p_r1_g126_h110_t16 - 1 p_r2_g18_h2_t16 - 1 p_r2_g34_h18_t16 - 1 p_r2_g64_h48_t16 - 1 p_r2_g80_h64_t16 - 1 p_r2_g82_h66_t16 - 1 p_r2_g86_h70_t16 - 1 p_r2_g98_h82_t16 - 1 p_r2_g107_h91_t16 - 1 p_r2_g111_h95_t16 - 1 p_r2_g136_h120_t16 - 1 p_r2_g152_h136_t16 - 1 p_r2_g155_h139_t16 - 1 p_r2_g158_h142_t16 - 1 p_r2_g165_h149_t16 - 1 p_r3_g3_h154_t16 - 1 p_r3_g8_h159_t16 - 1 p_r3_g11_h162_t16 - 1 p_r3_g19_h3_t16 - 1 p_r3_g27_h11_t16 - 1 p_r3_g34_h18_t16 - 1 p_r3_g72_h56_t16 - 1 p_r3_g144_h128_t16 - 1 p_r3_g154_h138_t16 = -73
 abs_pos_16: d_16 - u_16 <= 0
 abs_neg_16: - d_16 - u_16 <= 0
 max_def_16: u_16 - M <= 0
 cap_16: u_16 <= 1
 lin1_18_0_4: p_r0_g4_h153_t18 - x_r0_g4 <= 0
 lin2_18_0_4: p_r0_g4_h153_t18 - x_r0_g153 <= 0
 lin3_18_0_4: p_r0_g4_h153_t18 - x_r0_g4 - x_r0_g153 >= -1
 lin1_18_0_22: p_r0_g22_h4_t18 - x_r0_g22 <= 0
 lin2_18_0_22: p_r0_g22_h4_t18 - x_r0_g4 <= 0
 lin3_18_0_22: p_r0_g22_h4_t18 - x_r0_g22 - x_r0_g4 >= -1
 lin1_18_0_25: p_r0_g25_h7_t18 - x_r0_g25 <= 0
 lin2_18_0_25: p_r0_g25_h7_t18 - x_r0_g7 <= 0
 lin3_18_0_25: p_r0_g25_h7_t18 - x_r0_g25 - x_r0_g7 >= -1
 lin1_18_0_32: p_r0_g32_h14_t18 - x_r0_g32 <= 0
 lin2_18_0_32: p_r0_g32_h14_t18 - x_r0_g14 <= 0
 lin3_18_0_32: p_r0_g32_h14_t18 - x_r0_g32 - x_r0_g14 >= -1
 lin1_18_0_35: p_r0_g35_h17_t18 - x_r0_g35 <= 0
 lin2_18_0_35: p_r0_g35_h17_t18 - x_r0_g17 <= 0
 lin3_18_0_35: p_r0_g35_h17_t18 - x_r0_g35 - x_r0_g17 >= -1
 lin1_18_0_54: p_r0_g54_h36_t18 - x_r0_g54 <= 0
 lin2_18_0_54: p_r0_g54_h36_t18 - x_r0_g36 <= 0
 lin3_18_0_54: p_r0_g54_h36_t18 - x_r0_g54 - x_r0_g36 >= -1
 lin1_18_0_87: p_r0_g87_h69_t18 - x_r0_g87 <= 0
 lin2_18_0_87: p_r0_g87_h69_t18 - x_r0_g69 <= 0
 lin3_18_0_87: p_r0_g87_h69_t18 - x_r0_g87 - x_r0_g69 >= -1
 lin1_18_0_97: p_r0_g97_h79_t18 - x_r0_g97 <= 0
 lin2_18_0_97: p_r0_g97_h79_t18 - x_r0_g79 <= 0
 lin3_18_0_97: p_r0_g97_h79_t18 - x_r0_g97 - x_r0_g79 >= -1
 lin1_18_0_102: p_r0_g102_h84_t18 - x_r0_g102 <= 0
 lin2_18_0_102: p_r0_g102_h84_t18 - x_r0_g84 <= 0
 lin3_18_0_102: p_r0_g102_h84_t18 - x_r0_g102 - x_r0_g84 >= -1
 lin1_18_0_162: p_r0_g162_h144_t18 - x_r0_g162 <= 0
 lin2_18_0_162: p_r0_g162_h144_t18 - x_r0_g144 <= 0
 lin3_18_0_162: p_r0_g162_h144_t18 - x_r0_g162 - x_r0_g144 >= -1
 lin1_18_1_8: p_r1_g8_h157_t18 - x_r1_g8 <= 0
 lin2_18_1_8: p_r1_g8_h157_t18 - x_r1_g157 <= 0
 lin3_18_1_8: p_r1_g8_h157_t18 - x_r1_g8 - x_r1_g157 >= -1
 lin1_18_1_31: p_r1_g31_h13_t18 - x_r1_g31 <= 0
 lin2_18_1_31: p_r1_g31_h13_t18 - x_r1_g13 <= 0
 lin3_18_1_31: p_r1_g31_h13_t18 - x_r1_g31 - x_r1_g13 >= -1
 lin1_18_1_35: p_r1_g35_h17_t18 - x_r1_g35 <= 0
 lin2_18_1_35: p_r1_g35_h17_t18 - x_r1_g17 <= 0
 lin3_18_1_35: p_r1_g35_h17_t18 - x_r1_g35 - x_r1_g17 >= -1
 lin1_18_1_53: p_r1_g53_h35_t18 - x_r1_g53 <= 0
 lin2_18_1_53: p_r1_g53_h35_t18 - x_r1_g35 <= 0
 lin3_18_1_53: p_r1_g53_h35_t18 - x_r1_g53 - x_r1_g35 >= -1
 lin1_18_1_80: p_r1_g80_h62_t18 - x_r1_g80 <= 0
 lin2_18_1_80: p_r1_g80_h62_t18 - x_r1_g62 <= 0
 lin3_18_1_80: p_r1_g80_h62_t18 - x_r1_g80 - x_r1_g62 >= -1
 lin1_18_1_93: p_r1_g93_h75_t18 - x_r1_g93 <= 0
 lin2_18_1_93: p_r1_g93_h75_t18 - x_r1_g75 <= 0
 lin3_18_1_93: p_r1_g93_h75_t18 - x_r1_g93 - x_r1_g75 >= -1
 lin1_18_1_108: p_r1_g108_h90_t18 - x_r1_g108 <= 0
 lin2_18_1_108: p_r1_g108_h90_t18 - x_r1_g90 <= 0
 lin3_18_1_108: p_r1_g108_h90_t18 - x_r1_g108 - x_r1_g90 >= -1
 lin1_18_1_111: p_r1_g111_h93_t18 - x_r1_g111 <= 0
 lin2_18_1_111: p_r1_g111_h93_t18 - x_r1_g93 <= 0
 lin3_18_1_111: p_r1_g111_h93_t18 - x_r1_g111 - x_r1_g93 >= -1
 lin1_18_1_114: p_r1_g114_h96_t18 - x_r1_g114 <= 0
 lin2_18_1_114: p_r1_g114_h96_t18 - x_r1_g96 <= 0
 lin3_18_1_114: p_r1_g114_h96_t18 - x_r1_g114 - x_r1_g96 >= -1
 lin1_18_1_126: p_r1_g126_h108_t18 - x_r1_g126 <= 0
 lin2_18_1_126: p_r1_g126_h108_t18 - x_r1_g108 <= 0
 lin3_18_1_126: p_r1_g126_h108_t18 - x_r1_g126 - x_r1_g108 >= -1
 lin1_18_1_128: p_r1_g128_h110_t18 - x_r1_g128 <= 0
 lin2_18_1_128: p_r1_g128_h110_t18 - x_r1_g110 <= 0
 lin3_18_1_128: p_r1_g128_h110_t18 - x_r1_g128 - x_r1_g110 >= -1
 lin1_18_1_132: p_r1_g132_h114_t18 - x_r1_g132 <= 0
 lin2_18_1_132: p_r1_g132_h114_t18 - x_r1_g114 <= 0
 lin3_18_1_132: p_r1_g132_h114_t18 - x_r1_g132 - x_r1_g114 >= -1
 lin1_18_1_146: p_r1_g146_h128_t18 - x_r1_g146 <= 0
 lin2_18_1_146: p_r1_g146_h128_t18 - x_r1_g128 <= 0
 lin3_18_1_146: p_r1_g146_h128_t18 - x_r1_g146 - x_r1_g128 >= -1
 lin1_18_1_161: p_r1_g161_h143_t18 - x_r1_g161 <= 0
 lin2_18_1_161: p_r1_g161_h143_t18 - x_r1_g143 <= 0
 lin3_18_1_161: p_r1_g161_h143_t18 - x_r1_g161 - x_r1_g143 >= -1
 lin1_18_2_48: p_r2_g48_h30_t18 - x_r2_g48 <= 0
 lin2_18_2_48: p_r2_g48_h30_t18 - x_r2_g30 <= 0
 lin3_18_2_48: p_r2_g48_h30_t18 - x_r2_g48 - x_r2_g30 >= -1
 lin1_18_2_66: p_r2_g66_h48_t18 - x_r2_g66 <= 0
 lin2_18_2_66: p_r2_g66_h48_t18 - x_r2_g48 <= 0
 lin3_18_2_66: p_r2_g66_h48_t18 - x_r2_g66 - x_r2_g48 >= -1
 lin1_18_2_80: p_r2_g80_h62_t18 - x_r2_g80 <= 0
 lin2_18_2_80: p_r2_g80_h62_t18 - x_r2_g62 <= 0
 lin3_18_2_80: p_r2_g80_h62_t18 - x_r2_g80 - x_r2_g62 >= -1
 lin1_18_2_82: p_r2_g82_h64_t18 - x_r2_g82 <= 0
 lin2_18_2_82: p_r2_g82_h64_t18 - x_r2_g64 <= 0
 lin3_18_2_82: p_r2_g82_h64_t18 - x_r2_g82 - x_r2_g64 >= -1
 lin1_18_2_91: p_r2_g91_h73_t18 - x_r2_g91 <= 0
 lin2_18_2_91: p_r2_g91_h73_t18 - x_r2_g73 <= 0
 lin3_18_2_91: p_r2_g91_h73_t18 - x_r2_g91 - x_r2_g73 >= -1
 lin1_18_2_95: p_r2_g95_h77_t18 - x_r2_g95 <= 0
 lin2_18_2_95: p_r2_g95_h77_t18 - x_r2_g77 <= 0
 lin3_18_2_95: p_r2_g95_h77_t18 - x_r2_g95 - x_r2_g77 >= -1
 lin1_18_2_98: p_r2_g98_h80_t18 - x_r2_g98 <= 0
 lin2_18_2_98: p_r2_g98_h80_t18 - x_r2_g80 <= 0
 lin3_18_2_98: p_r2_g98_h80_t18 - x_r2_g98 - x_r2_g80 >= -1
 lin1_18_2_100: p_r2_g100_h82_t18 - x_r2_g100 <= 0
 lin2_18_2_100: p_r2_g100_h82_t18 - x_r2_g82 <= 0
 lin3_18_2_100: p_r2_g100_h82_t18 - x_r2_g100 - x_r2_g82 >= -1
 lin1_18_2_128: p_r2_g128_h110_t18 - x_r2_g128 <= 0
 lin2_18_2_128: p_r2_g128_h110_t18 - x_r2_g110 <= 0
 lin3_18_2_128: p_r2_g128_h110_t18 - x_r2_g128 - x_r2_g110 >= -1
 lin1_18_3_13: p_r3_g13_h162_t18 - x_r3_g13 <= 0
 lin2_18_3_13: p_r3_g13_h162_t18 - x_r3_g162 <= 0
 lin3_18_3_13: p_r3_g13_h162_t18 - x_r3_g13 - x_r3_g162 >= -1
 lin1_18_3_16: p_r3_g16_h165_t18 - x_r3_g16 <= 0
 lin2_18_3_16: p_r3_g16_h165_t18 - x_r3_g165 <= 0
 lin3_18_3_16: p_r3_g16_h165_t18 - x_r3_g16 - x_r3_g165 >= -1
 lin1_18_3_33: p_r3_g33_h15_t18 - x_r3_g33 <= 0
 lin2_18_3_33: p_r3_g33_h15_t18 - x_r3_g15 <= 0
 lin3_18_3_33: p_r3_g33_h15_t18 - x_r3_g33 - x_r3_g15 >= -1
 lin1_18_3_34: p_r3_g34_h16_t18 - x_r3_g34 <= 0
 lin2_18_3_34: p_r3_g34_h16_t18 - x_r3_g16 <= 0
 lin3_18_3_34: p_r3_g34_h16_t18 - x_r3_g34 - x_r3_g16 >= -1
 lin1_18_3_36: p_r3_g36_h18_t18 - x_r3_g36 <= 0
 lin2_18_3_36: p_r3_g36_h18_t18 - x_r3_g18 <= 0
 lin3_18_3_36: p_r3_g36_h18_t18 - x_r3_g36 - x_r3_g18 >= -1
 lin1_18_3_51: p_r3_g51_h33_t18 - x_r3_g51 <= 0
 lin2_18_3_51: p_r3_g51_h33_t18 - x_r3_g33 <= 0
 lin3_18_3_51: p_r3_g51_h33_t18 - x_r3_g51 - x_r3_g33 >= -1
 lin1_18_3_121: p_r3_g121_h103_t18 - x_r3_g121 <= 0
 lin2_18_3_121: p_r3_g121_h103_t18 - x_r3_g103 <= 0
 lin3_18_3_121: p_r3_g121_h103_t18 - x_r3_g121 - x_r3_g103 >= -1
 lin1_18_3_124: p_r3_g124_h106_t18 - x_r3_g124 <= 0
 lin2_18_3_124: p_r3_g124_h106_t18 - x_r3_g106 <= 0
 lin3_18_3_124: p_r3_g124_h106_t18 - x_r3_g124 - x_r3_g106 >= -1
 lin1_18_3_162: p_r3_g162_h144_t18 - x_r3_g162 <= 0
 lin2_18_3_162: p_r3_g162_h144_t18 - x_r3_g144 <= 0
 lin3_18_3_162: p_r3_g162_h144_t18 - x_r3_g162 - x_r3_g144 >= -1
 lin1_18_3_165: p_r3_g165_h147_t18 - x_r3_g165 <= 0
 lin2_18_3_165: p_r3_g165_h147_t18 - x_r3_g147 <= 0
 lin3_18_3_165: p_r3_g165_h147_t18 - x_r3_g165 - x_r3_g147 >= -1
 defect_18: 1 d_18 - 1 x_r0_g1 - 1 x_r0_g9 - 1 x_r0_g14 - 1 x_r0_g20 - 1 x_r0_g22 - 1 x_r0_g23 - 1 x_r0_g25 - 1 x_r0_g34 - 2 x_r0_g37 - 1 x_r0_g47 - 1 x_r0_g48 - 1 x_r0_g60 - 1 x_r0_g67 - 1 x_r0_g69 - 2 x_r0_g70 - 1 x_r0_g101 - 1 x_r0_g102 - 2 x_r0_g118 - 2 x_r0_g121 - 2 x_r0_g131 - 1 x_r0_g143 - 1 x_r0_g144 - 1 x_r0_g162 - 1 x_r1_g8 - 2 x_r1_g11 - 1 x_r1_g15 - 1 x_r1_g17 - 1 x_r1_g31 - 2 x_r1_g38 - 1 x_r1_g62 - 2 x_r1_g64 - 1 x_r1_g67 - 1 x_r1_g75 - 1 x_r1_g80 - 1 x_r1_g83 - 1 x_r1_g91 - 1 x_r1_g96 - 1 x_r1_g107 - 1 x_r1_g113 - 1 x_r1_g121 - 1 x_r1_g146 - 2 x_r2_g2 - 1 x_r2_g18 - 1 x_r2_g60 - 1 x_r2_g64 - 2 x_r2_g67 - 1 x_r2_g74 - 2 x_r2_g86 - 1 x_r2_g95 - 1 x_r2_g98 - 2 x_r2_g111 - 1 x_r2_g120 - 1 x_r2_g128 - 1 x_r2_g135 - 2 x_r2_g139 - 1 x_r2_g142 - 1 x_r2_g149 - 1 x_r2_g152 - 1 x_r2_g155 - 1 x_r2_g158 - 1 x_r2_g163 - 1 x_r2_g164 - 1 x_r3_g8 - 1 x_r3_g11 - 2 x_r3_g19 - 2 x_r3_g27 - 2 x_r3_g56 - 2 x_r3_g57 - 2 x_r3_g65 - 1 x_r3_g77 - 1 x_r3_g79 - 2 x_r3_g94 - 1 x_r3_g111 - 1 x_r3_g121 - 1 x_r3_g124 - 1 x_r3_g125 - 1 x_r3_g128 - 2 x_r3_g145 - 1 x_r3_g147 - 1 x_r3_g154 - 1 p_r0_g4_h153_t18 - 1 p_r0_g22_h4_t18 - 1 p_r0_g25_h7_t18 - 1 p_r0_g32_h14_t18 - 1 p_r0_g35_h17_t18 - 1 p_r0_g54_h36_t18 - 1 p_r0_g87_h69_t18 - 1 p_r0_g97_h79_t18 - 1 p_r0_g102_h84_t18 - 1 p_r0_g162_h144_t18 - 1 p_r1_g8_h157_t18 - 1 p_r1_g31_h13_t18 - 1 p_r1_g35_h17_t18 - 1 p_r1_g53_h35_t18 - 1 p_r1_g80_h62_t18 - 1 p_r1_g93_h75_t18 - 1 p_r1_g108_h90_t18 - 1 p_r1_g111_h93_t18 - 1 p_r1_g114_h96_t18 - 1 p_r1_g126_h108_t18 - 1 p_r1_g128_h110_t18 - 1 p_r1_g132_h114_t18 - 1 p_r1_g146_h128_t18 - 1 p_r1_g161_h143_t18 - 1 p_r2_g48_h30_t18 - 1 p_r2_g66_h48_t18 - 1 p_r2_g80_h62_t18 - 1 p_r2_g82_h64_t18 - 1 p_r2_g91_h73_t18 - 1 p_r2_g95_h77_t18 - 1 p_r2_g98_h80_t18 - 1 p_r2_g100_h82_t18 - 1 p_r2_g128_h110_t18 - 1 p_r3_g13_h162_t18 - 1 p_r3_g16_h165_t18 - 1 p_r3_g33_h15_t18 - 1 p_r3_g34_h16_t18 - 1 p_r3_g36_h18_t18 - 1 p_r3_g51_h33_t18 - 1 p_r3_g121_h103_t18 - 1 p_r3_g124_h106_t18 - 1 p_r3_g162_h144_t18 - 1 p_r3_g165_h147_t18 = -76
 abs_pos_18: d_18 - u_18 <= 0
 abs_neg_18: - d_18 - u_18 <= 0
 max_def_18: u_18 - M <= 0
 cap_18: u_18 <= 2
 lin1_19_0_14: p_r0_g14_h162_t19 - x_r0_g14 <= 0
 lin2_19_0_14: p_r0_g14_h162_t19 - x_r0_g162 <= 0
 lin3_19_0_14: p_r0_g14_h162_t19 - x_r0_g14 - x_r0_g162 >= -1
 lin1_19_0_20: p_r0_g20_h1_t19 - x_r0_g20 <= 0
 lin2_19_0_20: p_r0_g20_h1_t19 - x_r0_g1 <= 0
 lin3_19_0_20: p_r0_g20_h1_t19 - x_r0_g20 - x_r0_g1 >= -1
 lin1_19_0_23: p_r0_g23_h4_t19 - x_r0_g23 <= 0
 lin2_19_0_23: p_r0_g23_h4_t19 - x_r0_g4 <= 0
 lin3_19_0_23: p_r0_g23_h4_t19 - x_r0_g23 - x_r0_g4 >= -1
 lin1_19_0_26: p_r0_g26_h7_t19 - x_r0_g26 <= 0
 lin2_19_0_26: p_r0_g26_h7_t19 - x_r0_g7 <= 0
 lin3_19_0_26: p_r0_g26_h7_t19 - x_r0_g26 - x_r0_g7 >= -1
 lin1_19_0_28: p_r0_g28_h9_t19 - x_r0_g28 <= 0
 lin2_19_0_28: p_r0_g28_h9_t19 - x_r0_g9 <= 0
 lin3_19_0_28: p_r0_g28_h9_t19 - x_r0_g28 - x_r0_g9 >= -1
 lin1_19_0_36: p_r0_g36_h17_t19 - x_r0_g36 <= 0
 lin2_19_0_36: p_r0_g36_h17_t19 - x_r0_g17 <= 0
 lin3_19_0_36: p_r0_g36_h17_t19 - x_r0_g36 - x_r0_g17 >= -1
 lin1_19_0_47: p_r0_g47_h28_t19 - x_r0_g47 <= 0
 lin2_19_0_47: p_r0_g47_h28_t19 - x_r0_g28 <= 0
 lin3_19_0_47: p_r0_g47_h28_t19 - x_r0_g47 - x_r0_g28 >= -1
 lin1_19_0_54: p_r0_g54_h35_t19 - x_r0_g54 <= 0
 lin2_19_0_54: p_r0_g54_h35_t19 - x_r0_g35 <= 0
 lin3_19_0_54: p_r0_g54_h35_t19 - x_r0_g54 - x_r0_g35 >= -1
 lin1_19_0_67: p_r0_g67_h48_t19 - x_r0_g67 <= 0
 lin2_19_0_67: p_r0_g67_h48_t19 - x_r0_g48 <= 0
 lin3_19_0_67: p_r0_g67_h48_t19 - x_r0_g67 - x_r0_g48 >= -1
 lin1_19_0_79: p_r0_g79_h60_t19 - x_r0_g79 <= 0
 lin2_19_0_79: p_r0_g79_h60_t19 - x_r0_g60 <= 0
 lin3_19_0_79: p_r0_g79_h60_t19 - x_r0_g79 - x_r0_g60 >= -1
 lin1_19_0_87: p_r0_g87_h68_t19 - x_r0_g87 <= 0
 lin2_19_0_87: p_r0_g87_h68_t19 - x_r0_g68 <= 0
 lin3_19_0_87: p_r0_g87_h68_t19 - x_r0_g87 - x_r0_g68 >= -1
 lin1_19_0_121: p_r0_g121_h102_t19 - x_r0_g121 <= 0
 lin2_19_0_121: p_r0_g121_h102_t19 - x_r0_g102 <= 0
 lin3_19_0_121: p_r0_g121_h102_t19 - x_r0_g121 - x_r0_g102 >= -1
 lin1_19_0_162: p_r0_g162_h143_t19 - x_r0_g162 <= 0
 lin2_19_0_162: p_r0_g162_h143_t19 - x_r0_g143 <= 0
 lin3_19_0_162: p_r0_g162_h143_t19 - x_r0_g162 - x_r0_g143 >= -1
 lin1_19_1_13: p_r1_g13_h161_t19 - x_r1_g13 <= 0
 lin2_19_1_13: p_r1_g13_h161_t19 - x_r1_g161 <= 0
 lin3_19_1_13: p_r1_g13_h161_t19 - x_r1_g13 - x_r1_g161 >= -1
 lin1_19_1_30: p_r1_g30_h11_t19 - x_r1_g30 <= 0
 lin2_19_1_30: p_r1_g30_h11_t19 - x_r1_g11 <= 0
 lin3_19_1_30: p_r1_g30_h11_t19 - x_r1_g30 - x_r1_g11 >= -1
 lin1_19_1_83: p_r1_g83_h64_t19 - x_r1_g83 <= 0
 lin2_19_1_83: p_r1_g83_h64_t19 - x_r1_g64 <= 0
 lin3_19_1_83: p_r1_g83_h64_t19 - x_r1_g83 - x_r1_g64 >= -1
 lin1_19_1_110: p_r1_g110_h91_t19 - x_r1_g110 <= 0
 lin2_19_1_110: p_r1_g110_h91_t19 - x_r1_g91 <= 0
 lin3_19_1_110: p_r1_g110_h91_t19 - x_r1_g110 - x_r1_g91 >= -1
 lin1_19_1_126: p_r1_g126_h107_t19 - x_r1_g126 <= 0
 lin2_19_1_126: p_r1_g126_h107_t19 - x_r1_g107 <= 0
 lin3_19_1_126: p_r1_g126_h107_t19 - x_r1_g126 - x_r1_g107 >= -1
 lin1_19_1_132: p_r1_g132_h113_t19 - x_r1_g132 <= 0
 lin2_19_1_132: p_r1_g132_h113_t19 - x_r1_g113 <= 0
 lin3_19_1_132: p_r1_g132_h113_t19 - x_r1_g132 - x_r1_g113 >= -1
 lin1_19_2_48: p_r2_g48_h29_t19 - x_r2_g48 <= 0
 lin2_19_2_48: p_r2_g48_h29_t19 - x_r2_g29 <= 0
 lin3_19_2_48: p_r2_g48_h29_t19 - x_r2_g48 - x_r2_g29 >= -1
 lin1_19_2_67: p_r2_g67_h48_t19 - x_r2_g67 <= 0
 lin2_19_2_67: p_r2_g67_h48_t19 - x_r2_g48 <= 0
 lin3_19_2_67: p_r2_g67_h48_t19 - x_r2_g67 - x_r2_g48 >= -1
 lin1_19_2_86: p_r2_g86_h67_t19 - x_r2_g86 <= 0
 lin2_19_2_86: p_r2_g86_h67_t19 - x_r2_g67 <= 0
 lin3_19_2_86: p_r2_g86_h67_t19 - x_r2_g86 - x_r2_g67 >= -1
 lin1_19_2_110: p_r2_g110_h91_t19 - x_r2_g110 <= 0
 lin2_19_2_110: p_r2_g110_h91_t19 - x_r2_g91 <= 0
 lin3_19_2_110: p_r2_g110_h91_t19 - x_r2_g110 - x_r2_g91 >= -1
 lin1_19_2_139: p_r2_g139_h120_t19 - x_r2_g139 <= 0
 lin2_19_2_139: p_r2_g139_h120_t19 - x_r2_g120 <= 0
 lin3_19_2_139: p_r2_g139_h120_t19 - x_r2_g139 - x_r2_g120 >= -1
 lin1_19_2_155: p_r2_g155_h136_t19 - x_r2_g155 <= 0
 lin2_19_2_155: p_r2_g155_h136_t19 - x_r2_g136 <= 0
 lin3_19_2_155: p_r2_g155_h136_t19 - x_r2_g155 - x_r2_g136 >= -1
 lin1_19_2_158: p_r2_g158_h139_t19 - x_r2_g158 <= 0
 lin2_19_2_158: p_r2_g158_h139_t19 - x_r2_g139 <= 0
 lin3_19_2_158: p_r2_g158_h139_t19 - x_r2_g158 - x_r2_g139 >= -1
 lin1_19_3_11: p_r3_g11_h159_t19 - x_r3_g11 <= 0
 lin2_19_3_11: p_r3_g11_h159_t19 - x_r3_g159 <= 0
 lin3_19_3_11: p_r3_g11_h159_t19 - x_r3_g11 - x_r3_g159 >= -1
 lin1_19_3_27: p_r3_g27_h8_t19 - x_r3_g27 <= 0
 lin2_19_3_27: p_r3_g27_h8_t19 - x_r3_g8 <= 0
 lin3_19_3_27: p_r3_g27_h8_t19 - x_r3_g27 - x_r3_g8 >= -1
 lin1_19_3_34: p_r3_g34_h15_t19 - x_r3_g34 <= 0
 lin2_19_3_34: p_r3_g34_h15_t19 - x_r3_g15 <= 0
 lin3_19_3_34: p_r3_g34_h15_t19 - x_r3_g34 - x_r3_g15 >= -1
 lin1_19_3_53: p_r3_g53_h34_t19 - x_r3_g53 <= 0
 lin2_19_3_53: p_r3_g53_h34_t19 - x_r3_g34 <= 0
 lin3_19_3_53: p_r3_g53_h34_t19 - x_r3_g53 - x_r3_g34 >= -1
 lin1_19_3_72: p_r3_g72_h53_t19 - x_r3_g72 <= 0
 lin2_19_3_72: p_r3_g72_h53_t19 - x_r3_g53 <= 0
 lin3_19_3_72: p_r3_g72_h53_t19 - x_r3_g72 - x_r3_g53 >= -1
 lin1_19_3_91: p_r3_g91_h72_t19 - x_r3_g91 <= 0
 lin2_19_3_91: p_r3_g91_h72_t19 - x_r3_g72 <= 0
 lin3_19_3_91: p_r3_g91_h72_t19 - x_r3_g91 - x_r3_g72 >= -1
 lin1_19_3_113: p_r3_g113_h94_t19 - x_r3_g113 <= 0
 lin2_19_3_113: p_r3_g113_h94_t19 - x_r3_g94 <= 0
 lin3_19_3_113: p_r3_g113_h94_t19 - x_r3_g113 - x_r3_g94 >= -1
 lin1_19_3_125: p_r3_g125_h106_t19 - x_r3_g125 <= 0
 lin2_19_3_125: p_r3_g125_h106_t19 - x_r3_g106 <= 0
 lin3_19_3_125: p_r3_g125_h106_t19 - x_r3_g125 - x_r3_g106 >= -1
 lin1_19_3_144: p_r3_g144_h125_t19 - x_r3_g144 <= 0
 lin2_19_3_144: p_r3_g144_h125_t19 - x_r3_g125 <= 0
 lin3_19_3_144: p_r3_g144_h125_t19 - x_r3_g144 - x_r3_g125 >= -1
 lin1_19_3_147: p_r3_g147_h128_t19 - x_r3_g147 <= 0
 lin2_19_3_147: p_r3_g147_h128_t19 - x_r3_g128 <= 0
 lin3_19_3_147: p_r3_g147_h128_t19 - x_r3_g147 - x_r3_g128 >= -1
 defect_19: 1 d_19 - 1 x_r0_g1 - 1 x_r0_g4 - 1 x_r0_g7 - 1 x_r0_g9 - 1 x_r0_g17 - 1 x_r0_g22 - 1 x_r0_g23 - 1 x_r0_g25 - 1 x_r0_g26 - 2 x_r0_g32 - 1 x_r0_g34 - 1 x_r0_g36 - 1 x_r0_g68 - 1 x_r0_g69 - 1 x_r0_g70 - 1 x_r0_g79 - 2 x_r0_g84 - 1 x_r0_g87 - 1 x_r0_g97 - 1 x_r0_g101 - 1 x_r0_g118 - 1 x_r0_g123 - 1 x_r0_g130 - 2 x_r0_g144 - 1 x_r0_g153 - 2 x_r1_g8 - 1 x_r1_g11 - 1 x_r1_g13 - 1 x_r1_g15 - 1 x_r1_g17 - 1 x_r1_g25 - 1 x_r1_g30 - 1 x_r1_g35 - 1 x_r1_g38 - 2 x_r1_g59 - 1 x_r1_g62 - 1 x_r1_g75 - 2 x_r1_g76 - 1 x_r1_g90 - 1 x_r1_g93 - 1 x_r1_g96 - 1 x_r1_g107 - 2 x_r1_g108 - 1 x_r1_g111 - 1 x_r1_g114 - 1 x_r1_g117 - 1 x_r1_g121 - 1 x_r1_g128 - 1 x_r1_g143 - 1 x_r1_g146 - 1 x_r1_g157 - 2 x_r2_g2 - 1 x_r2_g30 - 1 x_r2_g60 - 1 x_r2_g62 - 1 x_r2_g64 - 1 x_r2_g66 - 1 x_r2_g74 - 1 x_r2_g77 - 1 x_r2_g80 - 2 x_r2_g82 - 1 x_r2_g86 - 1 x_r2_g95 - 1 x_r2_g100 - 1 x_r2_g107 - 1 x_r2_g110 - 1 x_r2_g111 - 1 x_r2_g120 - 1 x_r2_g135 - 1 x_r2_g142 - 2 x_r2_g149 - 1 x_r2_g152 - 1 x_r2_g155 - 1 x_r2_g159 - 1 x_r2_g162 - 1 x_r2_g165 - 2 x_r3_g3 - 1 x_r3_g7 - 1 x_r3_g11 - 1 x_r3_g13 - 1 x_r3_g15 - 2 x_r3_g18 - 1 x_r3_g19 - 1 x_r3_g27 - 2 x_r3_g36 - 1 x_r3_g51 - 2 x_r3_g56 - 2 x_r3_g57 - 1 x_r3_g65 - 1 x_r3_g79 - 1 x_r3_g91 - 1 x_r3_g94 - 1 x_r3_g103 - 1 x_r3_g113 - 1 x_r3_g121 - 1 x_r3_g123 - 1 x_r3_g124 - 1 x_r3_g138 - 1 x_r3_g144 - 1 x_r3_g147 - 1 x_r3_g154 - 1 x_r3_g159 - 1 x_r3_g162 - 1 x_r3_g165 - 1 p_r0_g14_h162_t19 - 1 p_r0_g20_h1_t19 - 1 p_r0_g23_h4_t19 - 1 p_r0_g26_h7_t19 - 1 p_r0_g28_h9_t19 - 1 p_r0_g36_h17_t19 - 1 p_r0_g47_h28_t19 - 1 p_r0_g54_h35_t19 - 1 p_r0_g67_h48_t19 - 1 p_r0_g79_h60_t19 - 1 p_r0_g87_h68_t19 - 1 p_r0_g121_h102_t19 - 1 p_r0_g162_h143_t19 - 1 p_r1_g13_h161_t19 - 1 p_r1_g30_h11_t19 - 1 p_r1_g83_h64_t19 - 1 p_r1_g110_h91_t19 - 1 p_r1_g126_h107_t19 - 1 p_r1_g132_h113_t19 - 1 p_r2_g48_h29_t19 - 1 p_r2_g67_h48_t19 - 1 p_r2_g86_h67_t19 - 1 p_r2_g110_h91_t19 - 1 p_r2_g139_h120_t19 - 1 p_r2_g155_h136_t19 - 1 p_r2_g158_h139_t19 - 1 p_r3_g11_h159_t19 - 1 p_r3_g27_h8_t19 - 1 p_r3_g34_h15_t19 - 1 p_r3_g53_h34_t19 - 1 p_r3_g72_h53_t19 - 1 p_r3_g91_h72_t19 - 1 p_r3_g113_h94_t19 - 1 p_r3_g125_h106_t19 - 1 p_r3_g144_h125_t19 - 1 p_r3_g147_h128_t19 = -54
 abs_pos_19: d_19 - u_19 <= 0
 abs_neg_19: - d_19 - u_19 <= 0
 max_def_19: u_19 - M <= 0
 cap_19: u_19 <= 2
 lin1_20_0_34: p_r0_g34_h14_t20 - x_r0_g34 <= 0
 lin2_20_0_34: p_r0_g34_h14_t20 - x_r0_g14 <= 0
 lin3_20_0_34: p_r0_g34_h14_t20 - x_r0_g34 - x_r0_g14 >= -1
 lin1_20_0_37: p_r0_g37_h17_t20 - x_r0_g37 <= 0
 lin2_20_0_37: p_r0_g37_h17_t20 - x_r0_g17 <= 0
 lin3_20_0_37: p_r0_g37_h17_t20 - x_r0_g37 - x_r0_g17 >= -1
 lin1_20_0_48: p_r0_g48_h28_t20 - x_r0_g48 <= 0
 lin2_20_0_48: p_r0_g48_h28_t20 - x_r0_g28 <= 0
 lin3_20_0_48: p_r0_g48_h28_t20 - x_r0_g48 - x_r0_g28 >= -1
 lin1_20_0_54: p_r0_g54_h34_t20 - x_r0_g54 <= 0
 lin2_20_0_54: p_r0_g54_h34_t20 - x_r0_g34 <= 0
 lin3_20_0_54: p_r0_g54_h34_t20 - x_r0_g54 - x_r0_g34 >= -1
 lin1_20_0_67: p_r0_g67_h47_t20 - x_r0_g67 <= 0
 lin2_20_0_67: p_r0_g67_h47_t20 - x_r0_g47 <= 0
 lin3_20_0_67: p_r0_g67_h47_t20 - x_r0_g67 - x_r0_g47 >= -1
 lin1_20_0_68: p_r0_g68_h48_t20 - x_r0_g68 <= 0
 lin2_20_0_68: p_r0_g68_h48_t20 - x_r0_g48 <= 0
 lin3_20_0_68: p_r0_g68_h48_t20 - x_r0_g68 - x_r0_g48 >= -1
 lin1_20_0_87: p_r0_g87_h67_t20 - x_r0_g87 <= 0
 lin2_20_0_87: p_r0_g87_h67_t20 - x_r0_g67 <= 0
 lin3_20_0_87: p_r0_g87_h67_t20 - x_r0_g87 - x_r0_g67 >= -1
 lin1_20_0_121: p_r0_g121_h101_t20 - x_r0_g121 <= 0
 lin2_20_0_121: p_r0_g121_h101_t20 - x_r0_g101 <= 0
 lin3_20_0_121: p_r0_g121_h101_t20 - x_r0_g121 - x_r0_g101 >= -1
 lin1_20_0_143: p_r0_g143_h123_t20 - x_r0_g143 <= 0
 lin2_20_0_143: p_r0_g143_h123_t20 - x_r0_g123 <= 0
 lin3_20_0_143: p_r0_g143_h123_t20 - x_r0_g143 - x_r0_g123 >= -1
 lin1_20_1_8: p_r1_g8_h155_t20 - x_r1_g8 <= 0
 lin2_20_1_8: p_r1_g8_h155_t20 - x_r1_g155 <= 0
 lin3_20_1_8: p_r1_g8_h155_t20 - x_r1_g8 - x_r1_g155 >= -1
 lin1_20_1_31: p_r1_g31_h11_t20 - x_r1_g31 <= 0
 lin2_20_1_31: p_r1_g31_h11_t20 - x_r1_g11 <= 0
 lin3_20_1_31: p_r1_g31_h11_t20 - x_r1_g31 - x_r1_g11 >= -1
 lin1_20_1_35: p_r1_g35_h15_t20 - x_r1_g35 <= 0
 lin2_20_1_35: p_r1_g35_h15_t20 - x_r1_g15 <= 0
 lin3_20_1_35: p_r1_g35_h15_t20 - x_r1_g35 - x_r1_g15 >= -1
 lin1_20_1_96: p_r1_g96_h76_t20 - x_r1_g96 <= 0
 lin2_20_1_96: p_r1_g96_h76_t20 - x_r1_g76 <= 0
 lin3_20_1_96: p_r1_g96_h76_t20 - x_r1_g96 - x_r1_g76 >= -1
 lin1_20_1_110: p_r1_g110_h90_t20 - x_r1_g110 <= 0
 lin2_20_1_110: p_r1_g110_h90_t20 - x_r1_g90 <= 0
 lin3_20_1_110: p_r1_g110_h90_t20 - x_r1_g110 - x_r1_g90 >= -1
 lin1_20_1_111: p_r1_g111_h91_t20 - x_r1_g111 <= 0
 lin2_20_1_111: p_r1_g111_h91_t20 - x_r1_g91 <= 0
 lin3_20_1_111: p_r1_g111_h91_t20 - x_r1_g111 - x_r1_g91 >= -1
 lin1_20_1_113: p_r1_g113_h93_t20 - x_r1_g113 <= 0
 lin2_20_1_113: p_r1_g113_h93_t20 - x_r1_g93 <= 0
 lin3_20_1_113: p_r1_g113_h93_t20 - x_r1_g113 - x_r1_g93 >= -1
 lin1_20_1_128: p_r1_g128_h108_t20 - x_r1_g128 <= 0
 lin2_20_1_128: p_r1_g128_h108_t20 - x_r1_g108 <= 0
 lin3_20_1_128: p_r1_g128_h108_t20 - x_r1_g128 - x_r1_g108 >= -1
 lin1_20_1_146: p_r1_g146_h126_t20 - x_r1_g146 <= 0
 lin2_20_1_146: p_r1_g146_h126_t20 - x_r1_g126 <= 0
 lin3_20_1_146: p_r1_g146_h126_t20 - x_r1_g146 - x_r1_g126 >= -1
 lin1_20_2_2: p_r2_g2_h149_t20 - x_r2_g2 <= 0
 lin2_20_2_2: p_r2_g2_h149_t20 - x_r2_g149 <= 0
 lin3_20_2_2: p_r2_g2_h149_t20 - x_r2_g2 - x_r2_g149 >= -1
 lin1_20_2_18: p_r2_g18_h165_t20 - x_r2_g18 <= 0
 lin2_20_2_18: p_r2_g18_h165_t20 - x_r2_g165 <= 0
 lin3_20_2_18: p_r2_g18_h165_t20 - x_r2_g18 - x_r2_g165 >= -1
 lin1_20_2_80: p_r2_g80_h60_t20 - x_r2_g80 <= 0
 lin2_20_2_80: p_r2_g80_h60_t20 - x_r2_g60 <= 0
 lin3_20_2_80: p_r2_g80_h60_t20 - x_r2_g80 - x_r2_g60 >= -1
 lin1_20_2_82: p_r2_g82_h62_t20 - x_r2_g82 <= 0
 lin2_20_2_82: p_r2_g82_h62_t20 - x_r2_g62 <= 0
 lin3_20_2_82: p_r2_g82_h62_t20 - x_r2_g82 - x_r2_g62 >= -1
 lin1_20_2_86: p_r2_g86_h66_t20 - x_r2_g86 <= 0
 lin2_20_2_86: p_r2_g86_h66_t20 - x_r2_g66 <= 0
 lin3_20_2_86: p_r2_g86_h66_t20 - x_r2_g86 - x_r2_g66 >= -1
 lin1_20_2_100: p_r2_g100_h80_t20 - x_r2_g100 <= 0
 lin2_20_2_100: p_r2_g100_h80_t20 - x_r2_g80 <= 0
 lin3_20_2_100: p_r2_g100_h80_t20 - x_r2_g100 - x_r2_g80 >= -1
 lin1_20_2_111: p_r2_g111_h91_t20 - x_r2_g111 <= 0
 lin2_20_2_111: p_r2_g111_h91_t20 - x_r2_g91 <= 0
 lin3_20_2_111: p_r2_g111_h91_t20 - x_r2_g111 - x_r2_g91 >= -1
 lin1_20_2_120: p_r2_g120_h100_t20 - x_r2_g120 <= 0
 lin2_20_2_120: p_r2_g120_h100_t20 - x_r2_g100 <= 0
 lin3_20_2_120: p_r2_g120_h100_t20 - x_r2_g120 - x_r2_g100 >= -1
 lin1_20_2_155: p_r2_g155_h135_t20 - x_r2_g155 <= 0
 lin2_20_2_155: p_r2_g155_h135_t20 - x_r2_g135 <= 0
 lin3_20_2_155: p_r2_g155_h135_t20 - x_r2_g155 - x_r2_g135 >= -1
 lin1_20_2_159: p_r2_g159_h139_t20 - x_r2_g159 <= 0
 lin2_20_2_159: p_r2_g159_h139_t20 - x_r2_g139 <= 0
 lin3_20_2_159: p_r2_g159_h139_t20 - x_r2_g159 - x_r2_g139 >= -1
 lin1_20_2_162: p_r2_g162_h142_t20 - x_r2_g162 <= 0
 lin2_20_2_162: p_r2_g162_h142_t20 - x_r2_g142 <= 0
 lin3_20_2_162: p_r2_g162_h142_t20 - x_r2_g162 - x_r2_g142 >= -1
 lin1_20_3_7: p_r3_g7_h154_t20 - x_r3_g7 <= 0
 lin2_20_3_7: p_r3_g7_h154_t20 - x_r3_g154 <= 0
 lin3_20_3_7: p_r3_g7_h154_t20 - x_r3_g7 - x_r3_g154 >= -1
 lin1_20_3_15: p_r3_g15_h162_t20 - x_r3_g15 <= 0
 lin2_20_3_15: p_r3_g15_h162_t20 - x_r3_g162 <= 0
 lin3_20_3_15: p_r3_g15_h162_t20 - x_r3_g15 - x_r3_g162 >= -1
 lin1_20_3_18: p_r3_g18_h165_t20 - x_r3_g18 <= 0
 lin2_20_3_18: p_r3_g18_h165_t20 - x_r3_g165 <= 0
 lin3_20_3_18: p_r3_g18_h165_t20 - x_r3_g18 - x_r3_g165 >= -1
 lin1_20_3_27: p_r3_g27_h7_t20 - x_r3_g27 <= 0
 lin2_20_3_27: p_r3_g27_h7_t20 - x_r3_g7 <= 0
 lin3_20_3_27: p_r3_g27_h7_t20 - x_r3_g27 - x_r3_g7 >= -1
 lin1_20_3_33: p_r3_g33_h13_t20 - x_r3_g33 <= 0
 lin2_20_3_33: p_r3_g33_h13_t20 - x_r3_g13 <= 0
 lin3_20_3_33: p_r3_g33_h13_t20 - x_r3_g33 - x_r3_g13 >= -1
 lin1_20_3_36: p_r3_g36_h16_t20 - x_r3_g36 <= 0
 lin2_20_3_36: p_r3_g36_h16_t20 - x_r3_g16 <= 0
 lin3_20_3_36: p_r3_g36_h16_t20 - x_r3_g36 - x_r3_g16 >= -1
 lin1_20_3_53: p_r3_g53_h33_t20 - x_r3_g53 <= 0
 lin2_20_3_53: p_r3_g53_h33_t20 - x_r3_g33 <= 0
 lin3_20_3_53: p_r3_g53_h33_t20 - x_r3_g53 - x_r3_g33 >= -1
 lin1_20_3_56: p_r3_g56_h36_t20 - x_r3_g56 <= 0
 lin2_20_3_56: p_r3_g56_h36_t20 - x_r3_g36 <= 0
 lin3_20_3_56: p_r3_g56_h36_t20 - x_r3_g56 - x_r3_g36 >= -1
 lin1_20_3_77: p_r3_g77_h57_t20 - x_r3_g77 <= 0
 lin2_20_3_77: p_r3_g77_h57_t20 - x_r3_g57 <= 0
 lin3_20_3_77: p_r3_g77_h57_t20 - x_r3_g77 - x_r3_g57 >= -1
 lin1_20_3_111: p_r3_g111_h91_t20 - x_r3_g111 <= 0
 lin2_20_3_111: p_r3_g111_h91_t20 - x_r3_g91 <= 0
 lin3_20_3_111: p_r3_g111_h91_t20 - x_r3_g111 - x_r3_g91 >= -1
 lin1_20_3_123: p_r3_g123_h103_t20 - x_r3_g123 <= 0
 lin2_20_3_123: p_r3_g123_h103_t20 - x_r3_g103 <= 0
 lin3_20_3_123: p_r3_g123_h103_t20 - x_r3_g123 - x_r3_g103 >= -1
 lin1_20_3_144: p_r3_g144_h124_t20 - x_r3_g144 <= 0
 lin2_20_3_144: p_r3_g144_h124_t20 - x_r3_g124 <= 0
 lin3_20_3_144: p_r3_g144_h124_t20 - x_r3_g144 - x_r3_g124 >= -1
 lin1_20_3_145: p_r3_g145_h125_t20 - x_r3_g145 <= 0
 lin2_20_3_145: p_r3_g145_h125_t20 - x_r3_g125 <= 0
 lin3_20_3_145: p_r3_g145_h125_t20 - x_r3_g145 - x_r3_g125 >= -1
 lin1_20_3_165: p_r3_g165_h145_t20 - x_r3_g165 <= 0
 lin2_20_3_165: p_r3_g165_h145_t20 - x_r3_g145 <= 0
 lin3_20_3_165: p_r3_g165_h145_t20 - x_r3_g165 - x_r3_g145 >= -1
 defect_20: 1 d_20 - 1 x_r0_g4 - 1 x_r0_g20 - 1 x_r0_g22 - 2 x_r0_g23 - 2 x_r0_g25 - 1 x_r0_g26 - 2 x_r0_g32 - 2 x_r0_g35 - 1 x_r0_g54 - 1 x_r0_g60 - 1 x_r0_g68 - 1 x_r0_g69 - 1 x_r0_g70 - 1 x_r0_g79 - 1 x_r0_g97 - 1 x_r0_g102 - 1 x_r0_g118 - 1 x_r0_g123 - 1 x_r0_g131 - 1 x_r0_g143 - 1 x_r0_g153 - 2 x_r0_g162 - 1 x_r1_g13 - 2 x_r1_g17 - 1 x_r1_g30 - 1 x_r1_g38 - 2 x_r1_g59 - 2 x_r1_g62 - 2 x_r1_g64 - 1 x_r1_g67 - 1 x_r1_g75 - 1 x_r1_g76 - 1 x_r1_g80 - 1 x_r1_g83 - 1 x_r1_g90 - 1 x_r1_g96 - 2 x_r1_g107 - 1 x_r1_g108 - 1 x_r1_g110 - 1 x_r1_g121 - 1 x_r1_g132 - 2 x_r1_g143 - 1 x_r1_g146 - 1 x_r1_g157 - 1 x_r1_g161 - 1 x_r2_g29 - 1 x_r2_g34 - 2 x_r2_g48 - 1 x_r2_g66 - 1 x_r2_g67 - 1 x_r2_g70 - 1 x_r2_g73 - 1 x_r2_g74 - 1 x_r2_g82 - 2 x_r2_g95 - 1 x_r2_g98 - 1 x_r2_g107 - 2 x_r2_g110 - 1 x_r2_g120 - 1 x_r2_g128 - 1 x_r2_g135 - 1 x_r2_g136 - 1 x_r2_g139 - 1 x_r2_g142 - 1 x_r2_g149 - 1 x_r2_g152 - 1 x_r3_g8 - 1 x_r3_g13 - 1 x_r3_g16 - 1 x_r3_g18 - 2 x_r3_g19 - 1 x_r3_g27 - 1 x_r3_g56 - 1 x_r3_g57 - 1 x_r3_g65 - 2 x_r3_g79 - 1 x_r3_g94 - 1 x_r3_g103 - 1 x_r3_g106 - 1 x_r3_g123 - 2 x_r3_g128 - 1 x_r3_g138 - 1 x_r3_g147 - 1 x_r3_g154 - 2 x_r3_g159 - 1 x_r3_g162 - 1 p_r0_g34_h14_t20 - 1 p_r0_g37_h17_t20 - 1 p_r0_g48_h28_t20 - 1 p_r0_g54_h34_t20 - 1 p_r0_g67_h47_t20 - 1 p_r0_g68_h48_t20 - 1 p_r0_g87_h67_t20 - 1 p_r0_g121_h101_t20 - 1 p_r0_g143_h123_t20 - 1 p_r1_g8_h155_t20 - 1 p_r1_g31_h11_t20 - 1 p_r1_g35_h15_t20 - 1 p_r1_g96_h76_t20 - 1 p_r1_g110_h90_t20 - 1 p_r1_g111_h91_t20 - 1 p_r1_g113_h93_t20 - 1 p_r1_g128_h108_t20 - 1 p_r1_g146_h126_t20 - 1 p_r2_g2_h149_t20 - 1 p_r2_g18_h165_t20 - 1 p_r2_g80_h60_t20 - 1 p_r2_g82_h62_t20 - 1 p_r2_g86_h66_t20 - 1 p_r2_g100_h80_t20 - 1 p_r2_g111_h91_t20 - 1 p_r2_g120_h100_t20 - 1 p_r2_g155_h135_t20 - 1 p_r2_g159_h139_t20 - 1 p_r2_g162_h142_t20 - 1 p_r3_g7_h154_t20 - 1 p_r3_g15_h162_t20 - 1 p_r3_g18_h165_t20 - 1 p_r3_g27_h7_t20 - 1 p_r3_g33_h13_t20 - 1 p_r3_g36_h16_t20 - 1 p_r3_g53_h33_t20 - 1 p_r3_g56_h36_t20 - 1 p_r3_g77_h57_t20 - 1 p_r3_g111_h91_t20 - 1 p_r3_g123_h103_t20 - 1 p_r3_g144_h124_t20 - 1 p_r3_g145_h125_t20 - 1 p_r3_g165_h145_t20 = -63
 abs_pos_20: d_20 - u_20 <= 0
 abs_neg_20: - d_20 - u_20 <= 0
 max_def_20: u_20 - M <= 0
 cap_20: u_20 <= 0
 lin1_21_0_7: p_r0_g7_h153_t21 - x_r0_g7 <= 0
 lin2_21_0_7: p_r0_g7_h153_t21 - x_r0_g153 <= 0
 lin3_21_0_7: p_r0_g7_h153_t21 - x_r0_g7 - x_r0_g153 >= -1
 lin1_21_0_22: p_r0_g22_h1_t21 - x_r0_g22 <= 0
 lin2_21_0_22: p_r0_g22_h1_t21 - x_r0_g1 <= 0
 lin3_21_0_22: p_r0_g22_h1_t21 - x_r0_g22 - x_r0_g1 >= -1
 lin1_21_0_25: p_r0_g25_h4_t21 - x_r0_g25 <= 0
 lin2_21_0_25: p_r0_g25_h4_t21 - x_r0_g4 <= 0
 lin3_21_0_25: p_r0_g25_h4_t21 - x_r0_g25 - x_r0_g4 >= -1
 lin1_21_0_28: p_r0_g28_h7_t21 - x_r0_g28 <= 0
 lin2_21_0_28: p_r0_g28_h7_t21 - x_r0_g7 <= 0
 lin3_21_0_28: p_r0_g28_h7_t21 - x_r0_g28 - x_r0_g7 >= -1
 lin1_21_0_35: p_r0_g35_h14_t21 - x_r0_g35 <= 0
 lin2_21_0_35: p_r0_g35_h14_t21 - x_r0_g14 <= 0
 lin3_21_0_35: p_r0_g35_h14_t21 - x_r0_g35 - x_r0_g14 >= -1
 lin1_21_0_47: p_r0_g47_h26_t21 - x_r0_g47 <= 0
 lin2_21_0_47: p_r0_g47_h26_t21 - x_r0_g26 <= 0
 lin3_21_0_47: p_r0_g47_h26_t21 - x_r0_g47 - x_r0_g26 >= -1
 lin1_21_0_68: p_r0_g68_h47_t21 - x_r0_g68 <= 0
 lin2_21_0_68: p_r0_g68_h47_t21 - x_r0_g47 <= 0
 lin3_21_0_68: p_r0_g68_h47_t21 - x_r0_g68 - x_r0_g47 >= -1
 lin1_21_0_69: p_r0_g69_h48_t21 - x_r0_g69 <= 0
 lin2_21_0_69: p_r0_g69_h48_t21 - x_r0_g48 <= 0
 lin3_21_0_69: p_r0_g69_h48_t21 - x_r0_g69 - x_r0_g48 >= -1
 lin1_21_0_118: p_r0_g118_h97_t21 - x_r0_g118 <= 0
 lin2_21_0_118: p_r0_g118_h97_t21 - x_r0_g97 <= 0
 lin3_21_0_118: p_r0_g118_h97_t21 - x_r0_g118 - x_r0_g97 >= -1
 lin1_21_0_123: p_r0_g123_h102_t21 - x_r0_g123 <= 0
 lin2_21_0_123: p_r0_g123_h102_t21 - x_r0_g102 <= 0
 lin3_21_0_123: p_r0_g123_h102_t21 - x_r0_g123 - x_r0_g102 >= -1
 lin1_21_0_144: p_r0_g144_h123_t21 - x_r0_g144 <= 0
 lin2_21_0_144: p_r0_g144_h123_t21 - x_r0_g123 <= 0
 lin3_21_0_144: p_r0_g144_h123_t21 - x_r0_g144 - x_r0_g123 >= -1
 lin1_21_1_8: p_r1_g8_h154_t21 - x_r1_g8 <= 0
 lin2_21_1_8: p_r1_g8_h154_t21 - x_r1_g154 <= 0
 lin3_21_1_8: p_r1_g8_h154_t21 - x_r1_g8 - x_r1_g154 >= -1
 lin1_21_1_11: p_r1_g11_h157_t21 - x_r1_g11 <= 0
 lin2_21_1_11: p_r1_g11_h157_t21 - x_r1_g157 <= 0
 lin3_21_1_11: p_r1_g11_h157_t21 - x_r1_g11 - x_r1_g157 >= -1
 lin1_21_1_15: p_r1_g15_h161_t21 - x_r1_g15 <= 0
 lin2_21_1_15: p_r1_g15_h161_t21 - x_r1_g161 <= 0
 lin3_21_1_15: p_r1_g15_h161_t21 - x_r1_g15 - x_r1_g161 >= -1
 lin1_21_1_38: p_r1_g38_h17_t21 - x_r1_g38 <= 0
 lin2_21_1_38: p_r1_g38_h17_t21 - x_r1_g17 <= 0
 lin3_21_1_38: p_r1_g38_h17_t21 - x_r1_g38 - x_r1_g17 >= -1
 lin1_21_1_59: p_r1_g59_h38_t21 - x_r1_g59 <= 0
 lin2_21_1_59: p_r1_g59_h38_t21 - x_r1_g38 <= 0
 lin3_21_1_59: p_r1_g59_h38_t21 - x_r1_g59 - x_r1_g38 >= -1
 lin1_21_1_80: p_r1_g80_h59_t21 - x_r1_g80 <= 0
 lin2_21_1_80: p_r1_g80_h59_t21 - x_r1_g59 <= 0
 lin3_21_1_80: p_r1_g80_h59_t21 - x_r1_g80 - x_r1_g59 >= -1
 lin1_21_1_83: p_r1_g83_h62_t21 - x_r1_g83 <= 0
 lin2_21_1_83: p_r1_g83_h62_t21 - x_r1_g62 <= 0
 lin3_21_1_83: p_r1_g83_h62_t21 - x_r1_g83 - x_r1_g62 >= -1
 lin1_21_1_96: p_r1_g96_h75_t21 - x_r1_g96 <= 0
 lin2_21_1_96: p_r1_g96_h75_t21 - x_r1_g75 <= 0
 lin3_21_1_96: p_r1_g96_h75_t21 - x_r1_g96 - x_r1_g75 >= -1
 lin1_21_1_111: p_r1_g111_h90_t21 - x_r1_g111 <= 0
 lin2_21_1_111: p_r1_g111_h90_t21 - x_r1_g90 <= 0
 lin3_21_1_111: p_r1_g111_h90_t21 - x_r1_g111 - x_r1_g90 >= -1
 lin1_21_1_114: p_r1_g114_h93_t21 - x_r1_g114 <= 0
 lin2_21_1_114: p_r1_g114_h93_t21 - x_r1_g93 <= 0
 lin3_21_1_114: p_r1_g114_h93_t21 - x_r1_g114 - x_r1_g93 >= -1
 lin1_21_1_117: p_r1_g117_h96_t21 - x_r1_g117 <= 0
 lin2_21_1_117: p_r1_g117_h96_t21 - x_r1_g96 <= 0
 lin3_21_1_117: p_r1_g117_h96_t21 - x_r1_g117 - x_r1_g96 >= -1
 lin1_21_1_128: p_r1_g128_h107_t21 - x_r1_g128 <= 0
 lin2_21_1_128: p_r1_g128_h107_t21 - x_r1_g107 <= 0
 lin3_21_1_128: p_r1_g128_h107_t21 - x_r1_g128 - x_r1_g107 >= -1
 lin1_21_1_132: p_r1_g132_h111_t21 - x_r1_g132 <= 0
 lin2_21_1_132: p_r1_g132_h111_t21 - x_r1_g111 <= 0
 lin3_21_1_132: p_r1_g132_h111_t21 - x_r1_g132 - x_r1_g111 >= -1
 lin1_21_2_18: p_r2_g18_h164_t21 - x_r2_g18 <= 0
 lin2_21_2_18: p_r2_g18_h164_t21 - x_r2_g164 <= 0
 lin3_21_2_18: p_r2_g18_h164_t21 - x_r2_g18 - x_r2_g164 >= -1
 lin1_21_2_91: p_r2_g91_h70_t21 - x_r2_g91 <= 0
 lin2_21_2_91: p_r2_g91_h70_t21 - x_r2_g70 <= 0
 lin3_21_2_91: p_r2_g91_h70_t21 - x_r2_g91 - x_r2_g70 >= -1
 lin1_21_2_95: p_r2_g95_h74_t21 - x_r2_g95 <= 0
 lin2_21_2_95: p_r2_g95_h74_t21 - x_r2_g74 <= 0
 lin3_21_2_95: p_r2_g95_h74_t21 - x_r2_g95 - x_r2_g74 >= -1
 lin1_21_2_98: p_r2_g98_h77_t21 - x_r2_g98 <= 0
 lin2_21_2_98: p_r2_g98_h77_t21 - x_r2_g77 <= 0
 lin3_21_2_98: p_r2_g98_h77_t21 - x_r2_g98 - x_r2_g77 >= -1
 lin1_21_2_107: p_r2_g107_h86_t21 - x_r2_g107 <= 0
 lin2_21_2_107: p_r2_g107_h86_t21 - x_r2_g86 <= 0
 lin3_21_2_107: p_r2_g107_h86_t21 - x_r2_g107 - x_r2_g86 >= -1
 lin1_21_2_128: p_r2_g128_h107_t21 - x_r2_g128 <= 0
 lin2_21_2_128: p_r2_g128_h107_t21 - x_r2_g107 <= 0
 lin3_21_2_128: p_r2_g128_h107_t21 - x_r2_g128 - x_r2_g107 >= -1
 lin1_21_2_149: p_r2_g149_h128_t21 - x_r2_g149 <= 0
 lin2_21_2_149: p_r2_g149_h128_t21 - x_r2_g128 <= 0
 lin3_21_2_149: p_r2_g149_h128_t21 - x_r2_g149 - x_r2_g128 >= -1
 lin1_21_2_163: p_r2_g163_h142_t21 - x_r2_g163 <= 0
 lin2_21_2_163: p_r2_g163_h142_t21 - x_r2_g142 <= 0
 lin3_21_2_163: p_r2_g163_h142_t21 - x_r2_g163 - x_r2_g142 >= -1
 lin1_21_3_8: p_r3_g8_h154_t21 - x_r3_g8 <= 0
 lin2_21_3_8: p_r3_g8_h154_t21 - x_r3_g154 <= 0
 lin3_21_3_8: p_r3_g8_h154_t21 - x_r3_g8 - x_r3_g154 >= -1
 lin1_21_3_13: p_r3_g13_h159_t21 - x_r3_g13 <= 0
 lin2_21_3_13: p_r3_g13_h159_t21 - x_r3_g159 <= 0
 lin3_21_3_13: p_r3_g13_h159_t21 - x_r3_g13 - x_r3_g159 >= -1
 lin1_21_3_16: p_r3_g16_h162_t21 - x_r3_g16 <= 0
 lin2_21_3_16: p_r3_g16_h162_t21 - x_r3_g162 <= 0
 lin3_21_3_16: p_r3_g16_h162_t21 - x_r3_g16 - x_r3_g162 >= -1
 lin1_21_3_19: p_r3_g19_h165_t21 - x_r3_g19 <= 0
 lin2_21_3_19: p_r3_g19_h165_t21 - x_r3_g165 <= 0
 lin3_21_3_19: p_r3_g19_h165_t21 - x_r3_g19 - x_r3_g165 >= -1
 lin1_21_3_34: p_r3_g34_h13_t21 - x_r3_g34 <= 0
 lin2_21_3_34: p_r3_g34_h13_t21 - x_r3_g13 <= 0
 lin3_21_3_34: p_r3_g34_h13_t21 - x_r3_g34 - x_r3_g13 >= -1
 lin1_21_3_36: p_r3_g36_h15_t21 - x_r3_g36 <= 0
 lin2_21_3_36: p_r3_g36_h15_t21 - x_r3_g15 <= 0
 lin3_21_3_36: p_r3_g36_h15_t21 - x_r3_g36 - x_r3_g15 >= -1
 lin1_21_3_57: p_r3_g57_h36_t21 - x_r3_g57 <= 0
 lin2_21_3_57: p_r3_g57_h36_t21 - x_r3_g36 <= 0
 lin3_21_3_57: p_r3_g57_h36_t21 - x_r3_g57 - x_r3_g36 >= -1
 lin1_21_3_72: p_r3_g72_h51_t21 - x_r3_g72 <= 0
 lin2_21_3_72: p_r3_g72_h51_t21 - x_r3_g51 <= 0
 lin3_21_3_72: p_r3_g72_h51_t21 - x_r3_g72 - x_r3_g51 >= -1
 lin1_21_3_77: p_r3_g77_h56_t21 - x_r3_g77 <= 0
 lin2_21_3_77: p_r3_g77_h56_t21 - x_r3_g56 <= 0
 lin3_21_3_77: p_r3_g77_h56_t21 - x_r3_g77 - x_r3_g56 >= -1
 lin1_21_3_124: p_r3_g124_h103_t21 - x_r3_g124 <= 0
 lin2_21_3_124: p_r3_g124_h103_t21 - x_r3_g103 <= 0
 lin3_21_3_124: p_r3_g124_h103_t21 - x_r3_g124 - x_r3_g103 >= -1
 lin1_21_3_144: p_r3_g144_h123_t21 - x_r3_g144 <= 0
 lin2_21_3_144: p_r3_g144_h123_t21 - x_r3_g123 <= 0
 lin3_21_3_144: p_r3_g144_h123_t21 - x_r3_g144 - x_r3_g123 >= -1
 lin1_21_3_145: p_r3_g145_h124_t21 - x_r3_g145 <= 0
 lin2_21_3_145: p_r3_g145_h124_t21 - x_r3_g124 <= 0
 lin3_21_3_145: p_r3_g145_h124_t21 - x_r3_g145 - x_r3_g124 >= -1
 lin1_21_3_159: p_r3_g159_h138_t21 - x_r3_g159 <= 0
 lin2_21_3_159: p_r3_g159_h138_t21 - x_r3_g138 <= 0
 lin3_21_3_159: p_r3_g159_h138_t21 - x_r3_g159 - x_r3_g138 >= -1
 lin1_21_3_165: p_r3_g165_h144_t21 - x_r3_g165 <= 0
 lin2_21_3_165: p_r3_g165_h144_t21 - x_r3_g144 <= 0
 lin3_21_3_165: p_r3_g165_h144_t21 - x_r3_g165 - x_r3_g144 >= -1
 defect_21: 1 d_21 - 2 x_r0_g9 - 1 x_r0_g14 - 2 x_r0_g17 - 1 x_r0_g22 - 1 x_r0_g26 - 1 x_r0_g28 - 1 x_r0_g32 - 2 x_r0_g34 - 1 x_r0_g36 - 1 x_r0_g37 - 1 x_r0_g67 - 1 x_r0_g69 - 1 x_r0_g70 - 2 x_r0_g79 - 1 x_r0_g84 - 1 x_r0_g101 - 1 x_r0_g118 - 2 x_r0_g121 - 1 x_r0_g130 - 1 x_r0_g131 - 1 x_r0_g143 - 1 x_r0_g144 - 1 x_r0_g153 - 1 x_r1_g8 - 1 x_r1_g11 - 1 x_r1_g13 - 1 x_r1_g15 - 1 x_r1_g17 - 1 x_r1_g25 - 1 x_r1_g31 - 1 x_r1_g35 - 1 x_r1_g53 - 2 x_r1_g67 - 1 x_r1_g90 - 2 x_r1_g91 - 1 x_r1_g108 - 1 x_r1_g110 - 1 x_r1_g117 - 1 x_r1_g121 - 1 x_r1_g143 - 1 x_r1_g161 - 1 x_r2_g2 - 1 x_r2_g18 - 1 x_r2_g48 - 1 x_r2_g60 - 2 x_r2_g62 - 2 x_r2_g64 - 1 x_r2_g66 - 1 x_r2_g67 - 1 x_r2_g70 - 1 x_r2_g73 - 1 x_r2_g77 - 1 x_r2_g80 - 1 x_r2_g82 - 1 x_r2_g86 - 1 x_r2_g91 - 1 x_r2_g95 - 1 x_r2_g98 - 1 x_r2_g100 - 2 x_r2_g111 - 1 x_r2_g135 - 2 x_r2_g136 - 1 x_r2_g139 - 1 x_r2_g142 - 1 x_r2_g155 - 1 x_r2_g158 - 1 x_r3_g3 - 1 x_r3_g7 - 1 x_r3_g11 - 1 x_r3_g16 - 1 x_r3_g18 - 1 x_r3_g19 - 1 x_r3_g27 - 1 x_r3_g33 - 1 x_r3_g34 - 1 x_r3_g51 - 2 x_r3_g53 - 1 x_r3_g57 - 1 x_r3_g65 - 1 x_r3_g77 - 1 x_r3_g91 - 1 x_r3_g106 - 1 x_r3_g111 - 1 x_r3_g113 - 1 x_r3_g121 - 1 x_r3_g128 - 1 x_r3_g145 - 1 x_r3_g147 - 1 p_r0_g7_h153_t21 - 1 p_r0_g22_h1_t21 - 1 p_r0_g25_h4_t21 - 1 p_r0_g28_h7_t21 - 1 p_r0_g35_h14_t21 - 1 p_r0_g47_h26_t21 - 1 p_r0_g68_h47_t21 - 1 p_r0_g69_h48_t21 - 1 p_r0_g118_h97_t21 - 1 p_r0_g123_h102_t21 - 1 p_r0_g144_h123_t21 - 1 p_r1_g8_h154_t21 - 1 p_r1_g11_h157_t21 - 1 p_r1_g15_h161_t21 - 1 p_r1_g38_h17_t21 - 1 p_r1_g59_h38_t21 - 1 p_r1_g80_h59_t21 - 1 p_r1_g83_h62_t21 - 1 p_r1_g96_h75_t21 - 1 p_r1_g111_h90_t21 - 1 p_r1_g114_h93_t21 - 1 p_r1_g117_h96_t21 - 1 p_r1_g128_h107_t21 - 1 p_r1_g132_h111_t21 - 1 p_r2_g18_h164_t21 - 1 p_r2_g91_h70_t21 - 1 p_r2_g95_h74_t21 - 1 p_r2_g98_h77_t21 - 1 p_r2_g107_h86_t21 - 1 p_r2_g128_h107_t21 - 1 p_r2_g149_h128_t21 - 1 p_r2_g163_h142_t21 - 1 p_r3_g8_h154_t21 - 1 p_r3_g13_h159_t21 - 1 p_r3_g16_h162_t21 - 1 p_r3_g19_h165_t21 - 1 p_r3_g34_h13_t21 - 1 p_r3_g36_h15_t21 - 1 p_r3_g57_h36_t21 - 1 p_r3_g72_h51_t21 - 1 p_r3_g77_h56_t21 - 1 p_r3_g124_h103_t21 - 1 p_r3_g144_h123_t21 - 1 p_r3_g145_h124_t21 - 1 p_r3_g159_h138_t21 - 1 p_r3_g165_h144_t21 = -51
 abs_pos_21: d_21 - u_21 <= 0
 abs_neg_21: - d_21 - u_21 <= 0
 max_def_21: u_21 - M <= 0
 cap_21: u_21 <= 2
 lin1_22_0_17: p_r0_g17_h162_t22 - x_r0_g17 <= 0
 lin2_22_0_17: p_r0_g17_h162_t22 - x_r0_g162 <= 0
 lin3_22_0_17: p_r0_g17_h162_t22 - x_r0_g17 - x_r0_g162 >= -1
 lin1_22_0_23: p_r0_g23_h1_t22 - x_r0_g23 <= 0
 lin2_22_0_23: p_r0_g23_h1_t22 - x_r0_g1 <= 0
 lin3_22_0_23: p_r0_g23_h1_t22 - x_r0_g23 - x_r0_g1 >= -1
 lin1_22_0_26: p_r0_g26_h4_t22 - x_r0_g26 <= 0
 lin2_22_0_26: p_r0_g26_h4_t22 - x_r0_g4 <= 0
 lin3_22_0_26: p_r0_g26_h4_t22 - x_r0_g26 - x_r0_g4 >= -1
 lin1_22_0_36: p_r0_g36_h14_t22 - x_r0_g36 <= 0
 lin2_22_0_36: p_r0_g36_h14_t22 - x_r0_g14 <= 0
 lin3_22_0_36: p_r0_g36_h14_t22 - x_r0_g36 - x_r0_g14 >= -1
 lin1_22_0_47: p_r0_g47_h25_t22 - x_r0_g47 <= 0
 lin2_22_0_47: p_r0_g47_h25_t22 - x_r0_g25 <= 0
 lin3_22_0_47: p_r0_g47_h25_t22 - x_r0_g47 - x_r0_g25 >= -1
 lin1_22_0_48: p_r0_g48_h26_t22 - x_r0_g48 <= 0
 lin2_22_0_48: p_r0_g48_h26_t22 - x_r0_g26 <= 0
 lin3_22_0_48: p_r0_g48_h26_t22 - x_r0_g48 - x_r0_g26 >= -1
 lin1_22_0_54: p_r0_g54_h32_t22 - x_r0_g54 <= 0
 lin2_22_0_54: p_r0_g54_h32_t22 - x_r0_g32 <= 0
 lin3_22_0_54: p_r0_g54_h32_t22 - x_r0_g54 - x_r0_g32 >= -1
 lin1_22_0_69: p_r0_g69_h47_t22 - x_r0_g69 <= 0
 lin2_22_0_69: p_r0_g69_h47_t22 - x_r0_g47 <= 0
 lin3_22_0_69: p_r0_g69_h47_t22 - x_r0_g69 - x_r0_g47 >= -1
 lin1_22_0_70: p_r0_g70_h48_t22 - x_r0_g70 <= 0
 lin2_22_0_70: p_r0_g70_h48_t22 - x_r0_g48 <= 0
 lin3_22_0_70: p_r0_g70_h48_t22 - x_r0_g70 - x_r0_g48 >= -1
 lin1_22_0_101: p_r0_g101_h79_t22 - x_r0_g101 <= 0
 lin2_22_0_101: p_r0_g101_h79_t22 - x_r0_g79 <= 0
 lin3_22_0_101: p_r0_g101_h79_t22 - x_r0_g101 - x_r0_g79 >= -1
 lin1_22_0_123: p_r0_g123_h101_t22 - x_r0_g123 <= 0
 lin2_22_0_123: p_r0_g123_h101_t22 - x_r0_g101 <= 0
 lin3_22_0_123: p_r0_g123_h101_t22 - x_r0_g123 - x_r0_g101 >= -1
 lin1_22_0_143: p_r0_g143_h121_t22 - x_r0_g143 <= 0
 lin2_22_0_143: p_r0_g143_h121_t22 - x_r0_g121 <= 0
 lin3_22_0_143: p_r0_g143_h121_t22 - x_r0_g143 - x_r0_g121 >= -1
 lin1_22_0_153: p_r0_g153_h131_t22 - x_r0_g153 <= 0
 lin2_22_0_153: p_r0_g153_h131_t22 - x_r0_g131 <= 0
 lin3_22_0_153: p_r0_g153_h131_t22 - x_r0_g153 - x_r0_g131 >= -1
 lin1_22_1_30: p_r1_g30_h8_t22 - x_r1_g30 <= 0
 lin2_22_1_30: p_r1_g30_h8_t22 - x_r1_g8 <= 0
 lin3_22_1_30: p_r1_g30_h8_t22 - x_r1_g30 - x_r1_g8 >= -1
 lin1_22_1_35: p_r1_g35_h13_t22 - x_r1_g35 <= 0
 lin2_22_1_35: p_r1_g35_h13_t22 - x_r1_g13 <= 0
 lin3_22_1_35: p_r1_g35_h13_t22 - x_r1_g35 - x_r1_g13 >= -1
 lin1_22_1_53: p_r1_g53_h31_t22 - x_r1_g53 <= 0
 lin2_22_1_53: p_r1_g53_h31_t22 - x_r1_g31 <= 0
 lin3_22_1_53: p_r1_g53_h31_t22 - x_r1_g53 - x_r1_g31 >= -1
 lin1_22_1_75: p_r1_g75_h53_t22 - x_r1_g75 <= 0
 lin2_22_1_75: p_r1_g75_h53_t22 - x_r1_g53 <= 0
 lin3_22_1_75: p_r1_g75_h53_t22 - x_r1_g75 - x_r1_g53 >= -1
 lin1_22_1_113: p_r1_g113_h91_t22 - x_r1_g113 <= 0
 lin2_22_1_113: p_r1_g113_h91_t22 - x_r1_g91 <= 0
 lin3_22_1_113: p_r1_g113_h91_t22 - x_r1_g113 - x_r1_g91 >= -1
 lin1_22_1_132: p_r1_g132_h110_t22 - x_r1_g132 <= 0
 lin2_22_1_132: p_r1_g132_h110_t22 - x_r1_g110 <= 0
 lin3_22_1_132: p_r1_g132_h110_t22 - x_r1_g132 - x_r1_g110 >= -1
 lin1_22_1_143: p_r1_g143_h121_t22 - x_r1_g143 <= 0
 lin2_22_1_143: p_r1_g143_h121_t22 - x_r1_g121 <= 0
 lin3_22_1_143: p_r1_g143_h121_t22 - x_r1_g143 - x_r1_g121 >= -1
 lin1_22_1_154: p_r1_g154_h132_t22 - x_r1_g154 <= 0
 lin2_22_1_154: p_r1_g154_h132_t22 - x_r1_g132 <= 0
 lin3_22_1_154: p_r1_g154_h132_t22 - x_r1_g154 - x_r1_g132 >= -1
 lin1_22_2_18: p_r2_g18_h163_t22 - x_r2_g18 <= 0
 lin2_22_2_18: p_r2_g18_h163_t22 - x_r2_g163 <= 0
 lin3_22_2_18: p_r2_g18_h163_t22 - x_r2_g18 - x_r2_g163 >= -1
 lin1_22_2_70: p_r2_g70_h48_t22 - x_r2_g70 <= 0
 lin2_22_2_70: p_r2_g70_h48_t22 - x_r2_g48 <= 0
 lin3_22_2_70: p_r2_g70_h48_t22 - x_r2_g70 - x_r2_g48 >= -1
 lin1_22_2_82: p_r2_g82_h60_t22 - x_r2_g82 <= 0
 lin2_22_2_82: p_r2_g82_h60_t22 - x_r2_g60 <= 0
 lin3_22_2_82: p_r2_g82_h60_t22 - x_r2_g82 - x_r2_g60 >= -1
 lin1_22_2_86: p_r2_g86_h64_t22 - x_r2_g86 <= 0
 lin2_22_2_86: p_r2_g86_h64_t22 - x_r2_g64 <= 0
 lin3_22_2_86: p_r2_g86_h64_t22 - x_r2_g86 - x_r2_g64 >= -1
 lin1_22_2_95: p_r2_g95_h73_t22 - x_r2_g95 <= 0
 lin2_22_2_95: p_r2_g95_h73_t22 - x_r2_g73 <= 0
 lin3_22_2_95: p_r2_g95_h73_t22 - x_r2_g95 - x_r2_g73 >= -1
 lin1_22_2_120: p_r2_g120_h98_t22 - x_r2_g120 <= 0
 lin2_22_2_120: p_r2_g120_h98_t22 - x_r2_g98 <= 0
 lin3_22_2_120: p_r2_g120_h98_t22 - x_r2_g120 - x_r2_g98 >= -1
 lin1_22_2_142: p_r2_g142_h120_t22 - x_r2_g142 <= 0
 lin2_22_2_142: p_r2_g142_h120_t22 - x_r2_g120 <= 0
 lin3_22_2_142: p_r2_g142_h120_t22 - x_r2_g142 - x_r2_g120 >= -1
 lin1_22_2_158: p_r2_g158_h136_t22 - x_r2_g158 <= 0
 lin2_22_2_158: p_r2_g158_h136_t22 - x_r2_g136 <= 0
 lin3_22_2_158: p_r2_g158_h136_t22 - x_r2_g158 - x_r2_g136 >= -1
 lin1_22_2_164: p_r2_g164_h142_t22 - x_r2_g164 <= 0
 lin2_22_2_164: p_r2_g164_h142_t22 - x_r2_g142 <= 0
 lin3_22_2_164: p_r2_g164_h142_t22 - x_r2_g164 - x_r2_g142 >= -1
 lin1_22_3_33: p_r3_g33_h11_t22 - x_r3_g33 <= 0
 lin2_22_3_33: p_r3_g33_h11_t22 - x_r3_g11 <= 0
 lin3_22_3_33: p_r3_g33_h11_t22 - x_r3_g33 - x_r3_g11 >= -1
 lin1_22_3_56: p_r3_g56_h34_t22 - x_r3_g56 <= 0
 lin2_22_3_56: p_r3_g56_h34_t22 - x_r3_g34 <= 0
 lin3_22_3_56: p_r3_g56_h34_t22 - x_r3_g56 - x_r3_g34 >= -1
 lin1_22_3_79: p_r3_g79_h57_t22 - x_r3_g79 <= 0
 lin2_22_3_79: p_r3_g79_h57_t22 - x_r3_g57 <= 0
 lin3_22_3_79: p_r3_g79_h57_t22 - x_r3_g79 - x_r3_g57 >= -1
 lin1_22_3_94: p_r3_g94_h72_t22 - x_r3_g94 <= 0
 lin2_22_3_94: p_r3_g94_h72_t22 - x_r3_g72 <= 0
 lin3_22_3_94: p_r3_g94_h72_t22 - x_r3_g94 - x_r3_g72 >= -1
 lin1_22_3_113: p_r3_g113_h91_t22 - x_r3_g113 <= 0
 lin2_22_3_113: p_r3_g113_h91_t22 - x_r3_g91 <= 0
 lin3_22_3_113: p_r3_g113_h91_t22 - x_r3_g113 - x_r3_g91 >= -1
 lin1_22_3_125: p_r3_g125_h103_t22 - x_r3_g125 <= 0
 lin2_22_3_125: p_r3_g125_h103_t22 - x_r3_g103 <= 0
 lin3_22_3_125: p_r3_g125_h103_t22 - x_r3_g125 - x_r3_g103 >= -1
 lin1_22_3_128: p_r3_g128_h106_t22 - x_r3_g128 <= 0
 lin2_22_3_128: p_r3_g128_h106_t22 - x_r3_g106 <= 0
 lin3_22_3_128: p_r3_g128_h106_t22 - x_r3_g128 - x_r3_g106 >= -1
 lin1_22_3_145: p_r3_g145_h123_t22 - x_r3_g145 <= 0
 lin2_22_3_145: p_r3_g145_h123_t22 - x_r3_g123 <= 0
 lin3_22_3_145: p_r3_g145_h123_t22 - x_r3_g145 - x_r3_g123 >= -1
 lin1_22_3_147: p_r3_g147_h125_t22 - x_r3_g147 <= 0
 lin2_22_3_147: p_r3_g147_h125_t22 - x_r3_g125 <= 0
 lin3_22_3_147: p_r3_g147_h125_t22 - x_r3_g147 - x_r3_g125 >= -1
 defect_22: 1 d_22 - 1 x_r0_g1 - 1 x_r0_g4 - 1 x_r0_g7 - 1 x_r0_g14 - 2 x_r0_g20 - 1 x_r0_g23 - 1 x_r0_g25 - 1 x_r0_g28 - 1 x_r0_g34 - 1 x_r0_g35 - 1 x_r0_g36 - 2 x_r0_g37 - 1 x_r0_g60 - 1 x_r0_g67 - 1 x_r0_g68 - 2 x_r0_g84 - 1 x_r0_g87 - 1 x_r0_g97 - 1 x_r0_g130 - 1 x_r0_g143 - 1 x_r0_g144 - 1 x_r1_g11 - 2 x_r1_g15 - 1 x_r1_g17 - 1 x_r1_g25 - 1 x_r1_g35 - 1 x_r1_g38 - 2 x_r1_g59 - 2 x_r1_g62 - 1 x_r1_g64 - 1 x_r1_g67 - 1 x_r1_g76 - 2 x_r1_g90 - 1 x_r1_g91 - 1 x_r1_g93 - 1 x_r1_g108 - 1 x_r1_g110 - 1 x_r1_g111 - 1 x_r1_g117 - 2 x_r1_g146 - 1 x_r1_g155 - 1 x_r1_g161 - 1 x_r2_g29 - 1 x_r2_g34 - 1 x_r2_g48 - 2 x_r2_g80 - 1 x_r2_g82 - 1 x_r2_g91 - 2 x_r2_g100 - 2 x_r2_g107 - 1 x_r2_g110 - 1 x_r2_g128 - 2 x_r2_g135 - 1 x_r2_g136 - 1 x_r2_g139 - 1 x_r2_g149 - 2 x_r2_g152 - 2 x_r2_g159 - 1 x_r2_g162 - 1 x_r2_g165 - 1 x_r3_g3 - 1 x_r3_g8 - 2 x_r3_g15 - 1 x_r3_g16 - 2 x_r3_g18 - 1 x_r3_g19 - 2 x_r3_g27 - 1 x_r3_g33 - 1 x_r3_g34 - 1 x_r3_g53 - 1 x_r3_g56 - 1 x_r3_g65 - 2 x_r3_g77 - 1 x_r3_g103 - 1 x_r3_g111 - 2 x_r3_g121 - 1 x_r3_g138 - 2 x_r3_g144 - 1 x_r3_g147 - 2 x_r3_g154 - 1 x_r3_g159 - 2 x_r3_g162 - 2 x_r3_g165 - 1 p_r0_g17_h162_t22 - 1 p_r0_g23_h1_t22 - 1 p_r0_g26_h4_t22 - 1 p_r0_g36_h14_t22 - 1 p_r0_g47_h25_t22 - 1 p_r0_g48_h26_t22 - 1 p_r0_g54_h32_t22 - 1 p_r0_g69_h47_t22 - 1 p_r0_g70_h48_t22 - 1 p_r0_g101_h79_t22 - 1 p_r0_g123_h101_t22 - 1 p_r0_g143_h121_t22 - 1 p_r0_g153_h131_t22 - 1 p_r1_g30_h8_t22 - 1 p_r1_g35_h13_t22 - 1 p_r1_g53_h31_t22 - 1 p_r1_g75_h53_t22 - 1 p_r1_g113_h91_t22 - 1 p_r1_g132_h110_t22 - 1 p_r1_g143_h121_t22 - 1 p_r1_g154_h132_t22 - 1 p_r2_g18_h163_t22 - 1 p_r2_g70_h48_t22 - 1 p_r2_g82_h60_t22 - 1 p_r2_g86_h64_t22 - 1 p_r2_g95_h73_t22 - 1 p_r2_g120_h98_t22 - 1 p_r2_g142_h120_t22 - 1 p_r2_g158_h136_t22 - 1 p_r2_g164_h142_t22 - 1 p_r3_g33_h11_t22 - 1 p_r3_g56_h34_t22 - 1 p_r3_g79_h57_t22 - 1 p_r3_g94_h72_t22 - 1 p_r3_g113_h91_t22 - 1 p_r3_g125_h103_t22 - 1 p_r3_g128_h106_t22 - 1 p_r3_g145_h123_t22 - 1 p_r3_g147_h125_t22 = -70
 abs_pos_22: d_22 - u_22 <= 0
 abs_neg_22: - d_22 - u_22 <= 0
 max_def_22: u_22 - M <= 0
 cap_22: u_22 <= 1
 lin1_23_0_9: p_r0_g9_h153_t23 - x_r0_g9 <= 0
 lin2_23_0_9: p_r0_g9_h153_t23 - x_r0_g153 <= 0
 lin3_23_0_9: p_r0_g9_h153_t23 - x_r0_g9 - x_r0_g153 >= -1
 lin1_23_0_32: p_r0_g32_h9_t23 - x_r0_g32 <= 0
 lin2_23_0_32: p_r0_g32_h9_t23 - x_r0_g9 <= 0
 lin3_23_0_32: p_r0_g32_h9_t23 - x_r0_g32 - x_r0_g9 >= -1
 lin1_23_0_37: p_r0_g37_h14_t23 - x_r0_g37 <= 0
 lin2_23_0_37: p_r0_g37_h14_t23 - x_r0_g14 <= 0
 lin3_23_0_37: p_r0_g37_h14_t23 - x_r0_g37 - x_r0_g14 >= -1
 lin1_23_0_48: p_r0_g48_h25_t23 - x_r0_g48 <= 0
 lin2_23_0_48: p_r0_g48_h25_t23 - x_r0_g25 <= 0
 lin3_23_0_48: p_r0_g48_h25_t23 - x_r0_g48 - x_r0_g25 >= -1
 lin1_23_0_60: p_r0_g60_h37_t23 - x_r0_g60 <= 0
 lin2_23_0_60: p_r0_g60_h37_t23 - x_r0_g37 <= 0
 lin3_23_0_60: p_r0_g60_h37_t23 - x_r0_g60 - x_r0_g37 >= -1
 lin1_23_0_70: p_r0_g70_h47_t23 - x_r0_g70 <= 0
 lin2_23_0_70: p_r0_g70_h47_t23 - x_r0_g47 <= 0
 lin3_23_0_70: p_r0_g70_h47_t23 - x_r0_g70 - x_r0_g47 >= -1
 lin1_23_0_102: p_r0_g102_h79_t23 - x_r0_g102 <= 0
 lin2_23_0_102: p_r0_g102_h79_t23 - x_r0_g79 <= 0
 lin3_23_0_102: p_r0_g102_h79_t23 - x_r0_g102 - x_r0_g79 >= -1
 lin1_23_0_144: p_r0_g144_h121_t23 - x_r0_g144 <= 0
 lin2_23_0_144: p_r0_g144_h121_t23 - x_r0_g121 <= 0
 lin3_23_0_144: p_r0_g144_h121_t23 - x_r0_g144 - x_r0_g121 >= -1
 lin1_23_0_153: p_r0_g153_h130_t23 - x_r0_g153 <= 0
 lin2_23_0_153: p_r0_g153_h130_t23 - x_r0_g130 <= 0
 lin3_23_0_153: p_r0_g153_h130_t23 - x_r0_g153 - x_r0_g130 >= -1
 lin1_23_1_11: p_r1_g11_h155_t23 - x_r1_g11 <= 0
 lin2_23_1_11: p_r1_g11_h155_t23 - x_r1_g155 <= 0
 lin3_23_1_11: p_r1_g11_h155_t23 - x_r1_g11 - x_r1_g155 >= -1
 lin1_23_1_13: p_r1_g13_h157_t23 - x_r1_g13 <= 0
 lin2_23_1_13: p_r1_g13_h157_t23 - x_r1_g157 <= 0
 lin3_23_1_13: p_r1_g13_h157_t23 - x_r1_g13 - x_r1_g157 >= -1
 lin1_23_1_17: p_r1_g17_h161_t23 - x_r1_g17 <= 0
 lin2_23_1_17: p_r1_g17_h161_t23 - x_r1_g161 <= 0
 lin3_23_1_17: p_r1_g17_h161_t23 - x_r1_g17 - x_r1_g161 >= -1
 lin1_23_1_31: p_r1_g31_h8_t23 - x_r1_g31 <= 0
 lin2_23_1_31: p_r1_g31_h8_t23 - x_r1_g8 <= 0
 lin3_23_1_31: p_r1_g31_h8_t23 - x_r1_g31 - x_r1_g8 >= -1
 lin1_23_1_38: p_r1_g38_h15_t23 - x_r1_g38 <= 0
 lin2_23_1_38: p_r1_g38_h15_t23 - x_r1_g15 <= 0
 lin3_23_1_38: p_r1_g38_h15_t23 - x_r1_g38 - x_r1_g15 >= -1
 lin1_23_1_53: p_r1_g53_h30_t23 - x_r1_g53 <= 0
 lin2_23_1_53: p_r1_g53_h30_t23 - x_r1_g30 <= 0
 lin3_23_1_53: p_r1_g53_h30_t23 - x_r1_g53 - x_r1_g30 >= -1
 lin1_23_1_76: p_r1_g76_h53_t23 - x_r1_g76 <= 0
 lin2_23_1_76: p_r1_g76_h53_t23 - x_r1_g53 <= 0
 lin3_23_1_76: p_r1_g76_h53_t23 - x_r1_g76 - x_r1_g53 >= -1
 lin1_23_1_90: p_r1_g90_h67_t23 - x_r1_g90 <= 0
 lin2_23_1_90: p_r1_g90_h67_t23 - x_r1_g67 <= 0
 lin3_23_1_90: p_r1_g90_h67_t23 - x_r1_g90 - x_r1_g67 >= -1
 lin1_23_1_113: p_r1_g113_h90_t23 - x_r1_g113 <= 0
 lin2_23_1_113: p_r1_g113_h90_t23 - x_r1_g90 <= 0
 lin3_23_1_113: p_r1_g113_h90_t23 - x_r1_g113 - x_r1_g90 >= -1
 lin1_23_1_114: p_r1_g114_h91_t23 - x_r1_g114 <= 0
 lin2_23_1_114: p_r1_g114_h91_t23 - x_r1_g91 <= 0
 lin3_23_1_114: p_r1_g114_h91_t23 - x_r1_g114 - x_r1_g91 >= -1
 lin1_23_1_155: p_r1_g155_h132_t23 - x_r1_g155 <= 0
 lin2_23_1_155: p_r1_g155_h132_t23 - x_r1_g132 <= 0
 lin3_23_1_155: p_r1_g155_h132_t23 - x_r1_g155 - x_r1_g132 >= -1
 lin1_23_2_18: p_r2_g18_h162_t23 - x_r2_g18 <= 0
 lin2_23_2_18: p_r2_g18_h162_t23 - x_r2_g162 <= 0
 lin3_23_2_18: p_r2_g18_h162_t23 - x_r2_g18 - x_r2_g162 >= -1
 lin1_23_2_100: p_r2_g100_h77_t23 - x_r2_g100 <= 0
 lin2_23_2_100: p_r2_g100_h77_t23 - x_r2_g77 <= 0
 lin3_23_2_100: p_r2_g100_h77_t23 - x_r2_g100 - x_r2_g77 >= -1
 lin1_23_2_158: p_r2_g158_h135_t23 - x_r2_g158 <= 0
 lin2_23_2_158: p_r2_g158_h135_t23 - x_r2_g135 <= 0
 lin3_23_2_158: p_r2_g158_h135_t23 - x_r2_g158 - x_r2_g135 >= -1
 lin1_23_2_159: p_r2_g159_h136_t23 - x_r2_g159 <= 0
 lin2_23_2_159: p_r2_g159_h136_t23 - x_r2_g136 <= 0
 lin3_23_2_159: p_r2_g159_h136_t23 - x_r2_g159 - x_r2_g136 >= -1
 lin1_23_2_162: p_r2_g162_h139_t23 - x_r2_g162 <= 0
 lin2_23_2_162: p_r2_g162_h139_t23 - x_r2_g139 <= 0
 lin3_23_2_162: p_r2_g162_h139_t23 - x_r2_g162 - x_r2_g139 >= -1
 lin1_23_2_165: p_r2_g165_h142_t23 - x_r2_g165 <= 0
 lin2_23_2_165: p_r2_g165_h142_t23 - x_r2_g142 <= 0
 lin3_23_2_165: p_r2_g165_h142_t23 - x_r2_g165 - x_r2_g142 >= -1
 lin1_23_3_3: p_r3_g3_h147_t23 - x_r3_g3 <= 0
 lin2_23_3_3: p_r3_g3_h147_t23 - x_r3_g147 <= 0
 lin3_23_3_3: p_r3_g3_h147_t23 - x_r3_g3 - x_r3_g147 >= -1
 lin1_23_3_15: p_r3_g15_h159_t23 - x_r3_g15 <= 0
 lin2_23_3_15: p_r3_g15_h159_t23 - x_r3_g159 <= 0
 lin3_23_3_15: p_r3_g15_h159_t23 - x_r3_g15 - x_r3_g159 >= -1
 lin1_23_3_18: p_r3_g18_h162_t23 - x_r3_g18 <= 0
 lin2_23_3_18: p_r3_g18_h162_t23 - x_r3_g162 <= 0
 lin3_23_3_18: p_r3_g18_h162_t23 - x_r3_g18 - x_r3_g162 >= -1
 lin1_23_3_34: p_r3_g34_h11_t23 - x_r3_g34 <= 0
 lin2_23_3_34: p_r3_g34_h11_t23 - x_r3_g11 <= 0
 lin3_23_3_34: p_r3_g34_h11_t23 - x_r3_g34 - x_r3_g11 >= -1
 lin1_23_3_36: p_r3_g36_h13_t23 - x_r3_g36 <= 0
 lin2_23_3_36: p_r3_g36_h13_t23 - x_r3_g13 <= 0
 lin3_23_3_36: p_r3_g36_h13_t23 - x_r3_g36 - x_r3_g13 >= -1
 lin1_23_3_56: p_r3_g56_h33_t23 - x_r3_g56 <= 0
 lin2_23_3_56: p_r3_g56_h33_t23 - x_r3_g33 <= 0
 lin3_23_3_56: p_r3_g56_h33_t23 - x_r3_g56 - x_r3_g33 >= -1
 lin1_23_3_57: p_r3_g57_h34_t23 - x_r3_g57 <= 0
 lin2_23_3_57: p_r3_g57_h34_t23 - x_r3_g34 <= 0
 lin3_23_3_57: p_r3_g57_h34_t23 - x_r3_g57 - x_r3_g34 >= -1
 lin1_23_3_79: p_r3_g79_h56_t23 - x_r3_g79 <= 0
 lin2_23_3_79: p_r3_g79_h56_t23 - x_r3_g56 <= 0
 lin3_23_3_79: p_r3_g79_h56_t23 - x_r3_g79 - x_r3_g56 >= -1
 lin1_23_3_144: p_r3_g144_h121_t23 - x_r3_g144 <= 0
 lin2_23_3_144: p_r3_g144_h121_t23 - x_r3_g121 <= 0
 lin3_23_3_144: p_r3_g144_h121_t23 - x_r3_g144 - x_r3_g121 >= -1
 lin1_23_3_147: p_r3_g147_h124_t23 - x_r3_g147 <= 0
 lin2_23_3_147: p_r3_g147_h124_t23 - x_r3_g124 <= 0
 lin3_23_3_147: p_r3_g147_h124_t23 - x_r3_g147 - x_r3_g124 >= -1
 defect_23: 1 d_23 - 2 x_r0_g7 - 1 x_r0_g14 - 1 x_r0_g17 - 1 x_r0_g20 - 1 x_r0_g22 - 2 x_r0_g26 - 2 x_r0_g28 - 1 x_r0_g32 - 1 x_r0_g34 - 2 x_r0_g35 - 2 x_r0_g36 - 1 x_r0_g54 - 1 x_r0_g67 - 1 x_r0_g68 - 2 x_r0_g97 - 1 x_r0_g102 - 1 x_r0_g121 - 2 x_r0_g123 - 1 x_r0_g143 - 1 x_r0_g162 - 1 x_r1_g13 - 1 x_r1_g15 - 1 x_r1_g17 - 2 x_r1_g59 - 1 x_r1_g62 - 1 x_r1_g64 - 1 x_r1_g67 - 1 x_r1_g75 - 2 x_r1_g80 - 1 x_r1_g91 - 2 x_r1_g93 - 1 x_r1_g96 - 2 x_r1_g107 - 1 x_r1_g110 - 1 x_r1_g111 - 1 x_r1_g117 - 1 x_r1_g121 - 1 x_r1_g126 - 1 x_r1_g132 - 1 x_r1_g143 - 1 x_r1_g146 - 1 x_r1_g154 - 1 x_r1_g161 - 2 x_r2_g2 - 1 x_r2_g18 - 1 x_r2_g30 - 1 x_r2_g48 - 1 x_r2_g60 - 2 x_r2_g62 - 2 x_r2_g64 - 1 x_r2_g66 - 1 x_r2_g67 - 1 x_r2_g70 - 1 x_r2_g82 - 1 x_r2_g86 - 2 x_r2_g91 - 2 x_r2_g98 - 1 x_r2_g107 - 1 x_r2_g110 - 1 x_r2_g111 - 2 x_r2_g128 - 1 x_r2_g135 - 1 x_r2_g136 - 1 x_r2_g139 - 1 x_r2_g142 - 1 x_r2_g149 - 1 x_r2_g152 - 1 x_r2_g155 - 1 x_r2_g158 - 1 x_r2_g163 - 1 x_r2_g164 - 1 x_r2_g165 - 1 x_r3_g3 - 2 x_r3_g7 - 1 x_r3_g15 - 2 x_r3_g16 - 1 x_r3_g18 - 1 x_r3_g19 - 1 x_r3_g27 - 1 x_r3_g36 - 2 x_r3_g51 - 2 x_r3_g53 - 1 x_r3_g57 - 1 x_r3_g72 - 1 x_r3_g91 - 1 x_r3_g103 - 2 x_r3_g106 - 1 x_r3_g111 - 1 x_r3_g121 - 1 x_r3_g125 - 1 x_r3_g128 - 2 x_r3_g145 - 1 x_r3_g162 - 1 x_r3_g165 - 1 p_r0_g9_h153_t23 - 1 p_r0_g32_h9_t23 - 1 p_r0_g37_h14_t23 - 1 p_r0_g48_h25_t23 - 1 p_r0_g60_h37_t23 - 1 p_r0_g70_h47_t23 - 1 p_r0_g102_h79_t23 - 1 p_r0_g144_h121_t23 - 1 p_r0_g153_h130_t23 - 1 p_r1_g11_h155_t23 - 1 p_r1_g13_h157_t23 - 1 p_r1_g17_h161_t23 - 1 p_r1_g31_h8_t23 - 1 p_r1_g38_h15_t23 - 1 p_r1_g53_h30_t23 - 1 p_r1_g76_h53_t23 - 1 p_r1_g90_h67_t23 - 1 p_r1_g113_h90_t23 - 1 p_r1_g114_h91_t23 - 1 p_r1_g155_h132_t23 - 1 p_r2_g18_h162_t23 - 1 p_r2_g100_h77_t23 - 1 p_r2_g158_h135_t23 - 1 p_r2_g159_h136_t23 - 1 p_r2_g162_h139_t23 - 1 p_r2_g165_h142_t23 - 1 p_r3_g3_h147_t23 - 1 p_r3_g15_h159_t23 - 1 p_r3_g18_h162_t23 - 1 p_r3_g34_h11_t23 - 1 p_r3_g36_h13_t23 - 1 p_r3_g56_h33_t23 - 1 p_r3_g57_h34_t23 - 1 p_r3_g79_h56_t23 - 1 p_r3_g144_h121_t23 - 1 p_r3_g147_h124_t23 = -70
 abs_pos_23: d_23 - u_23 <= 0
 abs_neg_23: - d_23 - u_23 <= 0
 max_def_23: u_23 - M <= 0
 cap_23: u_23 <= 1
 lin1_26_0_35: p_r0_g35_h9_t26 - x_r0_g35 <= 0
 lin2_26_0_35: p_r0_g35_h9_t26 - x_r0_g9 <= 0
 lin3_26_0_35: p_r0_g35_h9_t26 - x_r0_g35 - x_r0_g9 >= -1
 lin1_26_0_48: p_r0_g48_h22_t26 - x_r0_g48 <= 0
 lin2_26_0_48: p_r0_g48_h22_t26 - x_r0_g22 <= 0
 lin3_26_0_48: p_r0_g48_h22_t26 - x_r0_g48 - x_r0_g22 >= -1
 lin1_26_0_54: p_r0_g54_h28_t26 - x_r0_g54 <= 0
 lin2_26_0_54: p_r0_g54_h28_t26 - x_r0_g28 <= 0
 lin3_26_0_54: p_r0_g54_h28_t26 - x_r0_g54 - x_r0_g28 >= -1
 lin1_26_0_60: p_r0_g60_h34_t26 - x_r0_g60 <= 0
 lin2_26_0_60: p_r0_g60_h34_t26 - x_r0_g34 <= 0
 lin3_26_0_60: p_r0_g60_h34_t26 - x_r0_g60 - x_r0_g34 >= -1
 lin1_26_0_123: p_r0_g123_h97_t26 - x_r0_g123 <= 0
 lin2_26_0_123: p_r0_g123_h97_t26 - x_r0_g97 <= 0
 lin3_26_0_123: p_r0_g123_h97_t26 - x_r0_g123 - x_r0_g97 >= -1
 lin1_26_0_144: p_r0_g144_h118_t26 - x_r0_g144 <= 0
 lin2_26_0_144: p_r0_g144_h118_t26 - x_r0_g118 <= 0
 lin3_26_0_144: p_r0_g144_h118_t26 - x_r0_g144 - x_r0_g118 >= -1
 lin1_26_1_13: p_r1_g13_h154_t26 - x_r1_g13 <= 0
 lin2_26_1_13: p_r1_g13_h154_t26 - x_r1_g154 <= 0
 lin3_26_1_13: p_r1_g13_h154_t26 - x_r1_g13 - x_r1_g154 >= -1
 lin1_26_1_64: p_r1_g64_h38_t26 - x_r1_g64 <= 0
 lin2_26_1_64: p_r1_g64_h38_t26 - x_r1_g38 <= 0
 lin3_26_1_64: p_r1_g64_h38_t26 - x_r1_g64 - x_r1_g38 >= -1
 lin1_26_1_90: p_r1_g90_h64_t26 - x_r1_g90 <= 0
 lin2_26_1_90: p_r1_g90_h64_t26 - x_r1_g64 <= 0
 lin3_26_1_90: p_r1_g90_h64_t26 - x_r1_g90 - x_r1_g64 >= -1
 lin1_26_1_93: p_r1_g93_h67_t26 - x_r1_g93 <= 0
 lin2_26_1_93: p_r1_g93_h67_t26 - x_r1_g67 <= 0
 lin3_26_1_93: p_r1_g93_h67_t26 - x_r1_g93 - x_r1_g67 >= -1
 lin1_26_1_117: p_r1_g117_h91_t26 - x_r1_g117 <= 0
 lin2_26_1_117: p_r1_g117_h91_t26 - x_r1_g91 <= 0
 lin3_26_1_117: p_r1_g117_h91_t26 - x_r1_g117 - x_r1_g91 >= -1
 lin1_26_1_143: p_r1_g143_h117_t26 - x_r1_g143 <= 0
 lin2_26_1_143: p_r1_g143_h117_t26 - x_r1_g117 <= 0
 lin3_26_1_143: p_r1_g143_h117_t26 - x_r1_g143 - x_r1_g117 >= -1
 lin1_26_1_154: p_r1_g154_h128_t26 - x_r1_g154 <= 0
 lin2_26_1_154: p_r1_g154_h128_t26 - x_r1_g128 <= 0
 lin3_26_1_154: p_r1_g154_h128_t26 - x_r1_g154 - x_r1_g128 >= -1
 lin1_26_2_18: p_r2_g18_h159_t26 - x_r2_g18 <= 0
 lin2_26_2_18: p_r2_g18_h159_t26 - x_r2_g159 <= 0
 lin3_26_2_18: p_r2_g18_h159_t26 - x_r2_g18 - x_r2_g159 >= -1
 lin1_26_2_60: p_r2_g60_h34_t26 - x_r2_g60 <= 0
 lin2_26_2_60: p_r2_g60_h34_t26 - x_r2_g34 <= 0
 lin3_26_2_60: p_r2_g60_h34_t26 - x_r2_g60 - x_r2_g34 >= -1
 lin1_26_2_74: p_r2_g74_h48_t26 - x_r2_g74 <= 0
 lin2_26_2_74: p_r2_g74_h48_t26 - x_r2_g48 <= 0
 lin3_26_2_74: p_r2_g74_h48_t26 - x_r2_g74 - x_r2_g48 >= -1
 lin1_26_2_86: p_r2_g86_h60_t26 - x_r2_g86 <= 0
 lin2_26_2_86: p_r2_g86_h60_t26 - x_r2_g60 <= 0
 lin3_26_2_86: p_r2_g86_h60_t26 - x_r2_g86 - x_r2_g60 >= -1
 lin1_26_2_100: p_r2_g100_h74_t26 - x_r2_g100 <= 0
 lin2_26_2_100: p_r2_g100_h74_t26 - x_r2_g74 <= 0
 lin3_26_2_100: p_r2_g100_h74_t26 - x_r2_g100 - x_r2_g74 >= -1
 lin1_26_2_136: p_r2_g136_h110_t26 - x_r2_g136 <= 0
 lin2_26_2_136: p_r2_g136_h110_t26 - x_r2_g110 <= 0
 lin3_26_2_136: p_r2_g136_h110_t26 - x_r2_g136 - x_r2_g110 >= -1
 lin1_26_2_162: p_r2_g162_h136_t26 - x_r2_g162 <= 0
 lin2_26_2_162: p_r2_g162_h136_t26 - x_r2_g136 <= 0
 lin3_26_2_162: p_r2_g162_h136_t26 - x_r2_g162 - x_r2_g136 >= -1
 lin1_26_2_165: p_r2_g165_h139_t26 - x_r2_g165 <= 0
 lin2_26_2_165: p_r2_g165_h139_t26 - x_r2_g139 <= 0
 lin3_26_2_165: p_r2_g165_h139_t26 - x_r2_g165 - x_r2_g139 >= -1
 lin1_26_3_3: p_r3_g3_h144_t26 - x_r3_g3 <= 0
 lin2_26_3_3: p_r3_g3_h144_t26 - x_r3_g144 <= 0
 lin3_26_3_3: p_r3_g3_h144_t26 - x_r3_g3 - x_r3_g144 >= -1
 lin1_26_3_13: p_r3_g13_h154_t26 - x_r3_g13 <= 0
 lin2_26_3_13: p_r3_g13_h154_t26 - x_r3_g154 <= 0
 lin3_26_3_13: p_r3_g13_h154_t26 - x_r3_g13 - x_r3_g154 >= -1
 lin1_26_3_18: p_r3_g18_h159_t26 - x_r3_g18 <= 0
 lin2_26_3_18: p_r3_g18_h159_t26 - x_r3_g159 <= 0
 lin3_26_3_18: p_r3_g18_h159_t26 - x_r3_g18 - x_r3_g159 >= -1
 lin1_26_3_33: p_r3_g33_h7_t26 - x_r3_g33 <= 0
 lin2_26_3_33: p_r3_g33_h7_t26 - x_r3_g7 <= 0
 lin3_26_3_33: p_r3_g33_h7_t26 - x_r3_g33 - x_r3_g7 >= -1
 lin1_26_3_34: p_r3_g34_h8_t26 - x_r3_g34 <= 0
 lin2_26_3_34: p_r3_g34_h8_t26 - x_r3_g8 <= 0
 lin3_26_3_34: p_r3_g34_h8_t26 - x_r3_g34 - x_r3_g8 >= -1
 lin1_26_3_53: p_r3_g53_h27_t26 - x_r3_g53 <= 0
 lin2_26_3_53: p_r3_g53_h27_t26 - x_r3_g27 <= 0
 lin3_26_3_53: p_r3_g53_h27_t26 - x_r3_g53 - x_r3_g27 >= -1
 lin1_26_3_77: p_r3_g77_h51_t26 - x_r3_g77 <= 0
 lin2_26_3_77: p_r3_g77_h51_t26 - x_r3_g51 <= 0
 lin3_26_3_77: p_r3_g77_h51_t26 - x_r3_g77 - x_r3_g51 >= -1
 lin1_26_3_79: p_r3_g79_h53_t26 - x_r3_g79 <= 0
 lin2_26_3_79: p_r3_g79_h53_t26 - x_r3_g53 <= 0
 lin3_26_3_79: p_r3_g79_h53_t26 - x_r3_g79 - x_r3_g53 >= -1
 lin1_26_3_91: p_r3_g91_h65_t26 - x_r3_g91 <= 0
 lin2_26_3_91: p_r3_g91_h65_t26 - x_r3_g65 <= 0
 lin3_26_3_91: p_r3_g91_h65_t26 - x_r3_g91 - x_r3_g65 >= -1
 lin1_26_3_103: p_r3_g103_h77_t26 - x_r3_g103 <= 0
 lin2_26_3_103: p_r3_g103_h77_t26 - x_r3_g77 <= 0
 lin3_26_3_103: p_r3_g103_h77_t26 - x_r3_g103 - x_r3_g77 >= -1
 lin1_26_3_147: p_r3_g147_h121_t26 - x_r3_g147 <= 0
 lin2_26_3_147: p_r3_g147_h121_t26 - x_r3_g121 <= 0
 lin3_26_3_147: p_r3_g147_h121_t26 - x_r3_g147 - x_r3_g121 >= -1
 lin1_26_3_154: p_r3_g154_h128_t26 - x_r3_g154 <= 0
 lin2_26_3_154: p_r3_g154_h128_t26 - x_r3_g128 <= 0
 lin3_26_3_154: p_r3_g154_h128_t26 - x_r3_g154 - x_r3_g128 >= -1
 defect_26: 1 d_26 - 1 x_r0_g1 - 1 x_r0_g4 - 2 x_r0_g14 - 2 x_r0_g17 - 1 x_r0_g22 - 1 x_r0_g23 - 1 x_r0_g25 - 1 x_r0_g26 - 2 x_r0_g32 - 1 x_r0_g36 - 2 x_r0_g37 - 1 x_r0_g48 - 1 x_r0_g68 - 1 x_r0_g69 - 1 x_r0_g84 - 1 x_r0_g87 - 1 x_r0_g101 - 1 x_r0_g123 - 1 x_r0_g131 - 1 x_r0_g144 - 2 x_r0_g153 - 1 x_r0_g162 - 1 x_r1_g11 - 1 x_r1_g13 - 1 x_r1_g15 - 1 x_r1_g25 - 1 x_r1_g30 - 1 x_r1_g31 - 2 x_r1_g53 - 2 x_r1_g62 - 1 x_r1_g75 - 2 x_r1_g83 - 1 x_r1_g90 - 1 x_r1_g91 - 1 x_r1_g93 - 1 x_r1_g96 - 1 x_r1_g107 - 1 x_r1_g108 - 1 x_r1_g110 - 1 x_r1_g113 - 2 x_r1_g114 - 1 x_r1_g121 - 1 x_r1_g126 - 1 x_r1_g157 - 1 x_r1_g161 - 1 x_r2_g2 - 2 x_r2_g30 - 1 x_r2_g64 - 2 x_r2_g67 - 1 x_r2_g82 - 1 x_r2_g86 - 1 x_r2_g91 - 1 x_r2_g95 - 1 x_r2_g100 - 2 x_r2_g111 - 2 x_r2_g120 - 1 x_r2_g128 - 1 x_r2_g135 - 1 x_r2_g139 - 2 x_r2_g142 - 1 x_r2_g152 - 2 x_r2_g155 - 1 x_r2_g158 - 1 x_r2_g162 - 1 x_r2_g163 - 1 x_r3_g7 - 1 x_r3_g8 - 1 x_r3_g11 - 1 x_r3_g13 - 1 x_r3_g15 - 2 x_r3_g19 - 1 x_r3_g27 - 1 x_r3_g33 - 1 x_r3_g36 - 1 x_r3_g56 - 1 x_r3_g57 - 1 x_r3_g65 - 2 x_r3_g72 - 1 x_r3_g94 - 1 x_r3_g103 - 2 x_r3_g106 - 1 x_r3_g111 - 1 x_r3_g113 - 1 x_r3_g123 - 1 x_r3_g124 - 2 x_r3_g125 - 1 x_r3_g138 - 1 x_r3_g144 - 2 x_r3_g145 - 1 x_r3_g147 - 1 x_r3_g165 - 1 p_r0_g35_h9_t26 - 1 p_r0_g48_h22_t26 - 1 p_r0_g54_h28_t26 - 1 p_r0_g60_h34_t26 - 1 p_r0_g123_h97_t26 - 1 p_r0_g144_h118_t26 - 1 p_r1_g13_h154_t26 - 1 p_r1_g64_h38_t26 - 1 p_r1_g90_h64_t26 - 1 p_r1_g93_h67_t26 - 1 p_r1_g117_h91_t26 - 1 p_r1_g143_h117_t26 - 1 p_r1_g154_h128_t26 - 1 p_r2_g18_h159_t26 - 1 p_r2_g60_h34_t26 - 1 p_r2_g74_h48_t26 - 1 p_r2_g86_h60_t26 - 1 p_r2_g100_h74_t26 - 1 p_r2_g136_h110_t26 - 1 p_r2_g162_h136_t26 - 1 p_r2_g165_h139_t26 - 1 p_r3_g3_h144_t26 - 1 p_r3_g13_h154_t26 - 1 p_r3_g18_h159_t26 - 1 p_r3_g33_h7_t26 - 1 p_r3_g34_h8_t26 - 1 p_r3_g53_h27_t26 - 1 p_r3_g77_h51_t26 - 1 p_r3_g79_h53_t26 - 1 p_r3_g91_h65_t26 - 1 p_r3_g103_h77_t26 - 1 p_r3_g147_h121_t26 - 1 p_r3_g154_h128_t26 = -67
 abs_pos_26: d_26 - u_26 <= 0
 abs_neg_26: - d_26 - u_26 <= 0
 max_def_26: u_26 - M <= 0
 cap_26: u_26 <= 1
 lin1_29_0_36: p_r0_g36_h7_t29 - x_r0_g36 <= 0
 lin2_29_0_36: p_r0_g36_h7_t29 - x_r0_g7 <= 0
 lin3_29_0_36: p_r0_g36_h7_t29 - x_r0_g36 - x_r0_g7 >= -1
 lin1_29_0_54: p_r0_g54_h25_t29 - x_r0_g54 <= 0
 lin2_29_0_54: p_r0_g54_h25_t29 - x_r0_g25 <= 0
 lin3_29_0_54: p_r0_g54_h25_t29 - x_r0_g54 - x_r0_g25 >= -1
 lin1_29_0_97: p_r0_g97_h68_t29 - x_r0_g97 <= 0
 lin2_29_0_97: p_r0_g97_h68_t29 - x_r0_g68 <= 0
 lin3_29_0_97: p_r0_g97_h68_t29 - x_r0_g97 - x_r0_g68 >= -1
 lin1_29_0_130: p_r0_g130_h101_t29 - x_r0_g130 <= 0
 lin2_29_0_130: p_r0_g130_h101_t29 - x_r0_g101 <= 0
 lin3_29_0_130: p_r0_g130_h101_t29 - x_r0_g130 - x_r0_g101 >= -1
 lin1_29_0_131: p_r0_g131_h102_t29 - x_r0_g131 <= 0
 lin2_29_0_131: p_r0_g131_h102_t29 - x_r0_g102 <= 0
 lin3_29_0_131: p_r0_g131_h102_t29 - x_r0_g131 - x_r0_g102 >= -1
 lin1_29_1_8: p_r1_g8_h146_t29 - x_r1_g8 <= 0
 lin2_29_1_8: p_r1_g8_h146_t29 - x_r1_g146 <= 0
 lin3_29_1_8: p_r1_g8_h146_t29 - x_r1_g8 - x_r1_g146 >= -1
 lin1_29_1_17: p_r1_g17_h155_t29 - x_r1_g17 <= 0
 lin2_29_1_17: p_r1_g17_h155_t29 - x_r1_g155 <= 0
 lin3_29_1_17: p_r1_g17_h155_t29 - x_r1_g17 - x_r1_g155 >= -1
 lin1_29_1_59: p_r1_g59_h30_t29 - x_r1_g59 <= 0
 lin2_29_1_59: p_r1_g59_h30_t29 - x_r1_g30 <= 0
 lin3_29_1_59: p_r1_g59_h30_t29 - x_r1_g59 - x_r1_g30 >= -1
 lin1_29_1_64: p_r1_g64_h35_t29 - x_r1_g64 <= 0
 lin2_29_1_64: p_r1_g64_h35_t29 - x_r1_g35 <= 0
 lin3_29_1_64: p_r1_g64_h35_t29 - x_r1_g64 - x_r1_g35 >= -1
 lin1_29_1_67: p_r1_g67_h38_t29 - x_r1_g67 <= 0
 lin2_29_1_67: p_r1_g67_h38_t29 - x_r1_g38 <= 0
 lin3_29_1_67: p_r1_g67_h38_t29 - x_r1_g67 - x_r1_g38 >= -1
 lin1_29_1_91: p_r1_g91_h62_t29 - x_r1_g91 <= 0
 lin2_29_1_91: p_r1_g91_h62_t29 - x_r1_g62 <= 0
 lin3_29_1_91: p_r1_g91_h62_t29 - x_r1_g91 - x_r1_g62 >= -1
 lin1_29_1_93: p_r1_g93_h64_t29 - x_r1_g93 <= 0
 lin2_29_1_93: p_r1_g93_h64_t29 - x_r1_g64 <= 0
 lin3_29_1_93: p_r1_g93_h64_t29 - x_r1_g93 - x_r1_g64 >= -1
 lin1_29_1_96: p_r1_g96_h67_t29 - x_r1_g96 <= 0
 lin2_29_1_96: p_r1_g96_h67_t29 - x_r1_g67 <= 0
 lin3_29_1_96: p_r1_g96_h67_t29 - x_r1_g96 - x_r1_g67 >= -1
 lin1_29_1_143: p_r1_g143_h114_t29 - x_r1_g143 <= 0
 lin2_29_1_143: p_r1_g143_h114_t29 - x_r1_g114 <= 0
 lin3_29_1_143: p_r1_g143_h114_t29 - x_r1_g143 - x_r1_g114 >= -1
 lin1_29_1_146: p_r1_g146_h117_t29 - x_r1_g146 <= 0
 lin2_29_1_146: p_r1_g146_h117_t29 - x_r1_g117 <= 0
 lin3_29_1_146: p_r1_g146_h117_t29 - x_r1_g146 - x_r1_g117 >= -1
 lin1_29_1_155: p_r1_g155_h126_t29 - x_r1_g155 <= 0
 lin2_29_1_155: p_r1_g155_h126_t29 - x_r1_g126 <= 0
 lin3_29_1_155: p_r1_g155_h126_t29 - x_r1_g155 - x_r1_g126 >= -1
 lin1_29_1_157: p_r1_g157_h128_t29 - x_r1_g157 <= 0
 lin2_29_1_157: p_r1_g157_h128_t29 - x_r1_g128 <= 0
 lin3_29_1_157: p_r1_g157_h128_t29 - x_r1_g157 - x_r1_g128 >= -1
 lin1_29_1_161: p_r1_g161_h132_t29 - x_r1_g161 <= 0
 lin2_29_1_161: p_r1_g161_h132_t29 - x_r1_g132 <= 0
 lin3_29_1_161: p_r1_g161_h132_t29 - x_r1_g161 - x_r1_g132 >= -1
 lin1_29_2_77: p_r2_g77_h48_t29 - x_r2_g77 <= 0
 lin2_29_2_77: p_r2_g77_h48_t29 - x_r2_g48 <= 0
 lin3_29_2_77: p_r2_g77_h48_t29 - x_r2_g77 - x_r2_g48 >= -1
 lin1_29_2_91: p_r2_g91_h62_t29 - x_r2_g91 <= 0
 lin2_29_2_91: p_r2_g91_h62_t29 - x_r2_g62 <= 0
 lin3_29_2_91: p_r2_g91_h62_t29 - x_r2_g91 - x_r2_g62 >= -1
 lin1_29_2_95: p_r2_g95_h66_t29 - x_r2_g95 <= 0
 lin2_29_2_95: p_r2_g95_h66_t29 - x_r2_g66 <= 0
 lin3_29_2_95: p_r2_g95_h66_t29 - x_r2_g95 - x_r2_g66 >= -1
 lin1_29_2_111: p_r2_g111_h82_t29 - x_r2_g111 <= 0
 lin2_29_2_111: p_r2_g111_h82_t29 - x_r2_g82 <= 0
 lin3_29_2_111: p_r2_g111_h82_t29 - x_r2_g111 - x_r2_g82 >= -1
 lin1_29_2_120: p_r2_g120_h91_t29 - x_r2_g120 <= 0
 lin2_29_2_120: p_r2_g120_h91_t29 - x_r2_g91 <= 0
 lin3_29_2_120: p_r2_g120_h91_t29 - x_r2_g120 - x_r2_g91 >= -1
 lin1_29_2_136: p_r2_g136_h107_t29 - x_r2_g136 <= 0
 lin2_29_2_136: p_r2_g136_h107_t29 - x_r2_g107 <= 0
 lin3_29_2_136: p_r2_g136_h107_t29 - x_r2_g136 - x_r2_g107 >= -1
 lin1_29_2_139: p_r2_g139_h110_t29 - x_r2_g139 <= 0
 lin2_29_2_139: p_r2_g139_h110_t29 - x_r2_g110 <= 0
 lin3_29_2_139: p_r2_g139_h110_t29 - x_r2_g139 - x_r2_g110 >= -1
 lin1_29_2_149: p_r2_g149_h120_t29 - x_r2_g149 <= 0
 lin2_29_2_149: p_r2_g149_h120_t29 - x_r2_g120 <= 0
 lin3_29_2_149: p_r2_g149_h120_t29 - x_r2_g149 - x_r2_g120 >= -1
 lin1_29_2_164: p_r2_g164_h135_t29 - x_r2_g164 <= 0
 lin2_29_2_164: p_r2_g164_h135_t29 - x_r2_g135 <= 0
 lin3_29_2_164: p_r2_g164_h135_t29 - x_r2_g164 - x_r2_g135 >= -1
 lin1_29_2_165: p_r2_g165_h136_t29 - x_r2_g165 <= 0
 lin2_29_2_165: p_r2_g165_h136_t29 - x_r2_g136 <= 0
 lin3_29_2_165: p_r2_g165_h136_t29 - x_r2_g165 - x_r2_g136 >= -1
 lin1_29_3_7: p_r3_g7_h145_t29 - x_r3_g7 <= 0
 lin2_29_3_7: p_r3_g7_h145_t29 - x_r3_g145 <= 0
 lin3_29_3_7: p_r3_g7_h145_t29 - x_r3_g7 - x_r3_g145 >= -1
 lin1_29_3_16: p_r3_g16_h154_t29 - x_r3_g16 <= 0
 lin2_29_3_16: p_r3_g16_h154_t29 - x_r3_g154 <= 0
 lin3_29_3_16: p_r3_g16_h154_t29 - x_r3_g16 - x_r3_g154 >= -1
 lin1_29_3_27: p_r3_g27_h165_t29 - x_r3_g27 <= 0
 lin2_29_3_27: p_r3_g27_h165_t29 - x_r3_g165 <= 0
 lin3_29_3_27: p_r3_g27_h165_t29 - x_r3_g27 - x_r3_g165 >= -1
 lin1_29_3_36: p_r3_g36_h7_t29 - x_r3_g36 <= 0
 lin2_29_3_36: p_r3_g36_h7_t29 - x_r3_g7 <= 0
 lin3_29_3_36: p_r3_g36_h7_t29 - x_r3_g36 - x_r3_g7 >= -1
 lin1_29_3_56: p_r3_g56_h27_t29 - x_r3_g56 <= 0
 lin2_29_3_56: p_r3_g56_h27_t29 - x_r3_g27 <= 0
 lin3_29_3_56: p_r3_g56_h27_t29 - x_r3_g56 - x_r3_g27 >= -1
 lin1_29_3_65: p_r3_g65_h36_t29 - x_r3_g65 <= 0
 lin2_29_3_65: p_r3_g65_h36_t29 - x_r3_g36 <= 0
 lin3_29_3_65: p_r3_g65_h36_t29 - x_r3_g65 - x_r3_g36 >= -1
 lin1_29_3_94: p_r3_g94_h65_t29 - x_r3_g94 <= 0
 lin2_29_3_94: p_r3_g94_h65_t29 - x_r3_g65 <= 0
 lin3_29_3_94: p_r3_g94_h65_t29 - x_r3_g94 - x_r3_g65 >= -1
 lin1_29_3_106: p_r3_g106_h77_t29 - x_r3_g106 <= 0
 lin2_29_3_106: p_r3_g106_h77_t29 - x_r3_g77 <= 0
 lin3_29_3_106: p_r3_g106_h77_t29 - x_r3_g106 - x_r3_g77 >= -1
 lin1_29_3_123: p_r3_g123_h94_t29 - x_r3_g123 <= 0
 lin2_29_3_123: p_r3_g123_h94_t29 - x_r3_g94 <= 0
 lin3_29_3_123: p_r3_g123_h94_t29 - x_r3_g123 - x_r3_g94 >= -1
 lin1_29_3_154: p_r3_g154_h125_t29 - x_r3_g154 <= 0
 lin2_29_3_154: p_r3_g154_h125_t29 - x_r3_g125 <= 0
 lin3_29_3_154: p_r3_g154_h125_t29 - x_r3_g154 - x_r3_g125 >= -1
 defect_29: 1 d_29 - 2 x_r0_g1 - 1 x_r0_g4 - 1 x_r0_g9 - 2 x_r0_g14 - 1 x_r0_g17 - 2 x_r0_g20 - 2 x_r0_g22 - 1 x_r0_g23 - 1 x_r0_g25 - 1 x_r0_g26 - 1 x_r0_g32 - 2 x_r0_g34 - 1 x_r0_g35 - 1 x_r0_g36 - 2 x_r0_g48 - 1 x_r0_g67 - 2 x_r0_g69 - 2 x_r0_g84 - 2 x_r0_g87 - 1 x_r0_g97 - 1 x_r0_g123 - 1 x_r0_g130 - 1 x_r0_g131 - 1 x_r0_g143 - 1 x_r0_g144 - 1 x_r0_g153 - 1 x_r1_g8 - 1 x_r1_g11 - 1 x_r1_g13 - 1 x_r1_g15 - 1 x_r1_g17 - 1 x_r1_g25 - 1 x_r1_g30 - 1 x_r1_g53 - 1 x_r1_g59 - 1 x_r1_g75 - 1 x_r1_g80 - 1 x_r1_g83 - 1 x_r1_g90 - 1 x_r1_g107 - 1 x_r1_g108 - 1 x_r1_g110 - 2 x_r1_g111 - 1 x_r1_g113 - 1 x_r1_g117 - 1 x_r1_g132 - 1 x_r1_g154 - 2 x_r2_g2 - 2 x_r2_g29 - 1 x_r2_g30 - 1 x_r2_g34 - 1 x_r2_g60 - 1 x_r2_g62 - 1 x_r2_g64 - 1 x_r2_g70 - 1 x_r2_g73 - 1 x_r2_g86 - 1 x_r2_g100 - 1 x_r2_g107 - 1 x_r2_g111 - 1 x_r2_g128 - 1 x_r2_g139 - 2 x_r2_g142 - 1 x_r2_g152 - 1 x_r2_g155 - 2 x_r2_g158 - 2 x_r2_g159 - 2 x_r2_g163 - 1 x_r2_g164 - 1 x_r2_g165 - 1 x_r3_g3 - 1 x_r3_g8 - 2 x_r3_g11 - 1 x_r3_g13 - 1 x_r3_g16 - 1 x_r3_g18 - 2 x_r3_g33 - 1 x_r3_g34 - 2 x_r3_g51 - 2 x_r3_g57 - 1 x_r3_g72 - 1 x_r3_g79 - 1 x_r3_g91 - 2 x_r3_g103 - 1 x_r3_g111 - 1 x_r3_g113 - 1 x_r3_g128 - 1 x_r3_g144 - 2 x_r3_g147 - 1 p_r0_g36_h7_t29 - 1 p_r0_g54_h25_t29 - 1 p_r0_g97_h68_t29 - 1 p_r0_g130_h101_t29 - 1 p_r0_g131_h102_t29 - 1 p_r1_g8_h146_t29 - 1 p_r1_g17_h155_t29 - 1 p_r1_g59_h30_t29 - 1 p_r1_g64_h35_t29 - 1 p_r1_g67_h38_t29 - 1 p_r1_g91_h62_t29 - 1 p_r1_g93_h64_t29 - 1 p_r1_g96_h67_t29 - 1 p_r1_g143_h114_t29 - 1 p_r1_g146_h117_t29 - 1 p_r1_g155_h126_t29 - 1 p_r1_g157_h128_t29 - 1 p_r1_g161_h132_t29 - 1 p_r2_g77_h48_t29 - 1 p_r2_g91_h62_t29 - 1 p_r2_g95_h66_t29 - 1 p_r2_g111_h82_t29 - 1 p_r2_g120_h91_t29 - 1 p_r2_g136_h107_t29 - 1 p_r2_g139_h110_t29 - 1 p_r2_g149_h120_t29 - 1 p_r2_g164_h135_t29 - 1 p_r2_g165_h136_t29 - 1 p_r3_g7_h145_t29 - 1 p_r3_g16_h154_t29 - 1 p_r3_g27_h165_t29 - 1 p_r3_g36_h7_t29 - 1 p_r3_g56_h27_t29 - 1 p_r3_g65_h36_t29 - 1 p_r3_g94_h65_t29 - 1 p_r3_g106_h77_t29 - 1 p_r3_g123_h94_t29 - 1 p_r3_g154_h125_t29 = -52
 abs_pos_29: d_29 - u_29 <= 0
 abs_neg_29: - d_29 - u_29 <= 0
 max_def_29: u_29 - M <= 0
 cap_29: u_29 <= 2
 lin1_36_0_22: p_r0_g22_h153_t36 - x_r0_g22 <= 0
 lin2_36_0_22: p_r0_g22_h153_t36 - x_r0_g153 <= 0
 lin3_36_0_22: p_r0_g22_h153_t36 - x_r0_g22 - x_r0_g153 >= -1
 lin1_36_0_37: p_r0_g37_h1_t36 - x_r0_g37 <= 0
 lin2_36_0_37: p_r0_g37_h1_t36 - x_r0_g1 <= 0
 lin3_36_0_37: p_r0_g37_h1_t36 - x_r0_g37 - x_r0_g1 >= -1
 lin1_36_0_68: p_r0_g68_h32_t36 - x_r0_g68 <= 0
 lin2_36_0_68: p_r0_g68_h32_t36 - x_r0_g32 <= 0
 lin3_36_0_68: p_r0_g68_h32_t36 - x_r0_g68 - x_r0_g32 >= -1
 lin1_36_0_70: p_r0_g70_h34_t36 - x_r0_g70 <= 0
 lin2_36_0_70: p_r0_g70_h34_t36 - x_r0_g34 <= 0
 lin3_36_0_70: p_r0_g70_h34_t36 - x_r0_g70 - x_r0_g34 >= -1
 lin1_36_0_84: p_r0_g84_h48_t36 - x_r0_g84 <= 0
 lin2_36_0_84: p_r0_g84_h48_t36 - x_r0_g48 <= 0
 lin3_36_0_84: p_r0_g84_h48_t36 - x_r0_g84 - x_r0_g48 >= -1
 lin1_36_0_123: p_r0_g123_h87_t36 - x_r0_g123 <= 0
 lin2_36_0_123: p_r0_g123_h87_t36 - x_r0_g87 <= 0
 lin3_36_0_123: p_r0_g123_h87_t36 - x_r0_g123 - x_r0_g87 >= -1
 lin1_36_1_15: p_r1_g15_h146_t36 - x_r1_g15 <= 0
 lin2_36_1_15: p_r1_g15_h146_t36 - x_r1_g146 <= 0
 lin3_36_1_15: p_r1_g15_h146_t36 - x_r1_g15 - x_r1_g146 >= -1
 lin1_36_1_30: p_r1_g30_h161_t36 - x_r1_g30 <= 0
 lin2_36_1_30: p_r1_g30_h161_t36 - x_r1_g161 <= 0
 lin3_36_1_30: p_r1_g30_h161_t36 - x_r1_g30 - x_r1_g161 >= -1
 lin1_36_1_53: p_r1_g53_h17_t36 - x_r1_g53 <= 0
 lin2_36_1_53: p_r1_g53_h17_t36 - x_r1_g17 <= 0
 lin3_36_1_53: p_r1_g53_h17_t36 - x_r1_g53 - x_r1_g17 >= -1
 lin1_36_1_67: p_r1_g67_h31_t36 - x_r1_g67 <= 0
 lin2_36_1_67: p_r1_g67_h31_t36 - x_r1_g31 <= 0
 lin3_36_1_67: p_r1_g67_h31_t36 - x_r1_g67 - x_r1_g31 >= -1
 lin1_36_1_111: p_r1_g111_h75_t36 - x_r1_g111 <= 0
 lin2_36_1_111: p_r1_g111_h75_t36 - x_r1_g75 <= 0
 lin3_36_1_111: p_r1_g111_h75_t36 - x_r1_g111 - x_r1_g75 >= -1
 lin1_36_1_126: p_r1_g126_h90_t36 - x_r1_g126 <= 0
 lin2_36_1_126: p_r1_g126_h90_t36 - x_r1_g90 <= 0
 lin3_36_1_126: p_r1_g126_h90_t36 - x_r1_g126 - x_r1_g90 >= -1
 lin1_36_1_132: p_r1_g132_h96_t36 - x_r1_g132 <= 0
 lin2_36_1_132: p_r1_g132_h96_t36 - x_r1_g96 <= 0
 lin3_36_1_132: p_r1_g132_h96_t36 - x_r1_g132 - x_r1_g96 >= -1
 lin1_36_1_143: p_r1_g143_h107_t36 - x_r1_g143 <= 0
 lin2_36_1_143: p_r1_g143_h107_t36 - x_r1_g107 <= 0
 lin3_36_1_143: p_r1_g143_h107_t36 - x_r1_g143 - x_r1_g107 >= -1
 lin1_36_1_146: p_r1_g146_h110_t36 - x_r1_g146 <= 0
 lin2_36_1_146: p_r1_g146_h110_t36 - x_r1_g110 <= 0
 lin3_36_1_146: p_r1_g146_h110_t36 - x_r1_g146 - x_r1_g110 >= -1
 lin1_36_1_157: p_r1_g157_h121_t36 - x_r1_g157 <= 0
 lin2_36_1_157: p_r1_g157_h121_t36 - x_r1_g121 <= 0
 lin3_36_1_157: p_r1_g157_h121_t36 - x_r1_g157 - x_r1_g121 >= -1
 lin1_36_2_18: p_r2_g18_h149_t36 - x_r2_g18 <= 0
 lin2_36_2_18: p_r2_g18_h149_t36 - x_r2_g149 <= 0
 lin3_36_2_18: p_r2_g18_h149_t36 - x_r2_g18 - x_r2_g149 >= -1
 lin1_36_2_34: p_r2_g34_h165_t36 - x_r2_g34 <= 0
 lin2_36_2_34: p_r2_g34_h165_t36 - x_r2_g165 <= 0
 lin3_36_2_34: p_r2_g34_h165_t36 - x_r2_g34 - x_r2_g165 >= -1
 lin1_36_2_66: p_r2_g66_h30_t36 - x_r2_g66 <= 0
 lin2_36_2_66: p_r2_g66_h30_t36 - x_r2_g30 <= 0
 lin3_36_2_66: p_r2_g66_h30_t36 - x_r2_g66 - x_r2_g30 >= -1
 lin1_36_2_70: p_r2_g70_h34_t36 - x_r2_g70 <= 0
 lin2_36_2_70: p_r2_g70_h34_t36 - x_r2_g34 <= 0
 lin3_36_2_70: p_r2_g70_h34_t36 - x_r2_g70 - x_r2_g34 >= -1
 lin1_36_2_98: p_r2_g98_h62_t36 - x_r2_g98 <= 0
 lin2_36_2_98: p_r2_g98_h62_t36 - x_r2_g62 <= 0
 lin3_36_2_98: p_r2_g98_h62_t36 - x_r2_g98 - x_r2_g62 >= -1
 lin1_36_2_100: p_r2_g100_h64_t36 - x_r2_g100 <= 0
 lin2_36_2_100: p_r2_g100_h64_t36 - x_r2_g64 <= 0
 lin3_36_2_100: p_r2_g100_h64_t36 - x_r2_g100 - x_r2_g64 >= -1
 lin1_36_2_110: p_r2_g110_h74_t36 - x_r2_g110 <= 0
 lin2_36_2_110: p_r2_g110_h74_t36 - x_r2_g74 <= 0
 lin3_36_2_110: p_r2_g110_h74_t36 - x_r2_g110 - x_r2_g74 >= -1
 lin1_36_2_136: p_r2_g136_h100_t36 - x_r2_g136 <= 0
 lin2_36_2_136: p_r2_g136_h100_t36 - x_r2_g100 <= 0
 lin3_36_2_136: p_r2_g136_h100_t36 - x_r2_g136 - x_r2_g100 >= -1
 lin1_36_2_164: p_r2_g164_h128_t36 - x_r2_g164 <= 0
 lin2_36_2_164: p_r2_g164_h128_t36 - x_r2_g128 <= 0
 lin3_36_2_164: p_r2_g164_h128_t36 - x_r2_g164 - x_r2_g128 >= -1
 lin1_36_3_7: p_r3_g7_h138_t36 - x_r3_g7 <= 0
 lin2_36_3_7: p_r3_g7_h138_t36 - x_r3_g138 <= 0
 lin3_36_3_7: p_r3_g7_h138_t36 - x_r3_g7 - x_r3_g138 >= -1
 lin1_36_3_13: p_r3_g13_h144_t36 - x_r3_g13 <= 0
 lin2_36_3_13: p_r3_g13_h144_t36 - x_r3_g144 <= 0
 lin3_36_3_13: p_r3_g13_h144_t36 - x_r3_g13 - x_r3_g144 >= -1
 lin1_36_3_16: p_r3_g16_h147_t36 - x_r3_g16 <= 0
 lin2_36_3_16: p_r3_g16_h147_t36 - x_r3_g147 <= 0
 lin3_36_3_16: p_r3_g16_h147_t36 - x_r3_g16 - x_r3_g147 >= -1
 lin1_36_3_34: p_r3_g34_h165_t36 - x_r3_g34 <= 0
 lin2_36_3_34: p_r3_g34_h165_t36 - x_r3_g165 <= 0
 lin3_36_3_34: p_r3_g34_h165_t36 - x_r3_g34 - x_r3_g165 >= -1
 lin1_36_3_51: p_r3_g51_h15_t36 - x_r3_g51 <= 0
 lin2_36_3_51: p_r3_g51_h15_t36 - x_r3_g15 <= 0
 lin3_36_3_51: p_r3_g51_h15_t36 - x_r3_g51 - x_r3_g15 >= -1
 lin1_36_3_72: p_r3_g72_h36_t36 - x_r3_g72 <= 0
 lin2_36_3_72: p_r3_g72_h36_t36 - x_r3_g36 <= 0
 lin3_36_3_72: p_r3_g72_h36_t36 - x_r3_g72 - x_r3_g36 >= -1
 lin1_36_3_113: p_r3_g113_h77_t36 - x_r3_g113 <= 0
 lin2_36_3_113: p_r3_g113_h77_t36 - x_r3_g77 <= 0
 lin3_36_3_113: p_r3_g113_h77_t36 - x_r3_g113 - x_r3_g77 >= -1
 lin1_36_3_147: p_r3_g147_h111_t36 - x_r3_g147 <= 0
 lin2_36_3_147: p_r3_g147_h111_t36 - x_r3_g111 <= 0
 lin3_36_3_147: p_r3_g147_h111_t36 - x_r3_g147 - x_r3_g111 >= -1
 lin1_36_3_159: p_r3_g159_h123_t36 - x_r3_g159 <= 0
 lin2_36_3_159: p_r3_g159_h123_t36 - x_r3_g123 <= 0
 lin3_36_3_159: p_r3_g159_h123_t36 - x_r3_g159 - x_r3_g123 >= -1
 defect_36: 1 d_36 - 1 x_r0_g1 - 1 x_r0_g4 - 1 x_r0_g7 - 1 x_r0_g9 - 1 x_r0_g20 - 1 x_r0_g22 - 1 x_r0_g23 - 2 x_r0_g26 - 1 x_r0_g28 - 1 x_r0_g32 - 1 x_r0_g34 - 1 x_r0_g47 - 1 x_r0_g48 - 1 x_r0_g54 - 1 x_r0_g67 - 1 x_r0_g70 - 1 x_r0_g79 - 1 x_r0_g84 - 1 x_r0_g87 - 2 x_r0_g101 - 1 x_r0_g121 - 1 x_r0_g123 - 1 x_r0_g143 - 1 x_r0_g144 - 1 x_r0_g162 - 1 x_r1_g8 - 1 x_r1_g13 - 1 x_r1_g25 - 1 x_r1_g30 - 1 x_r1_g35 - 1 x_r1_g53 - 1 x_r1_g59 - 2 x_r1_g62 - 1 x_r1_g64 - 1 x_r1_g67 - 1 x_r1_g75 - 2 x_r1_g76 - 2 x_r1_g80 - 1 x_r1_g83 - 1 x_r1_g91 - 1 x_r1_g93 - 1 x_r1_g114 - 1 x_r1_g117 - 1 x_r1_g128 - 1 x_r1_g132 - 1 x_r1_g155 - 1 x_r1_g157 - 2 x_r2_g29 - 1 x_r2_g30 - 1 x_r2_g62 - 1 x_r2_g64 - 1 x_r2_g66 - 1 x_r2_g67 - 2 x_r2_g77 - 1 x_r2_g80 - 1 x_r2_g82 - 1 x_r2_g86 - 1 x_r2_g98 - 1 x_r2_g110 - 1 x_r2_g111 - 1 x_r2_g135 - 1 x_r2_g149 - 2 x_r2_g152 - 1 x_r2_g155 - 2 x_r2_g158 - 1 x_r2_g159 - 2 x_r2_g162 - 1 x_r2_g164 - 1 x_r2_g165 - 2 x_r3_g3 - 1 x_r3_g7 - 1 x_r3_g8 - 2 x_r3_g11 - 1 x_r3_g13 - 1 x_r3_g18 - 1 x_r3_g19 - 2 x_r3_g53 - 1 x_r3_g56 - 1 x_r3_g72 - 1 x_r3_g77 - 1 x_r3_g79 - 2 x_r3_g91 - 1 x_r3_g103 - 1 x_r3_g106 - 1 x_r3_g111 - 1 x_r3_g113 - 1 x_r3_g124 - 1 x_r3_g125 - 1 x_r3_g144 - 1 x_r3_g154 - 1 x_r3_g159 - 1 x_r3_g165 - 1 p_r0_g22_h153_t36 - 1 p_r0_g37_h1_t36 - 1 p_r0_g68_h32_t36 - 1 p_r0_g70_h34_t36 - 1 p_r0_g84_h48_t36 - 1 p_r0_g123_h87_t36 - 1 p_r1_g15_h146_t36 - 1 p_r1_g30_h161_t36 - 1 p_r1_g53_h17_t36 - 1 p_r1_g67_h31_t36 - 1 p_r1_g111_h75_t36 - 1 p_r1_g126_h90_t36 - 1 p_r1_g132_h96_t36 - 1 p_r1_g143_h107_t36 - 1 p_r1_g146_h110_t36 - 1 p_r1_g157_h121_t36 - 1 p_r2_g18_h149_t36 - 1 p_r2_g34_h165_t36 - 1 p_r2_g66_h30_t36 - 1 p_r2_g70_h34_t36 - 1 p_r2_g98_h62_t36 - 1 p_r2_g100_h64_t36 - 1 p_r2_g110_h74_t36 - 1 p_r2_g136_h100_t36 - 1 p_r2_g164_h128_t36 - 1 p_r3_g7_h138_t36 - 1 p_r3_g13_h144_t36 - 1 p_r3_g16_h147_t36 - 1 p_r3_g34_h165_t36 - 1 p_r3_g51_h15_t36 - 1 p_r3_g72_h36_t36 - 1 p_r3_g113_h77_t36 - 1 p_r3_g147_h111_t36 - 1 p_r3_g159_h123_t36 = -53
 abs_pos_36: d_36 - u_36 <= 0
 abs_neg_36: - d_36 - u_36 <= 0
 max_def_36: u_36 - M <= 0
 cap_36: u_36 <= 1
 lin1_37_0_1: p_r0_g1_h131_t37 - x_r0_g1 <= 0
 lin2_37_0_1: p_r0_g1_h131_t37 - x_r0_g131 <= 0
 lin3_37_0_1: p_r0_g1_h131_t37 - x_r0_g1 - x_r0_g131 >= -1
 lin1_37_0_14: p_r0_g14_h144_t37 - x_r0_g14 <= 0
 lin2_37_0_14: p_r0_g14_h144_t37 - x_r0_g144 <= 0
 lin3_37_0_14: p_r0_g14_h144_t37 - x_r0_g14 - x_r0_g144 >= -1
 lin1_37_0_23: p_r0_g23_h153_t37 - x_r0_g23 <= 0
 lin2_37_0_23: p_r0_g23_h153_t37 - x_r0_g153 <= 0
 lin3_37_0_23: p_r0_g23_h153_t37 - x_r0_g23 - x_r0_g153 >= -1
 lin1_37_0_32: p_r0_g32_h162_t37 - x_r0_g32 <= 0
 lin2_37_0_32: p_r0_g32_h162_t37 - x_r0_g162 <= 0
 lin3_37_0_32: p_r0_g32_h162_t37 - x_r0_g32 - x_r0_g162 >= -1
 lin1_37_0_54: p_r0_g54_h17_t37 - x_r0_g54 <= 0
 lin2_37_0_54: p_r0_g54_h17_t37 - x_r0_g17 <= 0
 lin3_37_0_54: p_r0_g54_h17_t37 - x_r0_g54 - x_r0_g17 >= -1
 lin1_37_0_60: p_r0_g60_h23_t37 - x_r0_g60 <= 0
 lin2_37_0_60: p_r0_g60_h23_t37 - x_r0_g23 <= 0
 lin3_37_0_60: p_r0_g60_h23_t37 - x_r0_g60 - x_r0_g23 >= -1
 lin1_37_0_69: p_r0_g69_h32_t37 - x_r0_g69 <= 0
 lin2_37_0_69: p_r0_g69_h32_t37 - x_r0_g32 <= 0
 lin3_37_0_69: p_r0_g69_h32_t37 - x_r0_g69 - x_r0_g32 >= -1
 lin1_37_0_84: p_r0_g84_h47_t37 - x_r0_g84 <= 0
 lin2_37_0_84: p_r0_g84_h47_t37 - x_r0_g47 <= 0
 lin3_37_0_84: p_r0_g84_h47_t37 - x_r0_g84 - x_r0_g47 >= -1
 lin1_37_0_97: p_r0_g97_h60_t37 - x_r0_g97 <= 0
 lin2_37_0_97: p_r0_g97_h60_t37 - x_r0_g60 <= 0
 lin3_37_0_97: p_r0_g97_h60_t37 - x_r0_g97 - x_r0_g60 >= -1
 lin1_37_0_121: p_r0_g121_h84_t37 - x_r0_g121 <= 0
 lin2_37_0_121: p_r0_g121_h84_t37 - x_r0_g84 <= 0
 lin3_37_0_121: p_r0_g121_h84_t37 - x_r0_g121 - x_r0_g84 >= -1
 lin1_37_1_13: p_r1_g13_h143_t37 - x_r1_g13 <= 0
 lin2_37_1_13: p_r1_g13_h143_t37 - x_r1_g143 <= 0
 lin3_37_1_13: p_r1_g13_h143_t37 - x_r1_g13 - x_r1_g143 >= -1
 lin1_37_1_25: p_r1_g25_h155_t37 - x_r1_g25 <= 0
 lin2_37_1_25: p_r1_g25_h155_t37 - x_r1_g155 <= 0
 lin3_37_1_25: p_r1_g25_h155_t37 - x_r1_g25 - x_r1_g155 >= -1
 lin1_37_1_31: p_r1_g31_h161_t37 - x_r1_g31 <= 0
 lin2_37_1_31: p_r1_g31_h161_t37 - x_r1_g161 <= 0
 lin3_37_1_31: p_r1_g31_h161_t37 - x_r1_g31 - x_r1_g161 >= -1
 lin1_37_1_62: p_r1_g62_h25_t37 - x_r1_g62 <= 0
 lin2_37_1_62: p_r1_g62_h25_t37 - x_r1_g25 <= 0
 lin3_37_1_62: p_r1_g62_h25_t37 - x_r1_g62 - x_r1_g25 >= -1
 lin1_37_1_67: p_r1_g67_h30_t37 - x_r1_g67 <= 0
 lin2_37_1_67: p_r1_g67_h30_t37 - x_r1_g30 <= 0
 lin3_37_1_67: p_r1_g67_h30_t37 - x_r1_g67 - x_r1_g30 >= -1
 lin1_37_1_75: p_r1_g75_h38_t37 - x_r1_g75 <= 0
 lin2_37_1_75: p_r1_g75_h38_t37 - x_r1_g38 <= 0
 lin3_37_1_75: p_r1_g75_h38_t37 - x_r1_g75 - x_r1_g38 >= -1
 lin1_37_1_90: p_r1_g90_h53_t37 - x_r1_g90 <= 0
 lin2_37_1_90: p_r1_g90_h53_t37 - x_r1_g53 <= 0
 lin3_37_1_90: p_r1_g90_h53_t37 - x_r1_g90 - x_r1_g53 >= -1
 lin1_37_1_96: p_r1_g96_h59_t37 - x_r1_g96 <= 0
 lin2_37_1_96: p_r1_g96_h59_t37 - x_r1_g59 <= 0
 lin3_37_1_96: p_r1_g96_h59_t37 - x_r1_g96 - x_r1_g59 >= -1
 lin1_37_1_113: p_r1_g113_h76_t37 - x_r1_g113 <= 0
 lin2_37_1_113: p_r1_g113_h76_t37 - x_r1_g76 <= 0
 lin3_37_1_113: p_r1_g113_h76_t37 - x_r1_g113 - x_r1_g76 >= -1
 lin1_37_1_117: p_r1_g117_h80_t37 - x_r1_g117 <= 0
 lin2_37_1_117: p_r1_g117_h80_t37 - x_r1_g80 <= 0
 lin3_37_1_117: p_r1_g117_h80_t37 - x_r1_g117 - x_r1_g80 >= -1
 lin1_37_1_128: p_r1_g128_h91_t37 - x_r1_g128 <= 0
 lin2_37_1_128: p_r1_g128_h91_t37 - x_r1_g91 <= 0
 lin3_37_1_128: p_r1_g128_h91_t37 - x_r1_g128 - x_r1_g91 >= -1
 lin1_37_1_154: p_r1_g154_h117_t37 - x_r1_g154 <= 0
 lin2_37_1_154: p_r1_g154_h117_t37 - x_r1_g117 <= 0
 lin3_37_1_154: p_r1_g154_h117_t37 - x_r1_g154 - x_r1_g117 >= -1
 lin1_37_2_29: p_r2_g29_h159_t37 - x_r2_g29 <= 0
 lin2_37_2_29: p_r2_g29_h159_t37 - x_r2_g159 <= 0
 lin3_37_2_29: p_r2_g29_h159_t37 - x_r2_g29 - x_r2_g159 >= -1
 lin1_37_2_34: p_r2_g34_h164_t37 - x_r2_g34 <= 0
 lin2_37_2_34: p_r2_g34_h164_t37 - x_r2_g164 <= 0
 lin3_37_2_34: p_r2_g34_h164_t37 - x_r2_g34 - x_r2_g164 >= -1
 lin1_37_2_66: p_r2_g66_h29_t37 - x_r2_g66 <= 0
 lin2_37_2_66: p_r2_g66_h29_t37 - x_r2_g29 <= 0
 lin3_37_2_66: p_r2_g66_h29_t37 - x_r2_g66 - x_r2_g29 >= -1
 lin1_37_2_67: p_r2_g67_h30_t37 - x_r2_g67 <= 0
 lin2_37_2_67: p_r2_g67_h30_t37 - x_r2_g30 <= 0
 lin3_37_2_67: p_r2_g67_h30_t37 - x_r2_g67 - x_r2_g30 >= -1
 lin1_37_2_107: p_r2_g107_h70_t37 - x_r2_g107 <= 0
 lin2_37_2_107: p_r2_g107_h70_t37 - x_r2_g70 <= 0
 lin3_37_2_107: p_r2_g107_h70_t37 - x_r2_g107 - x_r2_g70 >= -1
 lin1_37_2_110: p_r2_g110_h73_t37 - x_r2_g110 <= 0
 lin2_37_2_110: p_r2_g110_h73_t37 - x_r2_g73 <= 0
 lin3_37_2_110: p_r2_g110_h73_t37 - x_r2_g110 - x_r2_g73 >= -1
 lin1_37_2_111: p_r2_g111_h74_t37 - x_r2_g111 <= 0
 lin2_37_2_111: p_r2_g111_h74_t37 - x_r2_g74 <= 0
 lin3_37_2_111: p_r2_g111_h74_t37 - x_r2_g111 - x_r2_g74 >= -1
 lin1_37_2_128: p_r2_g128_h91_t37 - x_r2_g128 <= 0
 lin2_37_2_128: p_r2_g128_h91_t37 - x_r2_g91 <= 0
 lin3_37_2_128: p_r2_g128_h91_t37 - x_r2_g128 - x_r2_g91 >= -1
 lin1_37_2_135: p_r2_g135_h98_t37 - x_r2_g135 <= 0
 lin2_37_2_135: p_r2_g135_h98_t37 - x_r2_g98 <= 0
 lin3_37_2_135: p_r2_g135_h98_t37 - x_r2_g135 - x_r2_g98 >= -1
 lin1_37_2_165: p_r2_g165_h128_t37 - x_r2_g165 <= 0
 lin2_37_2_165: p_r2_g165_h128_t37 - x_r2_g128 <= 0
 lin3_37_2_165: p_r2_g165_h128_t37 - x_r2_g165 - x_r2_g128 >= -1
 lin1_37_3_8: p_r3_g8_h138_t37 - x_r3_g8 <= 0
 lin2_37_3_8: p_r3_g8_h138_t37 - x_r3_g138 <= 0
 lin3_37_3_8: p_r3_g8_h138_t37 - x_r3_g8 - x_r3_g138 >= -1
 lin1_37_3_15: p_r3_g15_h145_t37 - x_r3_g15 <= 0
 lin2_37_3_15: p_r3_g15_h145_t37 - x_r3_g145 <= 0
 lin3_37_3_15: p_r3_g15_h145_t37 - x_r3_g15 - x_r3_g145 >= -1
 lin1_37_3_53: p_r3_g53_h16_t37 - x_r3_g53 <= 0
 lin2_37_3_53: p_r3_g53_h16_t37 - x_r3_g16 <= 0
 lin3_37_3_53: p_r3_g53_h16_t37 - x_r3_g53 - x_r3_g16 >= -1
 lin1_37_3_56: p_r3_g56_h19_t37 - x_r3_g56 <= 0
 lin2_37_3_56: p_r3_g56_h19_t37 - x_r3_g19 <= 0
 lin3_37_3_56: p_r3_g56_h19_t37 - x_r3_g56 - x_r3_g19 >= -1
 lin1_37_3_94: p_r3_g94_h57_t37 - x_r3_g94 <= 0
 lin2_37_3_94: p_r3_g94_h57_t37 - x_r3_g57 <= 0
 lin3_37_3_94: p_r3_g94_h57_t37 - x_r3_g94 - x_r3_g57 >= -1
 lin1_37_3_128: p_r3_g128_h91_t37 - x_r3_g128 <= 0
 lin2_37_3_128: p_r3_g128_h91_t37 - x_r3_g91 <= 0
 lin3_37_3_128: p_r3_g128_h91_t37 - x_r3_g128 - x_r3_g91 >= -1
 lin1_37_3_162: p_r3_g162_h125_t37 - x_r3_g162 <= 0
 lin2_37_3_162: p_r3_g162_h125_t37 - x_r3_g125 <= 0
 lin3_37_3_162: p_r3_g162_h125_t37 - x_r3_g162 - x_r3_g125 >= -1
 lin1_37_3_165: p_r3_g165_h128_t37 - x_r3_g165 <= 0
 lin2_37_3_165: p_r3_g165_h128_t37 - x_r3_g128 <= 0
 lin3_37_3_165: p_r3_g165_h128_t37 - x_r3_g165 - x_r3_g128 >= -1
 defect_37: 1 d_37 - 1 x_r0_g1 - 1 x_r0_g7 - 1 x_r0_g9 - 1 x_r0_g14 - 2 x_r0_g22 - 2 x_r0_g25 - 1 x_r0_g26 - 2 x_r0_g28 - 1 x_r0_g35 - 1 x_r0_g37 - 1 x_r0_g48 - 1 x_r0_g67 - 1 x_r0_g69 - 2 x_r0_g79 - 2 x_r0_g102 - 1 x_r0_g118 - 1 x_r0_g121 - 1 x_r0_g123 - 2 x_r0_g143 - 1 x_r0_g153 - 1 x_r0_g162 - 1 x_r1_g8 - 1 x_r1_g11 - 1 x_r1_g30 - 1 x_r1_g31 - 1 x_r1_g38 - 1 x_r1_g53 - 1 x_r1_g64 - 1 x_r1_g75 - 1 x_r1_g76 - 1 x_r1_g83 - 1 x_r1_g90 - 2 x_r1_g93 - 1 x_r1_g107 - 1 x_r1_g121 - 2 x_r1_g126 - 1 x_r1_g132 - 2 x_r1_g146 - 1 x_r1_g157 - 1 x_r1_g161 - 2 x_r2_g2 - 1 x_r2_g18 - 1 x_r2_g30 - 1 x_r2_g48 - 1 x_r2_g62 - 2 x_r2_g64 - 1 x_r2_g67 - 1 x_r2_g70 - 1 x_r2_g77 - 1 x_r2_g80 - 1 x_r2_g82 - 1 x_r2_g86 - 2 x_r2_g95 - 1 x_r2_g98 - 2 x_r2_g100 - 1 x_r2_g111 - 2 x_r2_g120 - 1 x_r2_g139 - 1 x_r2_g142 - 1 x_r2_g149 - 1 x_r2_g152 - 1 x_r2_g155 - 2 x_r2_g158 - 1 x_r2_g159 - 2 x_r2_g163 - 1 x_r3_g3 - 1 x_r3_g7 - 1 x_r3_g8 - 1 x_r3_g13 - 2 x_r3_g18 - 1 x_r3_g19 - 1 x_r3_g33 - 1 x_r3_g36 - 1 x_r3_g57 - 1 x_r3_g65 - 1 x_r3_g77 - 2 x_r3_g103 - 1 x_r3_g106 - 2 x_r3_g111 - 1 x_r3_g113 - 2 x_r3_g123 - 1 x_r3_g145 - 2 x_r3_g147 - 1 x_r3_g159 - 1 x_r3_g162 - 1 p_r0_g1_h131_t37 - 1 p_r0_g14_h144_t37 - 1 p_r0_g23_h153_t37 - 1 p_r0_g32_h162_t37 - 1 p_r0_g54_h17_t37 - 1 p_r0_g60_h23_t37 - 1 p_r0_g69_h32_t37 - 1 p_r0_g84_h47_t37 - 1 p_r0_g97_h60_t37 - 1 p_r0_g121_h84_t37 - 1 p_r1_g13_h143_t37 - 1 p_r1_g25_h155_t37 - 1 p_r1_g31_h161_t37 - 1 p_r1_g62_h25_t37 - 1 p_r1_g67_h30_t37 - 1 p_r1_g75_h38_t37 - 1 p_r1_g90_h53_t37 - 1 p_r1_g96_h59_t37 - 1 p_r1_g113_h76_t37 - 1 p_r1_g117_h80_t37 - 1 p_r1_g128_h91_t37 - 1 p_r1_g154_h117_t37 - 1 p_r2_g29_h159_t37 - 1 p_r2_g34_h164_t37 - 1 p_r2_g66_h29_t37 - 1 p_r2_g67_h30_t37 - 1 p_r2_g107_h70_t37 - 1 p_r2_g110_h73_t37 - 1 p_r2_g111_h74_t37 - 1 p_r2_g128_h91_t37 - 1 p_r2_g135_h98_t37 - 1 p_r2_g165_h128_t37 - 1 p_r3_g8_h138_t37 - 1 p_r3_g15_h145_t37 - 1 p_r3_g53_h16_t37 - 1 p_r3_g56_h19_t37 - 1 p_r3_g94_h57_t37 - 1 p_r3_g128_h91_t37 - 1 p_r3_g162_h125_t37 - 1 p_r3_g165_h128_t37 = -58
 abs_pos_37: d_37 - u_37 <= 0
 abs_neg_37: - d_37 - u_37 <= 0
 max_def_37: u_37 - M <= 0
 cap_37: u_37 <= 1
 lin1_38_0_1: p_r0_g1_h130_t38 - x_r0_g1 <= 0
 lin2_38_0_1: p_r0_g1_h130_t38 - x_r0_g130 <= 0
 lin3_38_0_1: p_r0_g1_h130_t38 - x_r0_g1 - x_r0_g130 >= -1
 lin1_38_0_14: p_r0_g14_h143_t38 - x_r0_g14 <= 0
 lin2_38_0_14: p_r0_g14_h143_t38 - x_r0_g143 <= 0
 lin3_38_0_14: p_r0_g14_h143_t38 - x_r0_g14 - x_r0_g143 >= -1
 lin1_38_0_47: p_r0_g47_h9_t38 - x_r0_g47 <= 0
 lin2_38_0_47: p_r0_g47_h9_t38 - x_r0_g9 <= 0
 lin3_38_0_47: p_r0_g47_h9_t38 - x_r0_g47 - x_r0_g9 >= -1
 lin1_38_0_60: p_r0_g60_h22_t38 - x_r0_g60 <= 0
 lin2_38_0_60: p_r0_g60_h22_t38 - x_r0_g22 <= 0
 lin3_38_0_60: p_r0_g60_h22_t38 - x_r0_g60 - x_r0_g22 >= -1
 lin1_38_0_70: p_r0_g70_h32_t38 - x_r0_g70 <= 0
 lin2_38_0_70: p_r0_g70_h32_t38 - x_r0_g32 <= 0
 lin3_38_0_70: p_r0_g70_h32_t38 - x_r0_g70 - x_r0_g32 >= -1
 lin1_38_1_17: p_r1_g17_h146_t38 - x_r1_g17 <= 0
 lin2_38_1_17: p_r1_g17_h146_t38 - x_r1_g146 <= 0
 lin3_38_1_17: p_r1_g17_h146_t38 - x_r1_g17 - x_r1_g146 >= -1
 lin1_38_1_25: p_r1_g25_h154_t38 - x_r1_g25 <= 0
 lin2_38_1_25: p_r1_g25_h154_t38 - x_r1_g154 <= 0
 lin3_38_1_25: p_r1_g25_h154_t38 - x_r1_g25 - x_r1_g154 >= -1
 lin1_38_1_53: p_r1_g53_h15_t38 - x_r1_g53 <= 0
 lin2_38_1_53: p_r1_g53_h15_t38 - x_r1_g15 <= 0
 lin3_38_1_53: p_r1_g53_h15_t38 - x_r1_g53 - x_r1_g15 >= -1
 lin1_38_1_76: p_r1_g76_h38_t38 - x_r1_g76 <= 0
 lin2_38_1_76: p_r1_g76_h38_t38 - x_r1_g38 <= 0
 lin3_38_1_76: p_r1_g76_h38_t38 - x_r1_g76 - x_r1_g38 >= -1
 lin1_38_1_91: p_r1_g91_h53_t38 - x_r1_g91 <= 0
 lin2_38_1_91: p_r1_g91_h53_t38 - x_r1_g53 <= 0
 lin3_38_1_91: p_r1_g91_h53_t38 - x_r1_g91 - x_r1_g53 >= -1
 lin1_38_1_113: p_r1_g113_h75_t38 - x_r1_g113 <= 0
 lin2_38_1_113: p_r1_g113_h75_t38 - x_r1_g75 <= 0
 lin3_38_1_113: p_r1_g113_h75_t38 - x_r1_g113 - x_r1_g75 >= -1
 lin1_38_1_114: p_r1_g114_h76_t38 - x_r1_g114 <= 0
 lin2_38_1_114: p_r1_g114_h76_t38 - x_r1_g76 <= 0
 lin3_38_1_114: p_r1_g114_h76_t38 - x_r1_g114 - x_r1_g76 >= -1
 lin1_38_1_121: p_r1_g121_h83_t38 - x_r1_g121 <= 0
 lin2_38_1_121: p_r1_g121_h83_t38 - x_r1_g83 <= 0
 lin3_38_1_121: p_r1_g121_h83_t38 - x_r1_g121 - x_r1_g83 >= -1
 lin1_38_1_128: p_r1_g128_h90_t38 - x_r1_g128 <= 0
 lin2_38_1_128: p_r1_g128_h90_t38 - x_r1_g90 <= 0
 lin3_38_1_128: p_r1_g128_h90_t38 - x_r1_g128 - x_r1_g90 >= -1
 lin1_38_1_146: p_r1_g146_h108_t38 - x_r1_g146 <= 0
 lin2_38_1_146: p_r1_g146_h108_t38 - x_r1_g108 <= 0
 lin3_38_1_146: p_r1_g146_h108_t38 - x_r1_g146 - x_r1_g108 >= -1
 lin1_38_1_155: p_r1_g155_h117_t38 - x_r1_g155 <= 0
 lin2_38_1_155: p_r1_g155_h117_t38 - x_r1_g117 <= 0
 lin3_38_1_155: p_r1_g155_h117_t38 - x_r1_g155 - x_r1_g117 >= -1
 lin1_38_2_29: p_r2_g29_h158_t38 - x_r2_g29 <= 0
 lin2_38_2_29: p_r2_g29_h158_t38 - x_r2_g158 <= 0
 lin3_38_2_29: p_r2_g29_h158_t38 - x_r2_g29 - x_r2_g158 >= -1
 lin1_38_2_30: p_r2_g30_h159_t38 - x_r2_g30 <= 0
 lin2_38_2_30: p_r2_g30_h159_t38 - x_r2_g159 <= 0
 lin3_38_2_30: p_r2_g30_h159_t38 - x_r2_g30 - x_r2_g159 >= -1
 lin1_38_2_34: p_r2_g34_h163_t38 - x_r2_g34 <= 0
 lin2_38_2_34: p_r2_g34_h163_t38 - x_r2_g163 <= 0
 lin3_38_2_34: p_r2_g34_h163_t38 - x_r2_g34 - x_r2_g163 >= -1
 lin1_38_2_67: p_r2_g67_h29_t38 - x_r2_g67 <= 0
 lin2_38_2_67: p_r2_g67_h29_t38 - x_r2_g29 <= 0
 lin3_38_2_67: p_r2_g67_h29_t38 - x_r2_g67 - x_r2_g29 >= -1
 lin1_38_2_86: p_r2_g86_h48_t38 - x_r2_g86 <= 0
 lin2_38_2_86: p_r2_g86_h48_t38 - x_r2_g48 <= 0
 lin3_38_2_86: p_r2_g86_h48_t38 - x_r2_g86 - x_r2_g48 >= -1
 lin1_38_2_98: p_r2_g98_h60_t38 - x_r2_g98 <= 0
 lin2_38_2_98: p_r2_g98_h60_t38 - x_r2_g60 <= 0
 lin3_38_2_98: p_r2_g98_h60_t38 - x_r2_g98 - x_r2_g60 >= -1
 lin1_38_2_100: p_r2_g100_h62_t38 - x_r2_g100 <= 0
 lin2_38_2_100: p_r2_g100_h62_t38 - x_r2_g62 <= 0
 lin3_38_2_100: p_r2_g100_h62_t38 - x_r2_g100 - x_r2_g62 >= -1
 lin1_38_2_111: p_r2_g111_h73_t38 - x_r2_g111 <= 0
 lin2_38_2_111: p_r2_g111_h73_t38 - x_r2_g73 <= 0
 lin3_38_2_111: p_r2_g111_h73_t38 - x_r2_g111 - x_r2_g73 >= -1
 lin1_38_2_120: p_r2_g120_h82_t38 - x_r2_g120 <= 0
 lin2_38_2_120: p_r2_g120_h82_t38 - x_r2_g82 <= 0
 lin3_38_2_120: p_r2_g120_h82_t38 - x_r2_g120 - x_r2_g82 >= -1
 lin1_38_2_136: p_r2_g136_h98_t38 - x_r2_g136 <= 0
 lin2_38_2_136: p_r2_g136_h98_t38 - x_r2_g98 <= 0
 lin3_38_2_136: p_r2_g136_h98_t38 - x_r2_g136 - x_r2_g98 >= -1
 lin1_38_2_149: p_r2_g149_h111_t38 - x_r2_g149 <= 0
 lin2_38_2_149: p_r2_g149_h111_t38 - x_r2_g111 <= 0
 lin3_38_2_149: p_r2_g149_h111_t38 - x_r2_g149 - x_r2_g111 >= -1
 lin1_38_2_158: p_r2_g158_h120_t38 - x_r2_g158 <= 0
 lin2_38_2_158: p_r2_g158_h120_t38 - x_r2_g120 <= 0
 lin3_38_2_158: p_r2_g158_h120_t38 - x_r2_g158 - x_r2_g120 >= -1
 lin1_38_3_15: p_r3_g15_h144_t38 - x_r3_g15 <= 0
 lin2_38_3_15: p_r3_g15_h144_t38 - x_r3_g144 <= 0
 lin3_38_3_15: p_r3_g15_h144_t38 - x_r3_g15 - x_r3_g144 >= -1
 lin1_38_3_16: p_r3_g16_h145_t38 - x_r3_g16 <= 0
 lin2_38_3_16: p_r3_g16_h145_t38 - x_r3_g145 <= 0
 lin3_38_3_16: p_r3_g16_h145_t38 - x_r3_g16 - x_r3_g145 >= -1
 lin1_38_3_18: p_r3_g18_h147_t38 - x_r3_g18 <= 0
 lin2_38_3_18: p_r3_g18_h147_t38 - x_r3_g147 <= 0
 lin3_38_3_18: p_r3_g18_h147_t38 - x_r3_g18 - x_r3_g147 >= -1
 lin1_38_3_33: p_r3_g33_h162_t38 - x_r3_g33 <= 0
 lin2_38_3_33: p_r3_g33_h162_t38 - x_r3_g162 <= 0
 lin3_38_3_33: p_r3_g33_h162_t38 - x_r3_g33 - x_r3_g162 >= -1
 lin1_38_3_36: p_r3_g36_h165_t38 - x_r3_g36 <= 0
 lin2_38_3_36: p_r3_g36_h165_t38 - x_r3_g165 <= 0
 lin3_38_3_36: p_r3_g36_h165_t38 - x_r3_g36 - x_r3_g165 >= -1
 lin1_38_3_51: p_r3_g51_h13_t38 - x_r3_g51 <= 0
 lin2_38_3_51: p_r3_g51_h13_t38 - x_r3_g13 <= 0
 lin3_38_3_51: p_r3_g51_h13_t38 - x_r3_g51 - x_r3_g13 >= -1
 lin1_38_3_53: p_r3_g53_h15_t38 - x_r3_g53 <= 0
 lin2_38_3_53: p_r3_g53_h15_t38 - x_r3_g15 <= 0
 lin3_38_3_53: p_r3_g53_h15_t38 - x_r3_g53 - x_r3_g15 >= -1
 lin1_38_3_56: p_r3_g56_h18_t38 - x_r3_g56 <= 0
 lin2_38_3_56: p_r3_g56_h18_t38 - x_r3_g18 <= 0
 lin3_38_3_56: p_r3_g56_h18_t38 - x_r3_g56 - x_r3_g18 >= -1
 lin1_38_3_57: p_r3_g57_h19_t38 - x_r3_g57 <= 0
 lin2_38_3_57: p_r3_g57_h19_t38 - x_r3_g19 <= 0
 lin3_38_3_57: p_r3_g57_h19_t38 - x_r3_g57 - x_r3_g19 >= -1
 lin1_38_3_65: p_r3_g65_h27_t38 - x_r3_g65 <= 0
 lin2_38_3_65: p_r3_g65_h27_t38 - x_r3_g27 <= 0
 lin3_38_3_65: p_r3_g65_h27_t38 - x_r3_g65 - x_r3_g27 >= -1
 lin1_38_3_72: p_r3_g72_h34_t38 - x_r3_g72 <= 0
 lin2_38_3_72: p_r3_g72_h34_t38 - x_r3_g34 <= 0
 lin3_38_3_72: p_r3_g72_h34_t38 - x_r3_g72 - x_r3_g34 >= -1
 lin1_38_3_91: p_r3_g91_h53_t38 - x_r3_g91 <= 0
 lin2_38_3_91: p_r3_g91_h53_t38 - x_r3_g53 <= 0
 lin3_38_3_91: p_r3_g91_h53_t38 - x_r3_g91 - x_r3_g53 >= -1
 lin1_38_3_94: p_r3_g94_h56_t38 - x_r3_g94 <= 0
 lin2_38_3_94: p_r3_g94_h56_t38 - x_r3_g56 <= 0
 lin3_38_3_94: p_r3_g94_h56_t38 - x_r3_g94 - x_r3_g56 >= -1
 lin1_38_3_103: p_r3_g103_h65_t38 - x_r3_g103 <= 0
 lin2_38_3_103: p_r3_g103_h65_t38 - x_r3_g65 <= 0
 lin3_38_3_103: p_r3_g103_h65_t38 - x_r3_g103 - x_r3_g65 >= -1
 lin1_38_3_144: p_r3_g144_h106_t38 - x_r3_g144 <= 0
 lin2_38_3_144: p_r3_g144_h106_t38 - x_r3_g106 <= 0
 lin3_38_3_144: p_r3_g144_h106_t38 - x_r3_g144 - x_r3_g106 >= -1
 lin1_38_3_159: p_r3_g159_h121_t38 - x_r3_g159 <= 0
 lin2_38_3_159: p_r3_g159_h121_t38 - x_r3_g121 <= 0
 lin3_38_3_159: p_r3_g159_h121_t38 - x_r3_g159 - x_r3_g121 >= -1
 lin1_38_3_162: p_r3_g162_h124_t38 - x_r3_g162 <= 0
 lin2_38_3_162: p_r3_g162_h124_t38 - x_r3_g124 <= 0
 lin3_38_3_162: p_r3_g162_h124_t38 - x_r3_g162 - x_r3_g124 >= -1
 defect_38: 1 d_38 - 1 x_r0_g4 - 2 x_r0_g7 - 1 x_r0_g14 - 2 x_r0_g17 - 2 x_r0_g20 - 1 x_r0_g22 - 1 x_r0_g23 - 1 x_r0_g25 - 1 x_r0_g26 - 1 x_r0_g28 - 1 x_r0_g34 - 2 x_r0_g36 - 1 x_r0_g60 - 2 x_r0_g68 - 1 x_r0_g84 - 2 x_r0_g87 - 1 x_r0_g97 - 2 x_r0_g101 - 1 x_r0_g121 - 2 x_r0_g144 - 1 x_r1_g8 - 2 x_r1_g11 - 2 x_r1_g30 - 2 x_r1_g31 - 1 x_r1_g35 - 1 x_r1_g62 - 1 x_r1_g64 - 1 x_r1_g67 - 1 x_r1_g75 - 1 x_r1_g80 - 1 x_r1_g107 - 1 x_r1_g108 - 1 x_r1_g117 - 1 x_r1_g121 - 2 x_r1_g126 - 1 x_r1_g128 - 1 x_r1_g132 - 1 x_r1_g154 - 1 x_r1_g155 - 1 x_r1_g157 - 2 x_r1_g161 - 1 x_r2_g18 - 1 x_r2_g30 - 2 x_r2_g64 - 2 x_r2_g66 - 1 x_r2_g67 - 1 x_r2_g74 - 2 x_r2_g77 - 1 x_r2_g91 - 1 x_r2_g110 - 1 x_r2_g128 - 1 x_r2_g136 - 1 x_r2_g139 - 1 x_r2_g142 - 1 x_r2_g149 - 1 x_r2_g152 - 1 x_r2_g155 - 1 x_r2_g159 - 1 x_r2_g162 - 1 x_r2_g164 - 2 x_r3_g3 - 1 x_r3_g7 - 2 x_r3_g8 - 2 x_r3_g11 - 1 x_r3_g13 - 1 x_r3_g19 - 1 x_r3_g34 - 1 x_r3_g36 - 1 x_r3_g51 - 1 x_r3_g72 - 1 x_r3_g77 - 1 x_r3_g79 - 1 x_r3_g91 - 1 x_r3_g94 - 1 x_r3_g106 - 1 x_r3_g111 - 2 x_r3_g113 - 1 x_r3_g121 - 1 x_r3_g124 - 1 x_r3_g125 - 1 x_r3_g128 - 1 x_r3_g138 - 1 x_r3_g159 - 1 x_r3_g165 - 1 p_r0_g1_h130_t38 - 1 p_r0_g14_h143_t38 - 1 p_r0_g47_h9_t38 - 1 p_r0_g60_h22_t38 - 1 p_r0_g70_h32_t38 - 1 p_r1_g17_h146_t38 - 1 p_r1_g25_h154_t38 - 1 p_r1_g53_h15_t38 - 1 p_r1_g76_h38_t38 - 1 p_r1_g91_h53_t38 - 1 p_r1_g113_h75_t38 - 1 p_r1_g114_h76_t38 - 1 p_r1_g121_h83_t38 - 1 p_r1_g128_h90_t38 - 1 p_r1_g146_h108_t38 - 1 p_r1_g155_h117_t38 - 1 p_r2_g29_h158_t38 - 1 p_r2_g30_h159_t38 - 1 p_r2_g34_h163_t38 - 1 p_r2_g67_h29_t38 - 1 p_r2_g86_h48_t38 - 1 p_r2_g98_h60_t38 - 1 p_r2_g100_h62_t38 - 1 p_r2_g111_h73_t38 - 1 p_r2_g120_h82_t38 - 1 p_r2_g136_h98_t38 - 1 p_r2_g149_h111_t38 - 1 p_r2_g158_h120_t38 - 1 p_r3_g15_h144_t38 - 1 p_r3_g16_h145_t38 - 1 p_r3_g18_h147_t38 - 1 p_r3_g33_h162_t38 - 1 p_r3_g36_h165_t38 - 1 p_r3_g51_h13_t38 - 1 p_r3_g53_h15_t38 - 1 p_r3_g56_h18_t38 - 1 p_r3_g57_h19_t38 - 1 p_r3_g65_h27_t38 - 1 p_r3_g72_h34_t38 - 1 p_r3_g91_h53_t38 - 1 p_r3_g94_h56_t38 - 1 p_r3_g103_h65_t38 - 1 p_r3_g144_h106_t38 - 1 p_r3_g159_h121_t38 - 1 p_r3_g162_h124_t38 = -63
 abs_pos_38: d_38 - u_38 <= 0
 abs_neg_38: - d_38 - u_38 <= 0
 max_def_38: u_38 - M <= 0
 cap_38: u_38 <= 0
 lin1_39_0_25: p_r0_g25_h153_t39 - x_r0_g25 <= 0
 lin2_39_0_25: p_r0_g25_h153_t39 - x_r0_g153 <= 0
 lin3_39_0_25: p_r0_g25_h153_t39 - x_r0_g25 - x_r0_g153 >= -1
 lin1_39_0_34: p_r0_g34_h162_t39 - x_r0_g34 <= 0
 lin2_39_0_34: p_r0_g34_h162_t39 - x_r0_g162 <= 0
 lin3_39_0_34: p_r0_g34_h162_t39 - x_r0_g34 - x_r0_g162 >= -1
 lin1_39_0_48: p_r0_g48_h9_t39 - x_r0_g48 <= 0
 lin2_39_0_48: p_r0_g48_h9_t39 - x_r0_g9 <= 0
 lin3_39_0_48: p_r0_g48_h9_t39 - x_r0_g48 - x_r0_g9 >= -1
 lin1_39_0_67: p_r0_g67_h28_t39 - x_r0_g67 <= 0
 lin2_39_0_67: p_r0_g67_h28_t39 - x_r0_g28 <= 0
 lin3_39_0_67: p_r0_g67_h28_t39 - x_r0_g67 - x_r0_g28 >= -1
 lin1_39_0_87: p_r0_g87_h48_t39 - x_r0_g87 <= 0
 lin2_39_0_87: p_r0_g87_h48_t39 - x_r0_g48 <= 0
 lin3_39_0_87: p_r0_g87_h48_t39 - x_r0_g87 - x_r0_g48 >= -1
 lin1_39_0_118: p_r0_g118_h79_t39 - x_r0_g118 <= 0
 lin2_39_0_118: p_r0_g118_h79_t39 - x_r0_g79 <= 0
 lin3_39_0_118: p_r0_g118_h79_t39 - x_r0_g118 - x_r0_g79 >= -1
 lin1_39_0_123: p_r0_g123_h84_t39 - x_r0_g123 <= 0
 lin2_39_0_123: p_r0_g123_h84_t39 - x_r0_g84 <= 0
 lin3_39_0_123: p_r0_g123_h84_t39 - x_r0_g123 - x_r0_g84 >= -1
 lin1_39_0_162: p_r0_g162_h123_t39 - x_r0_g162 <= 0
 lin2_39_0_162: p_r0_g162_h123_t39 - x_r0_g123 <= 0
 lin3_39_0_162: p_r0_g162_h123_t39 - x_r0_g162 - x_r0_g123 >= -1
 lin1_39_1_15: p_r1_g15_h143_t39 - x_r1_g15 <= 0
 lin2_39_1_15: p_r1_g15_h143_t39 - x_r1_g143 <= 0
 lin3_39_1_15: p_r1_g15_h143_t39 - x_r1_g15 - x_r1_g143 >= -1
 lin1_39_1_64: p_r1_g64_h25_t39 - x_r1_g64 <= 0
 lin2_39_1_64: p_r1_g64_h25_t39 - x_r1_g25 <= 0
 lin3_39_1_64: p_r1_g64_h25_t39 - x_r1_g64 - x_r1_g25 >= -1
 lin1_39_1_114: p_r1_g114_h75_t39 - x_r1_g114 <= 0
 lin2_39_1_114: p_r1_g114_h75_t39 - x_r1_g75 <= 0
 lin3_39_1_114: p_r1_g114_h75_t39 - x_r1_g114 - x_r1_g75 >= -1
 lin1_39_1_132: p_r1_g132_h93_t39 - x_r1_g132 <= 0
 lin2_39_1_132: p_r1_g132_h93_t39 - x_r1_g93 <= 0
 lin3_39_1_132: p_r1_g132_h93_t39 - x_r1_g132 - x_r1_g93 >= -1
 lin1_39_1_146: p_r1_g146_h107_t39 - x_r1_g146 <= 0
 lin2_39_1_146: p_r1_g146_h107_t39 - x_r1_g107 <= 0
 lin3_39_1_146: p_r1_g146_h107_t39 - x_r1_g146 - x_r1_g107 >= -1
 lin1_39_2_30: p_r2_g30_h158_t39 - x_r2_g30 <= 0
 lin2_39_2_30: p_r2_g30_h158_t39 - x_r2_g158 <= 0
 lin3_39_2_30: p_r2_g30_h158_t39 - x_r2_g30 - x_r2_g158 >= -1
 lin1_39_2_34: p_r2_g34_h162_t39 - x_r2_g34 <= 0
 lin2_39_2_34: p_r2_g34_h162_t39 - x_r2_g162 <= 0
 lin3_39_2_34: p_r2_g34_h162_t39 - x_r2_g34 - x_r2_g162 >= -1
 lin1_39_2_73: p_r2_g73_h34_t39 - x_r2_g73 <= 0
 lin2_39_2_73: p_r2_g73_h34_t39 - x_r2_g34 <= 0
 lin3_39_2_73: p_r2_g73_h34_t39 - x_r2_g73 - x_r2_g34 >= -1
 lin1_39_2_139: p_r2_g139_h100_t39 - x_r2_g139 <= 0
 lin2_39_2_139: p_r2_g139_h100_t39 - x_r2_g100 <= 0
 lin3_39_2_139: p_r2_g139_h100_t39 - x_r2_g139 - x_r2_g100 >= -1
 lin1_39_2_149: p_r2_g149_h110_t39 - x_r2_g149 <= 0
 lin2_39_2_149: p_r2_g149_h110_t39 - x_r2_g110 <= 0
 lin3_39_2_149: p_r2_g149_h110_t39 - x_r2_g149 - x_r2_g110 >= -1
 lin1_39_2_159: p_r2_g159_h120_t39 - x_r2_g159 <= 0
 lin2_39_2_159: p_r2_g159_h120_t39 - x_r2_g120 <= 0
 lin3_39_2_159: p_r2_g159_h120_t39 - x_r2_g159 - x_r2_g120 >= -1
 lin1_39_3_16: p_r3_g16_h144_t39 - x_r3_g16 <= 0
 lin2_39_3_16: p_r3_g16_h144_t39 - x_r3_g144 <= 0
 lin3_39_3_16: p_r3_g16_h144_t39 - x_r3_g16 - x_r3_g144 >= -1
 lin1_39_3_19: p_r3_g19_h147_t39 - x_r3_g19 <= 0
 lin2_39_3_19: p_r3_g19_h147_t39 - x_r3_g147 <= 0
 lin3_39_3_19: p_r3_g19_h147_t39 - x_r3_g19 - x_r3_g147 >= -1
 lin1_39_3_34: p_r3_g34_h162_t39 - x_r3_g34 <= 0
 lin2_39_3_34: p_r3_g34_h162_t39 - x_r3_g162 <= 0
 lin3_39_3_34: p_r3_g34_h162_t39 - x_r3_g34 - x_r3_g162 >= -1
 lin1_39_3_57: p_r3_g57_h18_t39 - x_r3_g57 <= 0
 lin2_39_3_57: p_r3_g57_h18_t39 - x_r3_g18 <= 0
 lin3_39_3_57: p_r3_g57_h18_t39 - x_r3_g57 - x_r3_g18 >= -1
 lin1_39_3_72: p_r3_g72_h33_t39 - x_r3_g72 <= 0
 lin2_39_3_72: p_r3_g72_h33_t39 - x_r3_g33 <= 0
 lin3_39_3_72: p_r3_g72_h33_t39 - x_r3_g72 - x_r3_g33 >= -1
 lin1_39_3_111: p_r3_g111_h72_t39 - x_r3_g111 <= 0
 lin2_39_3_111: p_r3_g111_h72_t39 - x_r3_g72 <= 0
 lin3_39_3_111: p_r3_g111_h72_t39 - x_r3_g111 - x_r3_g72 >= -1
 lin1_39_3_145: p_r3_g145_h106_t39 - x_r3_g145 <= 0
 lin2_39_3_145: p_r3_g145_h106_t39 - x_r3_g106 <= 0
 lin3_39_3_145: p_r3_g145_h106_t39 - x_r3_g145 - x_r3_g106 >= -1
 lin1_39_3_162: p_r3_g162_h123_t39 - x_r3_g162 <= 0
 lin2_39_3_162: p_r3_g162_h123_t39 - x_r3_g123 <= 0
 lin3_39_3_162: p_r3_g162_h123_t39 - x_r3_g162 - x_r3_g123 >= -1
 defect_39: 1 d_39 - 1 x_r0_g1 - 2 x_r0_g4 - 1 x_r0_g9 - 1 x_r0_g14 - 1 x_r0_g20 - 2 x_r0_g23 - 1 x_r0_g26 - 1 x_r0_g32 - 2 x_r0_g35 - 1 x_r0_g37 - 1 x_r0_g54 - 1 x_r0_g67 - 1 x_r0_g69 - 1 x_r0_g79 - 1 x_r0_g84 - 1 x_r0_g87 - 2 x_r0_g97 - 1 x_r0_g101 - 1 x_r0_g102 - 1 x_r0_g118 - 1 x_r0_g121 - 1 x_r0_g131 - 1 x_r0_g143 - 1 x_r1_g13 - 1 x_r1_g17 - 1 x_r1_g30 - 2 x_r1_g31 - 1 x_r1_g35 - 1 x_r1_g38 - 2 x_r1_g59 - 1 x_r1_g64 - 1 x_r1_g75 - 2 x_r1_g76 - 1 x_r1_g80 - 1 x_r1_g83 - 1 x_r1_g91 - 1 x_r1_g96 - 1 x_r1_g107 - 1 x_r1_g108 - 2 x_r1_g117 - 2 x_r1_g121 - 1 x_r1_g126 - 1 x_r1_g128 - 1 x_r1_g146 - 2 x_r1_g154 - 2 x_r1_g155 - 1 x_r1_g157 - 2 x_r2_g2 - 1 x_r2_g18 - 2 x_r2_g29 - 1 x_r2_g48 - 1 x_r2_g60 - 1 x_r2_g62 - 1 x_r2_g64 - 2 x_r2_g66 - 1 x_r2_g67 - 1 x_r2_g70 - 1 x_r2_g73 - 1 x_r2_g74 - 1 x_r2_g77 - 2 x_r2_g80 - 2 x_r2_g82 - 1 x_r2_g91 - 2 x_r2_g95 - 1 x_r2_g98 - 1 x_r2_g100 - 2 x_r2_g107 - 1 x_r2_g111 - 1 x_r2_g128 - 1 x_r2_g135 - 1 x_r2_g142 - 1 x_r2_g149 - 1 x_r2_g152 - 2 x_r2_g155 - 1 x_r2_g158 - 1 x_r2_g159 - 1 x_r2_g165 - 1 x_r3_g7 - 1 x_r3_g8 - 1 x_r3_g11 - 1 x_r3_g15 - 1 x_r3_g16 - 1 x_r3_g27 - 1 x_r3_g36 - 1 x_r3_g51 - 1 x_r3_g56 - 1 x_r3_g65 - 1 x_r3_g77 - 2 x_r3_g79 - 1 x_r3_g94 - 1 x_r3_g103 - 1 x_r3_g113 - 1 x_r3_g121 - 1 x_r3_g124 - 1 x_r3_g125 - 1 x_r3_g128 - 1 x_r3_g138 - 1 x_r3_g145 - 1 x_r3_g147 - 1 x_r3_g154 - 1 x_r3_g165 - 1 p_r0_g25_h153_t39 - 1 p_r0_g34_h162_t39 - 1 p_r0_g48_h9_t39 - 1 p_r0_g67_h28_t39 - 1 p_r0_g87_h48_t39 - 1 p_r0_g118_h79_t39 - 1 p_r0_g123_h84_t39 - 1 p_r0_g162_h123_t39 - 1 p_r1_g15_h143_t39 - 1 p_r1_g64_h25_t39 - 1 p_r1_g114_h75_t39 - 1 p_r1_g132_h93_t39 - 1 p_r1_g146_h107_t39 - 1 p_r2_g30_h158_t39 - 1 p_r2_g34_h162_t39 - 1 p_r2_g73_h34_t39 - 1 p_r2_g139_h100_t39 - 1 p_r2_g149_h110_t39 - 1 p_r2_g159_h120_t39 - 1 p_r3_g16_h144_t39 - 1 p_r3_g19_h147_t39 - 1 p_r3_g34_h162_t39 - 1 p_r3_g57_h18_t39 - 1 p_r3_g72_h33_t39 - 1 p_r3_g111_h72_t39 - 1 p_r3_g145_h106_t39 - 1 p_r3_g162_h123_t39 = -54
 abs_pos_39: d_39 - u_39 <= 0
 abs_neg_39: - d_39 - u_39 <= 0
 max_def_39: u_39 - M <= 0
 cap_39: u_39 <= 2
 lin1_44_0_7: p_r0_g7_h130_t44 - x_r0_g7 <= 0
 lin2_44_0_7: p_r0_g7_h130_t44 - x_r0_g130 <= 0
 lin3_44_0_7: p_r0_g7_h130_t44 - x_r0_g7 - x_r0_g130 >= -1
 lin1_44_0_20: p_r0_g20_h143_t44 - x_r0_g20 <= 0
 lin2_44_0_20: p_r0_g20_h143_t44 - x_r0_g143 <= 0
 lin3_44_0_20: p_r0_g20_h143_t44 - x_r0_g20 - x_r0_g143 >= -1
 lin1_44_0_48: p_r0_g48_h4_t44 - x_r0_g48 <= 0
 lin2_44_0_48: p_r0_g48_h4_t44 - x_r0_g4 <= 0
 lin3_44_0_48: p_r0_g48_h4_t44 - x_r0_g48 - x_r0_g4 >= -1
 lin1_44_0_67: p_r0_g67_h23_t44 - x_r0_g67 <= 0
 lin2_44_0_67: p_r0_g67_h23_t44 - x_r0_g23 <= 0
 lin3_44_0_67: p_r0_g67_h23_t44 - x_r0_g67 - x_r0_g23 >= -1
 lin1_44_0_69: p_r0_g69_h25_t44 - x_r0_g69 <= 0
 lin2_44_0_69: p_r0_g69_h25_t44 - x_r0_g25 <= 0
 lin3_44_0_69: p_r0_g69_h25_t44 - x_r0_g69 - x_r0_g25 >= -1
 lin1_44_0_70: p_r0_g70_h26_t44 - x_r0_g70 <= 0
 lin2_44_0_70: p_r0_g70_h26_t44 - x_r0_g26 <= 0
 lin3_44_0_70: p_r0_g70_h26_t44 - x_r0_g70 - x_r0_g26 >= -1
 lin1_44_0_79: p_r0_g79_h35_t44 - x_r0_g79 <= 0
 lin2_44_0_79: p_r0_g79_h35_t44 - x_r0_g35 <= 0
 lin3_44_0_79: p_r0_g79_h35_t44 - x_r0_g79 - x_r0_g35 >= -1
 lin1_44_0_123: p_r0_g123_h79_t44 - x_r0_g123 <= 0
 lin2_44_0_123: p_r0_g123_h79_t44 - x_r0_g79 <= 0
 lin3_44_0_123: p_r0_g123_h79_t44 - x_r0_g123 - x_r0_g79 >= -1
 lin1_44_0_131: p_r0_g131_h87_t44 - x_r0_g131 <= 0
 lin2_44_0_131: p_r0_g131_h87_t44 - x_r0_g87 <= 0
 lin3_44_0_131: p_r0_g131_h87_t44 - x_r0_g131 - x_r0_g87 >= -1
 lin1_44_0_162: p_r0_g162_h118_t44 - x_r0_g162 <= 0
 lin2_44_0_162: p_r0_g162_h118_t44 - x_r0_g118 <= 0
 lin3_44_0_162: p_r0_g162_h118_t44 - x_r0_g162 - x_r0_g118 >= -1
 lin1_44_1_31: p_r1_g31_h154_t44 - x_r1_g31 <= 0
 lin2_44_1_31: p_r1_g31_h154_t44 - x_r1_g154 <= 0
 lin3_44_1_31: p_r1_g31_h154_t44 - x_r1_g31 - x_r1_g154 >= -1
 lin1_44_1_38: p_r1_g38_h161_t44 - x_r1_g38 <= 0
 lin2_44_1_38: p_r1_g38_h161_t44 - x_r1_g161 <= 0
 lin3_44_1_38: p_r1_g38_h161_t44 - x_r1_g38 - x_r1_g161 >= -1
 lin1_44_1_59: p_r1_g59_h15_t44 - x_r1_g59 <= 0
 lin2_44_1_59: p_r1_g59_h15_t44 - x_r1_g15 <= 0
 lin3_44_1_59: p_r1_g59_h15_t44 - x_r1_g59 - x_r1_g15 >= -1
 lin1_44_1_75: p_r1_g75_h31_t44 - x_r1_g75 <= 0
 lin2_44_1_75: p_r1_g75_h31_t44 - x_r1_g31 <= 0
 lin3_44_1_75: p_r1_g75_h31_t44 - x_r1_g75 - x_r1_g31 >= -1
 lin1_44_1_108: p_r1_g108_h64_t44 - x_r1_g108 <= 0
 lin2_44_1_108: p_r1_g108_h64_t44 - x_r1_g64 <= 0
 lin3_44_1_108: p_r1_g108_h64_t44 - x_r1_g108 - x_r1_g64 >= -1
 lin1_44_1_111: p_r1_g111_h67_t44 - x_r1_g111 <= 0
 lin2_44_1_111: p_r1_g111_h67_t44 - x_r1_g67 <= 0
 lin3_44_1_111: p_r1_g111_h67_t44 - x_r1_g111 - x_r1_g67 >= -1
 lin1_44_1_154: p_r1_g154_h110_t44 - x_r1_g154 <= 0
 lin2_44_1_154: p_r1_g154_h110_t44 - x_r1_g110 <= 0
 lin3_44_1_154: p_r1_g154_h110_t44 - x_r1_g154 - x_r1_g110 >= -1
 lin1_44_1_155: p_r1_g155_h111_t44 - x_r1_g155 <= 0
 lin2_44_1_155: p_r1_g155_h111_t44 - x_r1_g111 <= 0
 lin3_44_1_155: p_r1_g155_h111_t44 - x_r1_g155 - x_r1_g111 >= -1
 lin1_44_1_157: p_r1_g157_h113_t44 - x_r1_g157 <= 0
 lin2_44_1_157: p_r1_g157_h113_t44 - x_r1_g113 <= 0
 lin3_44_1_157: p_r1_g157_h113_t44 - x_r1_g157 - x_r1_g113 >= -1
 lin1_44_1_161: p_r1_g161_h117_t44 - x_r1_g161 <= 0
 lin2_44_1_161: p_r1_g161_h117_t44 - x_r1_g117 <= 0
 lin3_44_1_161: p_r1_g161_h117_t44 - x_r1_g161 - x_r1_g117 >= -1
 lin1_44_2_29: p_r2_g29_h152_t44 - x_r2_g29 <= 0
 lin2_44_2_29: p_r2_g29_h152_t44 - x_r2_g152 <= 0
 lin3_44_2_29: p_r2_g29_h152_t44 - x_r2_g29 - x_r2_g152 >= -1
 lin1_44_2_62: p_r2_g62_h18_t44 - x_r2_g62 <= 0
 lin2_44_2_62: p_r2_g62_h18_t44 - x_r2_g18 <= 0
 lin3_44_2_62: p_r2_g62_h18_t44 - x_r2_g62 - x_r2_g18 >= -1
 lin1_44_2_73: p_r2_g73_h29_t44 - x_r2_g73 <= 0
 lin2_44_2_73: p_r2_g73_h29_t44 - x_r2_g29 <= 0
 lin3_44_2_73: p_r2_g73_h29_t44 - x_r2_g73 - x_r2_g29 >= -1
 lin1_44_2_74: p_r2_g74_h30_t44 - x_r2_g74 <= 0
 lin2_44_2_74: p_r2_g74_h30_t44 - x_r2_g30 <= 0
 lin3_44_2_74: p_r2_g74_h30_t44 - x_r2_g74 - x_r2_g30 >= -1
 lin1_44_2_110: p_r2_g110_h66_t44 - x_r2_g110 <= 0
 lin2_44_2_110: p_r2_g110_h66_t44 - x_r2_g66 <= 0
 lin3_44_2_110: p_r2_g110_h66_t44 - x_r2_g110 - x_r2_g66 >= -1
 lin1_44_2_111: p_r2_g111_h67_t44 - x_r2_g111 <= 0
 lin2_44_2_111: p_r2_g111_h67_t44 - x_r2_g67 <= 0
 lin3_44_2_111: p_r2_g111_h67_t44 - x_r2_g111 - x_r2_g67 >= -1
 lin1_44_2_135: p_r2_g135_h91_t44 - x_r2_g135 <= 0
 lin2_44_2_135: p_r2_g135_h91_t44 - x_r2_g91 <= 0
 lin3_44_2_135: p_r2_g135_h91_t44 - x_r2_g135 - x_r2_g91 >= -1
 lin1_44_2_139: p_r2_g139_h95_t44 - x_r2_g139 <= 0
 lin2_44_2_139: p_r2_g139_h95_t44 - x_r2_g95 <= 0
 lin3_44_2_139: p_r2_g139_h95_t44 - x_r2_g139 - x_r2_g95 >= -1
 lin1_44_2_142: p_r2_g142_h98_t44 - x_r2_g142 <= 0
 lin2_44_2_142: p_r2_g142_h98_t44 - x_r2_g98 <= 0
 lin3_44_2_142: p_r2_g142_h98_t44 - x_r2_g142 - x_r2_g98 >= -1
 lin1_44_2_155: p_r2_g155_h111_t44 - x_r2_g155 <= 0
 lin2_44_2_155: p_r2_g155_h111_t44 - x_r2_g111 <= 0
 lin3_44_2_155: p_r2_g155_h111_t44 - x_r2_g155 - x_r2_g111 >= -1
 lin1_44_2_164: p_r2_g164_h120_t44 - x_r2_g164 <= 0
 lin2_44_2_164: p_r2_g164_h120_t44 - x_r2_g120 <= 0
 lin3_44_2_164: p_r2_g164_h120_t44 - x_r2_g164 - x_r2_g120 >= -1
 lin1_44_3_15: p_r3_g15_h138_t44 - x_r3_g15 <= 0
 lin2_44_3_15: p_r3_g15_h138_t44 - x_r3_g138 <= 0
 lin3_44_3_15: p_r3_g15_h138_t44 - x_r3_g15 - x_r3_g138 >= -1
 lin1_44_3_36: p_r3_g36_h159_t44 - x_r3_g36 <= 0
 lin2_44_3_36: p_r3_g36_h159_t44 - x_r3_g159 <= 0
 lin3_44_3_36: p_r3_g36_h159_t44 - x_r3_g36 - x_r3_g159 >= -1
 lin1_44_3_51: p_r3_g51_h7_t44 - x_r3_g51 <= 0
 lin2_44_3_51: p_r3_g51_h7_t44 - x_r3_g7 <= 0
 lin3_44_3_51: p_r3_g51_h7_t44 - x_r3_g51 - x_r3_g7 >= -1
 lin1_44_3_57: p_r3_g57_h13_t44 - x_r3_g57 <= 0
 lin2_44_3_57: p_r3_g57_h13_t44 - x_r3_g13 <= 0
 lin3_44_3_57: p_r3_g57_h13_t44 - x_r3_g57 - x_r3_g13 >= -1
 lin1_44_3_77: p_r3_g77_h33_t44 - x_r3_g77 <= 0
 lin2_44_3_77: p_r3_g77_h33_t44 - x_r3_g33 <= 0
 lin3_44_3_77: p_r3_g77_h33_t44 - x_r3_g77 - x_r3_g33 >= -1
 lin1_44_3_121: p_r3_g121_h77_t44 - x_r3_g121 <= 0
 lin2_44_3_121: p_r3_g121_h77_t44 - x_r3_g77 <= 0
 lin3_44_3_121: p_r3_g121_h77_t44 - x_r3_g121 - x_r3_g77 >= -1
 lin1_44_3_123: p_r3_g123_h79_t44 - x_r3_g123 <= 0
 lin2_44_3_123: p_r3_g123_h79_t44 - x_r3_g79 <= 0
 lin3_44_3_123: p_r3_g123_h79_t44 - x_r3_g123 - x_r3_g79 >= -1
 lin1_44_3_138: p_r3_g138_h94_t44 - x_r3_g138 <= 0
 lin2_44_3_138: p_r3_g138_h94_t44 - x_r3_g94 <= 0
 lin3_44_3_138: p_r3_g138_h94_t44 - x_r3_g138 - x_r3_g94 >= -1
 lin1_44_3_147: p_r3_g147_h103_t44 - x_r3_g147 <= 0
 lin2_44_3_147: p_r3_g147_h103_t44 - x_r3_g103 <= 0
 lin3_44_3_147: p_r3_g147_h103_t44 - x_r3_g147 - x_r3_g103 >= -1
 lin1_44_3_165: p_r3_g165_h121_t44 - x_r3_g165 <= 0
 lin2_44_3_165: p_r3_g165_h121_t44 - x_r3_g121 <= 0
 lin3_44_3_165: p_r3_g165_h121_t44 - x_r3_g165 - x_r3_g121 >= -1
 defect_44: 1 d_44 - 1 x_r0_g1 - 1 x_r0_g4 - 1 x_r0_g7 - 1 x_r0_g9 - 2 x_r0_g14 - 1 x_r0_g23 - 1 x_r0_g26 - 1 x_r0_g28 - 1 x_r0_g32 - 1 x_r0_g34 - 1 x_r0_g35 - 1 x_r0_g36 - 1 x_r0_g37 - 1 x_r0_g47 - 1 x_r0_g54 - 1 x_r0_g69 - 1 x_r0_g84 - 1 x_r0_g87 - 2 x_r0_g102 - 1 x_r0_g118 - 2 x_r0_g121 - 1 x_r0_g144 - 1 x_r0_g153 - 1 x_r1_g13 - 1 x_r1_g15 - 1 x_r1_g17 - 1 x_r1_g25 - 1 x_r1_g35 - 1 x_r1_g38 - 1 x_r1_g59 - 1 x_r1_g62 - 1 x_r1_g64 - 1 x_r1_g75 - 1 x_r1_g76 - 2 x_r1_g80 - 2 x_r1_g83 - 1 x_r1_g90 - 1 x_r1_g93 - 1 x_r1_g96 - 1 x_r1_g110 - 1 x_r1_g113 - 1 x_r1_g114 - 2 x_r1_g126 - 1 x_r1_g128 - 1 x_r1_g132 - 1 x_r1_g143 - 1 x_r1_g155 - 1 x_r2_g2 - 1 x_r2_g30 - 2 x_r2_g34 - 1 x_r2_g48 - 1 x_r2_g60 - 1 x_r2_g64 - 2 x_r2_g70 - 2 x_r2_g77 - 1 x_r2_g82 - 1 x_r2_g86 - 1 x_r2_g100 - 2 x_r2_g107 - 2 x_r2_g149 - 1 x_r2_g158 - 1 x_r2_g159 - 1 x_r2_g162 - 1 x_r2_g163 - 1 x_r2_g164 - 1 x_r2_g165 - 1 x_r3_g3 - 2 x_r3_g11 - 1 x_r3_g15 - 1 x_r3_g16 - 1 x_r3_g18 - 1 x_r3_g19 - 1 x_r3_g34 - 1 x_r3_g36 - 1 x_r3_g53 - 1 x_r3_g56 - 1 x_r3_g72 - 1 x_r3_g91 - 1 x_r3_g103 - 1 x_r3_g106 - 2 x_r3_g124 - 2 x_r3_g125 - 1 x_r3_g128 - 1 x_r3_g145 - 1 x_r3_g154 - 2 x_r3_g162 - 1 p_r0_g7_h130_t44 - 1 p_r0_g20_h143_t44 - 1 p_r0_g48_h4_t44 - 1 p_r0_g67_h23_t44 - 1 p_r0_g69_h25_t44 - 1 p_r0_g70_h26_t44 - 1 p_r0_g79_h35_t44 - 1 p_r0_g123_h79_t44 - 1 p_r0_g131_h87_t44 - 1 p_r0_g162_h118_t44 - 1 p_r1_g31_h154_t44 - 1 p_r1_g38_h161_t44 - 1 p_r1_g59_h15_t44 - 1 p_r1_g75_h31_t44 - 1 p_r1_g108_h64_t44 - 1 p_r1_g111_h67_t44 - 1 p_r1_g154_h110_t44 - 1 p_r1_g155_h111_t44 - 1 p_r1_g157_h113_t44 - 1 p_r1_g161_h117_t44 - 1 p_r2_g29_h152_t44 - 1 p_r2_g62_h18_t44 - 1 p_r2_g73_h29_t44 - 1 p_r2_g74_h30_t44 - 1 p_r2_g110_h66_t44 - 1 p_r2_g111_h67_t44 - 1 p_r2_g135_h91_t44 - 1 p_r2_g139_h95_t44 - 1 p_r2_g142_h98_t44 - 1 p_r2_g155_h111_t44 - 1 p_r2_g164_h120_t44 - 1 p_r3_g15_h138_t44 - 1 p_r3_g36_h159_t44 - 1 p_r3_g51_h7_t44 - 1 p_r3_g57_h13_t44 - 1 p_r3_g77_h33_t44 - 1 p_r3_g121_h77_t44 - 1 p_r3_g123_h79_t44 - 1 p_r3_g138_h94_t44 - 1 p_r3_g147_h103_t44 - 1 p_r3_g165_h121_t44 = -54
 abs_pos_44: d_44 - u_44 <= 0
 abs_neg_44: - d_44 - u_44 <= 0
 max_def_44: u_44 - M <= 0
 cap_44: u_44 <= 1
 lin1_50_0_1: p_r0_g1_h118_t50 - x_r0_g1 <= 0
 lin2_50_0_1: p_r0_g1_h118_t50 - x_r0_g118 <= 0
 lin3_50_0_1: p_r0_g1_h118_t50 - x_r0_g1 - x_r0_g118 >= -1
 lin1_50_0_4: p_r0_g4_h121_t50 - x_r0_g4 <= 0
 lin2_50_0_4: p_r0_g4_h121_t50 - x_r0_g121 <= 0
 lin3_50_0_4: p_r0_g4_h121_t50 - x_r0_g4 - x_r0_g121 >= -1
 lin1_50_0_14: p_r0_g14_h131_t50 - x_r0_g14 <= 0
 lin2_50_0_14: p_r0_g14_h131_t50 - x_r0_g131 <= 0
 lin3_50_0_14: p_r0_g14_h131_t50 - x_r0_g14 - x_r0_g131 >= -1
 lin1_50_0_26: p_r0_g26_h143_t50 - x_r0_g26 <= 0
 lin2_50_0_26: p_r0_g26_h143_t50 - x_r0_g143 <= 0
 lin3_50_0_26: p_r0_g26_h143_t50 - x_r0_g26 - x_r0_g143 >= -1
 lin1_50_0_36: p_r0_g36_h153_t50 - x_r0_g36 <= 0
 lin2_50_0_36: p_r0_g36_h153_t50 - x_r0_g153 <= 0
 lin3_50_0_36: p_r0_g36_h153_t50 - x_r0_g36 - x_r0_g153 >= -1
 lin1_50_0_54: p_r0_g54_h4_t50 - x_r0_g54 <= 0
 lin2_50_0_54: p_r0_g54_h4_t50 - x_r0_g4 <= 0
 lin3_50_0_54: p_r0_g54_h4_t50 - x_r0_g54 - x_r0_g4 >= -1
 lin1_50_0_67: p_r0_g67_h17_t50 - x_r0_g67 <= 0
 lin2_50_0_67: p_r0_g67_h17_t50 - x_r0_g17 <= 0
 lin3_50_0_67: p_r0_g67_h17_t50 - x_r0_g67 - x_r0_g17 >= -1
 lin1_50_0_70: p_r0_g70_h20_t50 - x_r0_g70 <= 0
 lin2_50_0_70: p_r0_g70_h20_t50 - x_r0_g20 <= 0
 lin3_50_0_70: p_r0_g70_h20_t50 - x_r0_g70 - x_r0_g20 >= -1
 lin1_50_0_84: p_r0_g84_h34_t50 - x_r0_g84 <= 0
 lin2_50_0_84: p_r0_g84_h34_t50 - x_r0_g34 <= 0
 lin3_50_0_84: p_r0_g84_h34_t50 - x_r0_g84 - x_r0_g34 >= -1
 lin1_50_0_87: p_r0_g87_h37_t50 - x_r0_g87 <= 0
 lin2_50_0_87: p_r0_g87_h37_t50 - x_r0_g37 <= 0
 lin3_50_0_87: p_r0_g87_h37_t50 - x_r0_g87 - x_r0_g37 >= -1
 lin1_50_0_97: p_r0_g97_h47_t50 - x_r0_g97 <= 0
 lin2_50_0_97: p_r0_g97_h47_t50 - x_r0_g47 <= 0
 lin3_50_0_97: p_r0_g97_h47_t50 - x_r0_g97 - x_r0_g47 >= -1
 lin1_50_0_118: p_r0_g118_h68_t50 - x_r0_g118 <= 0
 lin2_50_0_118: p_r0_g118_h68_t50 - x_r0_g68 <= 0
 lin3_50_0_118: p_r0_g118_h68_t50 - x_r0_g118 - x_r0_g68 >= -1
 lin1_50_1_11: p_r1_g11_h128_t50 - x_r1_g11 <= 0
 lin2_50_1_11: p_r1_g11_h128_t50 - x_r1_g128 <= 0
 lin3_50_1_11: p_r1_g11_h128_t50 - x_r1_g11 - x_r1_g128 >= -1
 lin1_50_1_15: p_r1_g15_h132_t50 - x_r1_g15 <= 0
 lin2_50_1_15: p_r1_g15_h132_t50 - x_r1_g132 <= 0
 lin3_50_1_15: p_r1_g15_h132_t50 - x_r1_g15 - x_r1_g132 >= -1
 lin1_50_1_38: p_r1_g38_h155_t50 - x_r1_g38 <= 0
 lin2_50_1_38: p_r1_g38_h155_t50 - x_r1_g155 <= 0
 lin3_50_1_38: p_r1_g38_h155_t50 - x_r1_g38 - x_r1_g155 >= -1
 lin1_50_1_67: p_r1_g67_h17_t50 - x_r1_g67 <= 0
 lin2_50_1_67: p_r1_g67_h17_t50 - x_r1_g17 <= 0
 lin3_50_1_67: p_r1_g67_h17_t50 - x_r1_g67 - x_r1_g17 >= -1
 lin1_50_1_75: p_r1_g75_h25_t50 - x_r1_g75 <= 0
 lin2_50_1_75: p_r1_g75_h25_t50 - x_r1_g25 <= 0
 lin3_50_1_75: p_r1_g75_h25_t50 - x_r1_g75 - x_r1_g25 >= -1
 lin1_50_1_80: p_r1_g80_h30_t50 - x_r1_g80 <= 0
 lin2_50_1_80: p_r1_g80_h30_t50 - x_r1_g30 <= 0
 lin3_50_1_80: p_r1_g80_h30_t50 - x_r1_g80 - x_r1_g30 >= -1
 lin1_50_1_114: p_r1_g114_h64_t50 - x_r1_g114 <= 0
 lin2_50_1_114: p_r1_g114_h64_t50 - x_r1_g64 <= 0
 lin3_50_1_114: p_r1_g114_h64_t50 - x_r1_g114 - x_r1_g64 >= -1
 lin1_50_1_117: p_r1_g117_h67_t50 - x_r1_g117 <= 0
 lin2_50_1_117: p_r1_g117_h67_t50 - x_r1_g67 <= 0
 lin3_50_1_117: p_r1_g117_h67_t50 - x_r1_g117 - x_r1_g67 >= -1
 lin1_50_1_126: p_r1_g126_h76_t50 - x_r1_g126 <= 0
 lin2_50_1_126: p_r1_g126_h76_t50 - x_r1_g76 <= 0
 lin3_50_1_126: p_r1_g126_h76_t50 - x_r1_g126 - x_r1_g76 >= -1
 lin1_50_1_143: p_r1_g143_h93_t50 - x_r1_g143 <= 0
 lin2_50_1_143: p_r1_g143_h93_t50 - x_r1_g93 <= 0
 lin3_50_1_143: p_r1_g143_h93_t50 - x_r1_g143 - x_r1_g93 >= -1
 lin1_50_1_146: p_r1_g146_h96_t50 - x_r1_g146 <= 0
 lin2_50_1_146: p_r1_g146_h96_t50 - x_r1_g96 <= 0
 lin3_50_1_146: p_r1_g146_h96_t50 - x_r1_g146 - x_r1_g96 >= -1
 lin1_50_1_157: p_r1_g157_h107_t50 - x_r1_g157 <= 0
 lin2_50_1_157: p_r1_g157_h107_t50 - x_r1_g107 <= 0
 lin3_50_1_157: p_r1_g157_h107_t50 - x_r1_g157 - x_r1_g107 >= -1
 lin1_50_1_161: p_r1_g161_h111_t50 - x_r1_g161 <= 0
 lin2_50_1_161: p_r1_g161_h111_t50 - x_r1_g111 <= 0
 lin3_50_1_161: p_r1_g161_h111_t50 - x_r1_g161 - x_r1_g111 >= -1
 lin1_50_2_18: p_r2_g18_h135_t50 - x_r2_g18 <= 0
 lin2_50_2_18: p_r2_g18_h135_t50 - x_r2_g135 <= 0
 lin3_50_2_18: p_r2_g18_h135_t50 - x_r2_g18 - x_r2_g135 >= -1
 lin1_50_2_48: p_r2_g48_h165_t50 - x_r2_g48 <= 0
 lin2_50_2_48: p_r2_g48_h165_t50 - x_r2_g165 <= 0
 lin3_50_2_48: p_r2_g48_h165_t50 - x_r2_g48 - x_r2_g165 >= -1
 lin1_50_2_80: p_r2_g80_h30_t50 - x_r2_g80 <= 0
 lin2_50_2_80: p_r2_g80_h30_t50 - x_r2_g30 <= 0
 lin3_50_2_80: p_r2_g80_h30_t50 - x_r2_g80 - x_r2_g30 >= -1
 lin1_50_2_98: p_r2_g98_h48_t50 - x_r2_g98 <= 0
 lin2_50_2_98: p_r2_g98_h48_t50 - x_r2_g48 <= 0
 lin3_50_2_98: p_r2_g98_h48_t50 - x_r2_g98 - x_r2_g48 >= -1
 lin1_50_2_110: p_r2_g110_h60_t50 - x_r2_g110 <= 0
 lin2_50_2_110: p_r2_g110_h60_t50 - x_r2_g60 <= 0
 lin3_50_2_110: p_r2_g110_h60_t50 - x_r2_g110 - x_r2_g60 >= -1
 lin1_50_2_120: p_r2_g120_h70_t50 - x_r2_g120 <= 0
 lin2_50_2_120: p_r2_g120_h70_t50 - x_r2_g70 <= 0
 lin3_50_2_120: p_r2_g120_h70_t50 - x_r2_g120 - x_r2_g70 >= -1
 lin1_50_2_136: p_r2_g136_h86_t50 - x_r2_g136 <= 0
 lin2_50_2_136: p_r2_g136_h86_t50 - x_r2_g86 <= 0
 lin3_50_2_136: p_r2_g136_h86_t50 - x_r2_g136 - x_r2_g86 >= -1
 lin1_50_3_7: p_r3_g7_h124_t50 - x_r3_g7 <= 0
 lin2_50_3_7: p_r3_g7_h124_t50 - x_r3_g124 <= 0
 lin3_50_3_7: p_r3_g7_h124_t50 - x_r3_g7 - x_r3_g124 >= -1
 lin1_50_3_8: p_r3_g8_h125_t50 - x_r3_g8 <= 0
 lin2_50_3_8: p_r3_g8_h125_t50 - x_r3_g125 <= 0
 lin3_50_3_8: p_r3_g8_h125_t50 - x_r3_g8 - x_r3_g125 >= -1
 lin1_50_3_11: p_r3_g11_h128_t50 - x_r3_g11 <= 0
 lin2_50_3_11: p_r3_g11_h128_t50 - x_r3_g128 <= 0
 lin3_50_3_11: p_r3_g11_h128_t50 - x_r3_g11 - x_r3_g128 >= -1
 lin1_50_3_27: p_r3_g27_h144_t50 - x_r3_g27 <= 0
 lin2_50_3_27: p_r3_g27_h144_t50 - x_r3_g144 <= 0
 lin3_50_3_27: p_r3_g27_h144_t50 - x_r3_g27 - x_r3_g144 >= -1
 lin1_50_3_53: p_r3_g53_h3_t50 - x_r3_g53 <= 0
 lin2_50_3_53: p_r3_g53_h3_t50 - x_r3_g3 <= 0
 lin3_50_3_53: p_r3_g53_h3_t50 - x_r3_g53 - x_r3_g3 >= -1
 lin1_50_3_57: p_r3_g57_h7_t50 - x_r3_g57 <= 0
 lin2_50_3_57: p_r3_g57_h7_t50 - x_r3_g7 <= 0
 lin3_50_3_57: p_r3_g57_h7_t50 - x_r3_g57 - x_r3_g7 >= -1
 lin1_50_3_65: p_r3_g65_h15_t50 - x_r3_g65 <= 0
 lin2_50_3_65: p_r3_g65_h15_t50 - x_r3_g15 <= 0
 lin3_50_3_65: p_r3_g65_h15_t50 - x_r3_g65 - x_r3_g15 >= -1
 lin1_50_3_77: p_r3_g77_h27_t50 - x_r3_g77 <= 0
 lin2_50_3_77: p_r3_g77_h27_t50 - x_r3_g27 <= 0
 lin3_50_3_77: p_r3_g77_h27_t50 - x_r3_g77 - x_r3_g27 >= -1
 lin1_50_3_103: p_r3_g103_h53_t50 - x_r3_g103 <= 0
 lin2_50_3_103: p_r3_g103_h53_t50 - x_r3_g53 <= 0
 lin3_50_3_103: p_r3_g103_h53_t50 - x_r3_g103 - x_r3_g53 >= -1
 lin1_50_3_106: p_r3_g106_h56_t50 - x_r3_g106 <= 0
 lin2_50_3_106: p_r3_g106_h56_t50 - x_r3_g56 <= 0
 lin3_50_3_106: p_r3_g106_h56_t50 - x_r3_g106 - x_r3_g56 >= -1
 lin1_50_3_144: p_r3_g144_h94_t50 - x_r3_g144 <= 0
 lin2_50_3_144: p_r3_g144_h94_t50 - x_r3_g94 <= 0
 lin3_50_3_144: p_r3_g144_h94_t50 - x_r3_g144 - x_r3_g94 >= -1
 defect_50: 1 d_50 - 1 x_r0_g1 - 2 x_r0_g9 - 1 x_r0_g20 - 1 x_r0_g22 - 1 x_r0_g25 - 1 x_r0_g32 - 1 x_r0_g34 - 1 x_r0_g35 - 2 x_r0_g48 - 2 x_r0_g69 - 1 x_r0_g70 - 1 x_r0_g87 - 2 x_r0_g101 - 2 x_r0_g102 - 1 x_r0_g123 - 1 x_r0_g130 - 1 x_r0_g153 - 1 x_r0_g162 - 1 x_r1_g13 - 1 x_r1_g15 - 1 x_r1_g31 - 1 x_r1_g38 - 2 x_r1_g53 - 1 x_r1_g59 - 1 x_r1_g62 - 1 x_r1_g76 - 1 x_r1_g80 - 2 x_r1_g90 - 1 x_r1_g91 - 1 x_r1_g96 - 1 x_r1_g107 - 1 x_r1_g110 - 1 x_r1_g113 - 1 x_r1_g114 - 1 x_r1_g128 - 1 x_r1_g132 - 1 x_r1_g143 - 1 x_r1_g146 - 1 x_r1_g154 - 1 x_r1_g157 - 1 x_r1_g161 - 1 x_r2_g2 - 1 x_r2_g18 - 1 x_r2_g29 - 1 x_r2_g34 - 1 x_r2_g62 - 2 x_r2_g64 - 1 x_r2_g66 - 1 x_r2_g70 - 1 x_r2_g77 - 1 x_r2_g80 - 1 x_r2_g82 - 1 x_r2_g91 - 1 x_r2_g98 - 1 x_r2_g100 - 1 x_r2_g107 - 1 x_r2_g110 - 2 x_r2_g111 - 1 x_r2_g128 - 1 x_r2_g135 - 1 x_r2_g142 - 1 x_r2_g152 - 1 x_r2_g155 - 1 x_r2_g158 - 1 x_r2_g162 - 2 x_r2_g163 - 1 x_r2_g164 - 1 x_r2_g165 - 1 x_r3_g11 - 1 x_r3_g15 - 1 x_r3_g16 - 1 x_r3_g18 - 1 x_r3_g33 - 1 x_r3_g34 - 1 x_r3_g36 - 1 x_r3_g51 - 1 x_r3_g56 - 2 x_r3_g72 - 1 x_r3_g77 - 1 x_r3_g79 - 1 x_r3_g91 - 1 x_r3_g111 - 1 x_r3_g113 - 1 x_r3_g121 - 1 x_r3_g123 - 1 x_r3_g124 - 1 x_r3_g125 - 1 x_r3_g128 - 1 x_r3_g145 - 1 x_r3_g147 - 1 x_r3_g154 - 2 x_r3_g162 - 1 p_r0_g1_h118_t50 - 1 p_r0_g4_h121_t50 - 1 p_r0_g14_h131_t50 - 1 p_r0_g26_h143_t50 - 1 p_r0_g36_h153_t50 - 1 p_r0_g54_h4_t50 - 1 p_r0_g67_h17_t50 - 1 p_r0_g70_h20_t50 - 1 p_r0_g84_h34_t50 - 1 p_r0_g87_h37_t50 - 1 p_r0_g97_h47_t50 - 1 p_r0_g118_h68_t50 - 1 p_r1_g11_h128_t50 - 1 p_r1_g15_h132_t50 - 1 p_r1_g38_h155_t50 - 1 p_r1_g67_h17_t50 - 1 p_r1_g75_h25_t50 - 1 p_r1_g80_h30_t50 - 1 p_r1_g114_h64_t50 - 1 p_r1_g117_h67_t50 - 1 p_r1_g126_h76_t50 - 1 p_r1_g143_h93_t50 - 1 p_r1_g146_h96_t50 - 1 p_r1_g157_h107_t50 - 1 p_r1_g161_h111_t50 - 1 p_r2_g18_h135_t50 - 1 p_r2_g48_h165_t50 - 1 p_r2_g80_h30_t50 - 1 p_r2_g98_h48_t50 - 1 p_r2_g110_h60_t50 - 1 p_r2_g120_h70_t50 - 1 p_r2_g136_h86_t50 - 1 p_r3_g7_h124_t50 - 1 p_r3_g8_h125_t50 - 1 p_r3_g11_h128_t50 - 1 p_r3_g27_h144_t50 - 1 p_r3_g53_h3_t50 - 1 p_r3_g57_h7_t50 - 1 p_r3_g65_h15_t50 - 1 p_r3_g77_h27_t50 - 1 p_r3_g103_h53_t50 - 1 p_r3_g106_h56_t50 - 1 p_r3_g144_h94_t50 = -69
 abs_pos_50: d_50 - u_50 <= 0
 abs_neg_50: - d_50 - u_50 <= 0
 max_def_50: u_50 - M <= 0
 cap_50: u_50 <= 1
 lin1_58_0_9: p_r0_g9_h118_t58 - x_r0_g9 <= 0
 lin2_58_0_9: p_r0_g9_h118_t58 - x_r0_g118 <= 0
 lin3_58_0_9: p_r0_g9_h118_t58 - x_r0_g9 - x_r0_g118 >= -1
 lin1_58_0_14: p_r0_g14_h123_t58 - x_r0_g14 <= 0
 lin2_58_0_14: p_r0_g14_h123_t58 - x_r0_g123 <= 0
 lin3_58_0_14: p_r0_g14_h123_t58 - x_r0_g14 - x_r0_g123 >= -1
 lin1_58_0_22: p_r0_g22_h131_t58 - x_r0_g22 <= 0
 lin2_58_0_22: p_r0_g22_h131_t58 - x_r0_g131 <= 0
 lin3_58_0_22: p_r0_g22_h131_t58 - x_r0_g22 - x_r0_g131 >= -1
 lin1_58_0_34: p_r0_g34_h143_t58 - x_r0_g34 <= 0
 lin2_58_0_34: p_r0_g34_h143_t58 - x_r0_g143 <= 0
 lin3_58_0_34: p_r0_g34_h143_t58 - x_r0_g34 - x_r0_g143 >= -1
 lin1_58_0_35: p_r0_g35_h144_t58 - x_r0_g35 <= 0
 lin2_58_0_35: p_r0_g35_h144_t58 - x_r0_g144 <= 0
 lin3_58_0_35: p_r0_g35_h144_t58 - x_r0_g35 - x_r0_g144 >= -1
 lin1_58_0_67: p_r0_g67_h9_t58 - x_r0_g67 <= 0
 lin2_58_0_67: p_r0_g67_h9_t58 - x_r0_g9 <= 0
 lin3_58_0_67: p_r0_g67_h9_t58 - x_r0_g67 - x_r0_g9 >= -1
 lin1_58_0_84: p_r0_g84_h26_t58 - x_r0_g84 <= 0
 lin2_58_0_84: p_r0_g84_h26_t58 - x_r0_g26 <= 0
 lin3_58_0_84: p_r0_g84_h26_t58 - x_r0_g84 - x_r0_g26 >= -1
 lin1_58_0_118: p_r0_g118_h60_t58 - x_r0_g118 <= 0
 lin2_58_0_118: p_r0_g118_h60_t58 - x_r0_g60 <= 0
 lin3_58_0_118: p_r0_g118_h60_t58 - x_r0_g118 - x_r0_g60 >= -1
 lin1_58_1_8: p_r1_g8_h117_t58 - x_r1_g8 <= 0
 lin2_58_1_8: p_r1_g8_h117_t58 - x_r1_g117 <= 0
 lin3_58_1_8: p_r1_g8_h117_t58 - x_r1_g8 - x_r1_g117 >= -1
 lin1_58_1_17: p_r1_g17_h126_t58 - x_r1_g17 <= 0
 lin2_58_1_17: p_r1_g17_h126_t58 - x_r1_g126 <= 0
 lin3_58_1_17: p_r1_g17_h126_t58 - x_r1_g17 - x_r1_g126 >= -1
 lin1_58_1_75: p_r1_g75_h17_t58 - x_r1_g75 <= 0
 lin2_58_1_75: p_r1_g75_h17_t58 - x_r1_g17 <= 0
 lin3_58_1_75: p_r1_g75_h17_t58 - x_r1_g75 - x_r1_g17 >= -1
 lin1_58_1_83: p_r1_g83_h25_t58 - x_r1_g83 <= 0
 lin2_58_1_83: p_r1_g83_h25_t58 - x_r1_g25 <= 0
 lin3_58_1_83: p_r1_g83_h25_t58 - x_r1_g83 - x_r1_g25 >= -1
 lin1_58_1_93: p_r1_g93_h35_t58 - x_r1_g93 <= 0
 lin2_58_1_93: p_r1_g93_h35_t58 - x_r1_g35 <= 0
 lin3_58_1_93: p_r1_g93_h35_t58 - x_r1_g93 - x_r1_g35 >= -1
 lin1_58_1_96: p_r1_g96_h38_t58 - x_r1_g96 <= 0
 lin2_58_1_96: p_r1_g96_h38_t58 - x_r1_g38 <= 0
 lin3_58_1_96: p_r1_g96_h38_t58 - x_r1_g96 - x_r1_g38 >= -1
 lin1_58_1_111: p_r1_g111_h53_t58 - x_r1_g111 <= 0
 lin2_58_1_111: p_r1_g111_h53_t58 - x_r1_g53 <= 0
 lin3_58_1_111: p_r1_g111_h53_t58 - x_r1_g111 - x_r1_g53 >= -1
 lin1_58_1_117: p_r1_g117_h59_t58 - x_r1_g117 <= 0
 lin2_58_1_117: p_r1_g117_h59_t58 - x_r1_g59 <= 0
 lin3_58_1_117: p_r1_g117_h59_t58 - x_r1_g117 - x_r1_g59 >= -1
 lin1_58_1_154: p_r1_g154_h96_t58 - x_r1_g154 <= 0
 lin2_58_1_154: p_r1_g154_h96_t58 - x_r1_g96 <= 0
 lin3_58_1_154: p_r1_g154_h96_t58 - x_r1_g154 - x_r1_g96 >= -1
 lin1_58_2_2: p_r2_g2_h111_t58 - x_r2_g2 <= 0
 lin2_58_2_2: p_r2_g2_h111_t58 - x_r2_g111 <= 0
 lin3_58_2_2: p_r2_g2_h111_t58 - x_r2_g2 - x_r2_g111 >= -1
 lin1_58_2_30: p_r2_g30_h139_t58 - x_r2_g30 <= 0
 lin2_58_2_30: p_r2_g30_h139_t58 - x_r2_g139 <= 0
 lin3_58_2_30: p_r2_g30_h139_t58 - x_r2_g30 - x_r2_g139 >= -1
 lin1_58_2_60: p_r2_g60_h2_t58 - x_r2_g60 <= 0
 lin2_58_2_60: p_r2_g60_h2_t58 - x_r2_g2 <= 0
 lin3_58_2_60: p_r2_g60_h2_t58 - x_r2_g60 - x_r2_g2 >= -1
 lin1_58_2_120: p_r2_g120_h62_t58 - x_r2_g120 <= 0
 lin2_58_2_120: p_r2_g120_h62_t58 - x_r2_g62 <= 0
 lin3_58_2_120: p_r2_g120_h62_t58 - x_r2_g120 - x_r2_g62 >= -1
 lin1_58_2_128: p_r2_g128_h70_t58 - x_r2_g128 <= 0
 lin2_58_2_128: p_r2_g128_h70_t58 - x_r2_g70 <= 0
 lin3_58_2_128: p_r2_g128_h70_t58 - x_r2_g128 - x_r2_g70 >= -1
 lin1_58_2_135: p_r2_g135_h77_t58 - x_r2_g135 <= 0
 lin2_58_2_135: p_r2_g135_h77_t58 - x_r2_g77 <= 0
 lin3_58_2_135: p_r2_g135_h77_t58 - x_r2_g135 - x_r2_g77 >= -1
 lin1_58_2_149: p_r2_g149_h91_t58 - x_r2_g149 <= 0
 lin2_58_2_149: p_r2_g149_h91_t58 - x_r2_g91 <= 0
 lin3_58_2_149: p_r2_g149_h91_t58 - x_r2_g149 - x_r2_g91 >= -1
 lin1_58_2_158: p_r2_g158_h100_t58 - x_r2_g158 <= 0
 lin2_58_2_158: p_r2_g158_h100_t58 - x_r2_g100 <= 0
 lin3_58_2_158: p_r2_g158_h100_t58 - x_r2_g158 - x_r2_g100 >= -1
 lin1_58_2_165: p_r2_g165_h107_t58 - x_r2_g165 <= 0
 lin2_58_2_165: p_r2_g165_h107_t58 - x_r2_g107 <= 0
 lin3_58_2_165: p_r2_g165_h107_t58 - x_r2_g165 - x_r2_g107 >= -1
 lin1_58_3_15: p_r3_g15_h124_t58 - x_r3_g15 <= 0
 lin2_58_3_15: p_r3_g15_h124_t58 - x_r3_g124 <= 0
 lin3_58_3_15: p_r3_g15_h124_t58 - x_r3_g15 - x_r3_g124 >= -1
 lin1_58_3_16: p_r3_g16_h125_t58 - x_r3_g16 <= 0
 lin2_58_3_16: p_r3_g16_h125_t58 - x_r3_g125 <= 0
 lin3_58_3_16: p_r3_g16_h125_t58 - x_r3_g16 - x_r3_g125 >= -1
 lin1_58_3_19: p_r3_g19_h128_t58 - x_r3_g19 <= 0
 lin2_58_3_19: p_r3_g19_h128_t58 - x_r3_g128 <= 0
 lin3_58_3_19: p_r3_g19_h128_t58 - x_r3_g19 - x_r3_g128 >= -1
 lin1_58_3_36: p_r3_g36_h145_t58 - x_r3_g36 <= 0
 lin2_58_3_36: p_r3_g36_h145_t58 - x_r3_g145 <= 0
 lin3_58_3_36: p_r3_g36_h145_t58 - x_r3_g36 - x_r3_g145 >= -1
 lin1_58_3_53: p_r3_g53_h162_t58 - x_r3_g53 <= 0
 lin2_58_3_53: p_r3_g53_h162_t58 - x_r3_g162 <= 0
 lin3_58_3_53: p_r3_g53_h162_t58 - x_r3_g53 - x_r3_g162 >= -1
 lin1_58_3_56: p_r3_g56_h165_t58 - x_r3_g56 <= 0
 lin2_58_3_56: p_r3_g56_h165_t58 - x_r3_g165 <= 0
 lin3_58_3_56: p_r3_g56_h165_t58 - x_r3_g56 - x_r3_g165 >= -1
 lin1_58_3_65: p_r3_g65_h7_t58 - x_r3_g65 <= 0
 lin2_58_3_65: p_r3_g65_h7_t58 - x_r3_g7 <= 0
 lin3_58_3_65: p_r3_g65_h7_t58 - x_r3_g65 - x_r3_g7 >= -1
 lin1_58_3_77: p_r3_g77_h19_t58 - x_r3_g77 <= 0
 lin2_58_3_77: p_r3_g77_h19_t58 - x_r3_g19 <= 0
 lin3_58_3_77: p_r3_g77_h19_t58 - x_r3_g77 - x_r3_g19 >= -1
 lin1_58_3_91: p_r3_g91_h33_t58 - x_r3_g91 <= 0
 lin2_58_3_91: p_r3_g91_h33_t58 - x_r3_g33 <= 0
 lin3_58_3_91: p_r3_g91_h33_t58 - x_r3_g91 - x_r3_g33 >= -1
 lin1_58_3_94: p_r3_g94_h36_t58 - x_r3_g94 <= 0
 lin2_58_3_94: p_r3_g94_h36_t58 - x_r3_g36 <= 0
 lin3_58_3_94: p_r3_g94_h36_t58 - x_r3_g94 - x_r3_g36 >= -1
 lin1_58_3_111: p_r3_g111_h53_t58 - x_r3_g111 <= 0
 lin2_58_3_111: p_r3_g111_h53_t58 - x_r3_g53 <= 0
 lin3_58_3_111: p_r3_g111_h53_t58 - x_r3_g111 - x_r3_g53 >= -1
 lin1_58_3_123: p_r3_g123_h65_t58 - x_r3_g123 <= 0
 lin2_58_3_123: p_r3_g123_h65_t58 - x_r3_g65 <= 0
 lin3_58_3_123: p_r3_g123_h65_t58 - x_r3_g123 - x_r3_g65 >= -1
 defect_58: 1 d_58 - 1 x_r0_g1 - 2 x_r0_g4 - 2 x_r0_g7 - 1 x_r0_g17 - 1 x_r0_g23 - 1 x_r0_g28 - 1 x_r0_g32 - 1 x_r0_g37 - 2 x_r0_g48 - 1 x_r0_g54 - 1 x_r0_g67 - 1 x_r0_g68 - 2 x_r0_g69 - 1 x_r0_g70 - 1 x_r0_g79 - 1 x_r0_g84 - 1 x_r0_g97 - 2 x_r0_g101 - 1 x_r0_g102 - 2 x_r0_g121 - 1 x_r0_g123 - 1 x_r1_g8 - 1 x_r1_g11 - 1 x_r1_g15 - 1 x_r1_g30 - 2 x_r1_g31 - 1 x_r1_g59 - 1 x_r1_g76 - 1 x_r1_g80 - 1 x_r1_g83 - 1 x_r1_g90 - 1 x_r1_g107 - 1 x_r1_g108 - 1 x_r1_g110 - 1 x_r1_g114 - 1 x_r1_g126 - 1 x_r1_g128 - 2 x_r1_g146 - 1 x_r1_g155 - 1 x_r1_g161 - 1 x_r2_g29 - 1 x_r2_g48 - 1 x_r2_g62 - 1 x_r2_g64 - 1 x_r2_g74 - 1 x_r2_g82 - 1 x_r2_g86 - 1 x_r2_g91 - 1 x_r2_g95 - 1 x_r2_g107 - 1 x_r2_g110 - 1 x_r2_g135 - 2 x_r2_g136 - 1 x_r2_g142 - 2 x_r2_g152 - 1 x_r2_g155 - 1 x_r2_g158 - 1 x_r2_g159 - 1 x_r2_g162 - 1 x_r2_g163 - 1 x_r2_g165 - 2 x_r3_g3 - 1 x_r3_g8 - 1 x_r3_g13 - 1 x_r3_g16 - 2 x_r3_g18 - 1 x_r3_g33 - 1 x_r3_g34 - 1 x_r3_g51 - 1 x_r3_g57 - 1 x_r3_g79 - 1 x_r3_g91 - 1 x_r3_g103 - 1 x_r3_g111 - 2 x_r3_g113 - 1 x_r3_g121 - 1 x_r3_g124 - 1 x_r3_g138 - 1 x_r3_g144 - 2 x_r3_g147 - 1 x_r3_g154 - 1 p_r0_g9_h118_t58 - 1 p_r0_g14_h123_t58 - 1 p_r0_g22_h131_t58 - 1 p_r0_g34_h143_t58 - 1 p_r0_g35_h144_t58 - 1 p_r0_g67_h9_t58 - 1 p_r0_g84_h26_t58 - 1 p_r0_g118_h60_t58 - 1 p_r1_g8_h117_t58 - 1 p_r1_g17_h126_t58 - 1 p_r1_g75_h17_t58 - 1 p_r1_g83_h25_t58 - 1 p_r1_g93_h35_t58 - 1 p_r1_g96_h38_t58 - 1 p_r1_g111_h53_t58 - 1 p_r1_g117_h59_t58 - 1 p_r1_g154_h96_t58 - 1 p_r2_g2_h111_t58 - 1 p_r2_g30_h139_t58 - 1 p_r2_g60_h2_t58 - 1 p_r2_g120_h62_t58 - 1 p_r2_g128_h70_t58 - 1 p_r2_g135_h77_t58 - 1 p_r2_g149_h91_t58 - 1 p_r2_g158_h100_t58 - 1 p_r2_g165_h107_t58 - 1 p_r3_g15_h124_t58 - 1 p_r3_g16_h125_t58 - 1 p_r3_g19_h128_t58 - 1 p_r3_g36_h145_t58 - 1 p_r3_g53_h162_t58 - 1 p_r3_g56_h165_t58 - 1 p_r3_g65_h7_t58 - 1 p_r3_g77_h19_t58 - 1 p_r3_g91_h33_t58 - 1 p_r3_g94_h36_t58 - 1 p_r3_g111_h53_t58 - 1 p_r3_g123_h65_t58 = -61
 abs_pos_58: d_58 - u_58 <= 0
 abs_neg_58: - d_58 - u_58 <= 0
 max_def_58: u_58 - M <= 0
 cap_58: u_58 <= 1
 lin1_62_0_25: p_r0_g25_h130_t62 - x_r0_g25 <= 0
 lin2_62_0_25: p_r0_g25_h130_t62 - x_r0_g130 <= 0
 lin3_62_0_25: p_r0_g25_h130_t62 - x_r0_g25 - x_r0_g130 >= -1
 lin1_62_0_26: p_r0_g26_h131_t62 - x_r0_g26 <= 0
 lin2_62_0_26: p_r0_g26_h131_t62 - x_r0_g131 <= 0
 lin3_62_0_26: p_r0_g26_h131_t62 - x_r0_g26 - x_r0_g131 >= -1
 lin1_62_0_48: p_r0_g48_h153_t62 - x_r0_g48 <= 0
 lin2_62_0_48: p_r0_g48_h153_t62 - x_r0_g153 <= 0
 lin3_62_0_48: p_r0_g48_h153_t62 - x_r0_g48 - x_r0_g153 >= -1
 lin1_62_0_69: p_r0_g69_h7_t62 - x_r0_g69 <= 0
 lin2_62_0_69: p_r0_g69_h7_t62 - x_r0_g7 <= 0
 lin3_62_0_69: p_r0_g69_h7_t62 - x_r0_g69 - x_r0_g7 >= -1
 lin1_62_0_79: p_r0_g79_h17_t62 - x_r0_g79 <= 0
 lin2_62_0_79: p_r0_g79_h17_t62 - x_r0_g17 <= 0
 lin3_62_0_79: p_r0_g79_h17_t62 - x_r0_g79 - x_r0_g17 >= -1
 lin1_62_0_84: p_r0_g84_h22_t62 - x_r0_g84 <= 0
 lin2_62_0_84: p_r0_g84_h22_t62 - x_r0_g22 <= 0
 lin3_62_0_84: p_r0_g84_h22_t62 - x_r0_g84 - x_r0_g22 >= -1
 lin1_62_0_87: p_r0_g87_h25_t62 - x_r0_g87 <= 0
 lin2_62_0_87: p_r0_g87_h25_t62 - x_r0_g25 <= 0
 lin3_62_0_87: p_r0_g87_h25_t62 - x_r0_g87 - x_r0_g25 >= -1
 lin1_62_0_97: p_r0_g97_h35_t62 - x_r0_g97 <= 0
 lin2_62_0_97: p_r0_g97_h35_t62 - x_r0_g35 <= 0
 lin3_62_0_97: p_r0_g97_h35_t62 - x_r0_g97 - x_r0_g35 >= -1
 lin1_62_0_130: p_r0_g130_h68_t62 - x_r0_g130 <= 0
 lin2_62_0_130: p_r0_g130_h68_t62 - x_r0_g68 <= 0
 lin3_62_0_130: p_r0_g130_h68_t62 - x_r0_g130 - x_r0_g68 >= -1
 lin1_62_0_131: p_r0_g131_h69_t62 - x_r0_g131 <= 0
 lin2_62_0_131: p_r0_g131_h69_t62 - x_r0_g69 <= 0
 lin3_62_0_131: p_r0_g131_h69_t62 - x_r0_g131 - x_r0_g69 >= -1
 lin1_62_1_8: p_r1_g8_h113_t62 - x_r1_g8 <= 0
 lin2_62_1_8: p_r1_g8_h113_t62 - x_r1_g113 <= 0
 lin3_62_1_8: p_r1_g8_h113_t62 - x_r1_g8 - x_r1_g113 >= -1
 lin1_62_1_38: p_r1_g38_h143_t62 - x_r1_g38 <= 0
 lin2_62_1_38: p_r1_g38_h143_t62 - x_r1_g143 <= 0
 lin3_62_1_38: p_r1_g38_h143_t62 - x_r1_g38 - x_r1_g143 >= -1
 lin1_62_1_75: p_r1_g75_h13_t62 - x_r1_g75 <= 0
 lin2_62_1_75: p_r1_g75_h13_t62 - x_r1_g13 <= 0
 lin3_62_1_75: p_r1_g75_h13_t62 - x_r1_g75 - x_r1_g13 >= -1
 lin1_62_1_93: p_r1_g93_h31_t62 - x_r1_g93 <= 0
 lin2_62_1_93: p_r1_g93_h31_t62 - x_r1_g31 <= 0
 lin3_62_1_93: p_r1_g93_h31_t62 - x_r1_g93 - x_r1_g31 >= -1
 lin1_62_1_121: p_r1_g121_h59_t62 - x_r1_g121 <= 0
 lin2_62_1_121: p_r1_g121_h59_t62 - x_r1_g59 <= 0
 lin3_62_1_121: p_r1_g121_h59_t62 - x_r1_g121 - x_r1_g59 >= -1
 lin1_62_1_126: p_r1_g126_h64_t62 - x_r1_g126 <= 0
 lin2_62_1_126: p_r1_g126_h64_t62 - x_r1_g64 <= 0
 lin3_62_1_126: p_r1_g126_h64_t62 - x_r1_g126 - x_r1_g64 >= -1
 lin1_62_1_155: p_r1_g155_h93_t62 - x_r1_g155 <= 0
 lin2_62_1_155: p_r1_g155_h93_t62 - x_r1_g93 <= 0
 lin3_62_1_155: p_r1_g155_h93_t62 - x_r1_g155 - x_r1_g93 >= -1
 lin1_62_2_2: p_r2_g2_h107_t62 - x_r2_g2 <= 0
 lin2_62_2_2: p_r2_g2_h107_t62 - x_r2_g107 <= 0
 lin3_62_2_2: p_r2_g2_h107_t62 - x_r2_g2 - x_r2_g107 >= -1
 lin1_62_2_30: p_r2_g30_h135_t62 - x_r2_g30 <= 0
 lin2_62_2_30: p_r2_g30_h135_t62 - x_r2_g135 <= 0
 lin3_62_2_30: p_r2_g30_h135_t62 - x_r2_g30 - x_r2_g135 >= -1
 lin1_62_2_34: p_r2_g34_h139_t62 - x_r2_g34 <= 0
 lin2_62_2_34: p_r2_g34_h139_t62 - x_r2_g139 <= 0
 lin3_62_2_34: p_r2_g34_h139_t62 - x_r2_g34 - x_r2_g139 >= -1
 lin1_62_2_60: p_r2_g60_h165_t62 - x_r2_g60 <= 0
 lin2_62_2_60: p_r2_g60_h165_t62 - x_r2_g165 <= 0
 lin3_62_2_60: p_r2_g60_h165_t62 - x_r2_g60 - x_r2_g165 >= -1
 lin1_62_2_64: p_r2_g64_h2_t62 - x_r2_g64 <= 0
 lin2_62_2_64: p_r2_g64_h2_t62 - x_r2_g2 <= 0
 lin3_62_2_64: p_r2_g64_h2_t62 - x_r2_g64 - x_r2_g2 >= -1
 lin1_62_2_80: p_r2_g80_h18_t62 - x_r2_g80 <= 0
 lin2_62_2_80: p_r2_g80_h18_t62 - x_r2_g18 <= 0
 lin3_62_2_80: p_r2_g80_h18_t62 - x_r2_g80 - x_r2_g18 >= -1
 lin1_62_2_91: p_r2_g91_h29_t62 - x_r2_g91 <= 0
 lin2_62_2_91: p_r2_g91_h29_t62 - x_r2_g29 <= 0
 lin3_62_2_91: p_r2_g91_h29_t62 - x_r2_g91 - x_r2_g29 >= -1
 lin1_62_2_110: p_r2_g110_h48_t62 - x_r2_g110 <= 0
 lin2_62_2_110: p_r2_g110_h48_t62 - x_r2_g48 <= 0
 lin3_62_2_110: p_r2_g110_h48_t62 - x_r2_g110 - x_r2_g48 >= -1
 lin1_62_2_128: p_r2_g128_h66_t62 - x_r2_g128 <= 0
 lin2_62_2_128: p_r2_g128_h66_t62 - x_r2_g66 <= 0
 lin3_62_2_128: p_r2_g128_h66_t62 - x_r2_g128 - x_r2_g66 >= -1
 lin1_62_2_135: p_r2_g135_h73_t62 - x_r2_g135 <= 0
 lin2_62_2_135: p_r2_g135_h73_t62 - x_r2_g73 <= 0
 lin3_62_2_135: p_r2_g135_h73_t62 - x_r2_g135 - x_r2_g73 >= -1
 lin1_62_2_136: p_r2_g136_h74_t62 - x_r2_g136 <= 0
 lin2_62_2_136: p_r2_g136_h74_t62 - x_r2_g74 <= 0
 lin3_62_2_136: p_r2_g136_h74_t62 - x_r2_g136 - x_r2_g74 >= -1
 lin1_62_2_139: p_r2_g139_h77_t62 - x_r2_g139 <= 0
 lin2_62_2_139: p_r2_g139_h77_t62 - x_r2_g77 <= 0
 lin3_62_2_139: p_r2_g139_h77_t62 - x_r2_g139 - x_r2_g77 >= -1
 lin1_62_2_142: p_r2_g142_h80_t62 - x_r2_g142 <= 0
 lin2_62_2_142: p_r2_g142_h80_t62 - x_r2_g80 <= 0
 lin3_62_2_142: p_r2_g142_h80_t62 - x_r2_g142 - x_r2_g80 >= -1
 lin1_62_2_162: p_r2_g162_h100_t62 - x_r2_g162 <= 0
 lin2_62_2_162: p_r2_g162_h100_t62 - x_r2_g100 <= 0
 lin3_62_2_162: p_r2_g162_h100_t62 - x_r2_g162 - x_r2_g100 >= -1
 lin1_62_3_8: p_r3_g8_h113_t62 - x_r3_g8 <= 0
 lin2_62_3_8: p_r3_g8_h113_t62 - x_r3_g113 <= 0
 lin3_62_3_8: p_r3_g8_h113_t62 - x_r3_g8 - x_r3_g113 >= -1
 lin1_62_3_16: p_r3_g16_h121_t62 - x_r3_g16 <= 0
 lin2_62_3_16: p_r3_g16_h121_t62 - x_r3_g121 <= 0
 lin3_62_3_16: p_r3_g16_h121_t62 - x_r3_g16 - x_r3_g121 >= -1
 lin1_62_3_18: p_r3_g18_h123_t62 - x_r3_g18 <= 0
 lin2_62_3_18: p_r3_g18_h123_t62 - x_r3_g123 <= 0
 lin3_62_3_18: p_r3_g18_h123_t62 - x_r3_g18 - x_r3_g123 >= -1
 lin1_62_3_19: p_r3_g19_h124_t62 - x_r3_g19 <= 0
 lin2_62_3_19: p_r3_g19_h124_t62 - x_r3_g124 <= 0
 lin3_62_3_19: p_r3_g19_h124_t62 - x_r3_g19 - x_r3_g124 >= -1
 lin1_62_3_33: p_r3_g33_h138_t62 - x_r3_g33 <= 0
 lin2_62_3_33: p_r3_g33_h138_t62 - x_r3_g138 <= 0
 lin3_62_3_33: p_r3_g33_h138_t62 - x_r3_g33 - x_r3_g138 >= -1
 lin1_62_3_57: p_r3_g57_h162_t62 - x_r3_g57 <= 0
 lin2_62_3_57: p_r3_g57_h162_t62 - x_r3_g162 <= 0
 lin3_62_3_57: p_r3_g57_h162_t62 - x_r3_g57 - x_r3_g162 >= -1
 lin1_62_3_65: p_r3_g65_h3_t62 - x_r3_g65 <= 0
 lin2_62_3_65: p_r3_g65_h3_t62 - x_r3_g3 <= 0
 lin3_62_3_65: p_r3_g65_h3_t62 - x_r3_g65 - x_r3_g3 >= -1
 lin1_62_3_77: p_r3_g77_h15_t62 - x_r3_g77 <= 0
 lin2_62_3_77: p_r3_g77_h15_t62 - x_r3_g15 <= 0
 lin3_62_3_77: p_r3_g77_h15_t62 - x_r3_g77 - x_r3_g15 >= -1
 lin1_62_3_113: p_r3_g113_h51_t62 - x_r3_g113 <= 0
 lin2_62_3_113: p_r3_g113_h51_t62 - x_r3_g51 <= 0
 lin3_62_3_113: p_r3_g113_h51_t62 - x_r3_g113 - x_r3_g51 >= -1
 lin1_62_3_165: p_r3_g165_h103_t62 - x_r3_g165 <= 0
 lin2_62_3_165: p_r3_g165_h103_t62 - x_r3_g103 <= 0
 lin3_62_3_165: p_r3_g165_h103_t62 - x_r3_g165 - x_r3_g103 >= -1
 defect_62: 1 d_62 - 2 x_r0_g1 - 1 x_r0_g14 - 1 x_r0_g17 - 1 x_r0_g20 - 1 x_r0_g22 - 1 x_r0_g26 - 1 x_r0_g28 - 1 x_r0_g32 - 1 x_r0_g34 - 1 x_r0_g36 - 1 x_r0_g37 - 1 x_r0_g47 - 2 x_r0_g54 - 2 x_r0_g60 - 1 x_r0_g67 - 1 x_r0_g68 - 1 x_r0_g70 - 1 x_r0_g84 - 1 x_r0_g87 - 1 x_r0_g97 - 1 x_r0_g101 - 1 x_r0_g102 - 1 x_r0_g118 - 1 x_r0_g121 - 1 x_r0_g143 - 1 x_r0_g162 - 1 x_r1_g8 - 1 x_r1_g11 - 1 x_r1_g17 - 2 x_r1_g25 - 1 x_r1_g35 - 1 x_r1_g38 - 1 x_r1_g53 - 1 x_r1_g59 - 1 x_r1_g62 - 1 x_r1_g76 - 1 x_r1_g80 - 1 x_r1_g91 - 2 x_r1_g108 - 1 x_r1_g111 - 1 x_r1_g121 - 1 x_r1_g128 - 2 x_r1_g132 - 1 x_r1_g143 - 1 x_r1_g146 - 1 x_r1_g154 - 1 x_r1_g157 - 1 x_r1_g161 - 1 x_r2_g29 - 1 x_r2_g48 - 1 x_r2_g60 - 1 x_r2_g62 - 1 x_r2_g64 - 1 x_r2_g66 - 1 x_r2_g67 - 1 x_r2_g70 - 1 x_r2_g82 - 1 x_r2_g86 - 1 x_r2_g91 - 2 x_r2_g95 - 1 x_r2_g98 - 1 x_r2_g111 - 1 x_r2_g120 - 1 x_r2_g136 - 1 x_r2_g149 - 1 x_r2_g152 - 1 x_r2_g155 - 2 x_r2_g163 - 1 x_r2_g164 - 1 x_r3_g3 - 1 x_r3_g7 - 2 x_r3_g13 - 1 x_r3_g16 - 1 x_r3_g18 - 1 x_r3_g19 - 2 x_r3_g27 - 1 x_r3_g34 - 1 x_r3_g36 - 1 x_r3_g56 - 1 x_r3_g57 - 1 x_r3_g65 - 1 x_r3_g72 - 1 x_r3_g77 - 1 x_r3_g79 - 1 x_r3_g94 - 1 x_r3_g103 - 1 x_r3_g106 - 2 x_r3_g111 - 1 x_r3_g121 - 1 x_r3_g123 - 1 x_r3_g124 - 1 x_r3_g125 - 1 x_r3_g128 - 1 x_r3_g138 - 1 x_r3_g144 - 2 x_r3_g145 - 1 x_r3_g154 - 1 p_r0_g25_h130_t62 - 1 p_r0_g26_h131_t62 - 1 p_r0_g48_h153_t62 - 1 p_r0_g69_h7_t62 - 1 p_r0_g79_h17_t62 - 1 p_r0_g84_h22_t62 - 1 p_r0_g87_h25_t62 - 1 p_r0_g97_h35_t62 - 1 p_r0_g130_h68_t62 - 1 p_r0_g131_h69_t62 - 1 p_r1_g8_h113_t62 - 1 p_r1_g38_h143_t62 - 1 p_r1_g75_h13_t62 - 1 p_r1_g93_h31_t62 - 1 p_r1_g121_h59_t62 - 1 p_r1_g126_h64_t62 - 1 p_r1_g155_h93_t62 - 1 p_r2_g2_h107_t62 - 1 p_r2_g30_h135_t62 - 1 p_r2_g34_h139_t62 - 1 p_r2_g60_h165_t62 - 1 p_r2_g64_h2_t62 - 1 p_r2_g80_h18_t62 - 1 p_r2_g91_h29_t62 - 1 p_r2_g110_h48_t62 - 1 p_r2_g128_h66_t62 - 1 p_r2_g135_h73_t62 - 1 p_r2_g136_h74_t62 - 1 p_r2_g139_h77_t62 - 1 p_r2_g142_h80_t62 - 1 p_r2_g162_h100_t62 - 1 p_r3_g8_h113_t62 - 1 p_r3_g16_h121_t62 - 1 p_r3_g18_h123_t62 - 1 p_r3_g19_h124_t62 - 1 p_r3_g33_h138_t62 - 1 p_r3_g57_h162_t62 - 1 p_r3_g65_h3_t62 - 1 p_r3_g77_h15_t62 - 1 p_r3_g113_h51_t62 - 1 p_r3_g165_h103_t62 = -69
 abs_pos_62: d_62 - u_62 <= 0
 abs_neg_62: - d_62 - u_62 <= 0
 max_def_62: u_62 - M <= 0
 cap_62: u_62 <= 0
 lin1_64_0_20: p_r0_g20_h123_t64 - x_r0_g20 <= 0
 lin2_64_0_20: p_r0_g20_h123_t64 - x_r0_g123 <= 0
 lin3_64_0_20: p_r0_g20_h123_t64 - x_r0_g20 - x_r0_g123 >= -1
 lin1_64_0_28: p_r0_g28_h131_t64 - x_r0_g28 <= 0
 lin2_64_0_28: p_r0_g28_h131_t64 - x_r0_g131 <= 0
 lin3_64_0_28: p_r0_g28_h131_t64 - x_r0_g28 - x_r0_g131 >= -1
 lin1_64_0_68: p_r0_g68_h4_t64 - x_r0_g68 <= 0
 lin2_64_0_68: p_r0_g68_h4_t64 - x_r0_g4 <= 0
 lin3_64_0_68: p_r0_g68_h4_t64 - x_r0_g68 - x_r0_g4 >= -1
 lin1_64_0_84: p_r0_g84_h20_t64 - x_r0_g84 <= 0
 lin2_64_0_84: p_r0_g84_h20_t64 - x_r0_g20 <= 0
 lin3_64_0_84: p_r0_g84_h20_t64 - x_r0_g84 - x_r0_g20 >= -1
 lin1_64_0_87: p_r0_g87_h23_t64 - x_r0_g87 <= 0
 lin2_64_0_87: p_r0_g87_h23_t64 - x_r0_g23 <= 0
 lin3_64_0_87: p_r0_g87_h23_t64 - x_r0_g87 - x_r0_g23 >= -1
 lin1_64_0_101: p_r0_g101_h37_t64 - x_r0_g101 <= 0
 lin2_64_0_101: p_r0_g101_h37_t64 - x_r0_g37 <= 0
 lin3_64_0_101: p_r0_g101_h37_t64 - x_r0_g101 - x_r0_g37 >= -1
 lin1_64_0_118: p_r0_g118_h54_t64 - x_r0_g118 <= 0
 lin2_64_0_118: p_r0_g118_h54_t64 - x_r0_g54 <= 0
 lin3_64_0_118: p_r0_g118_h54_t64 - x_r0_g118 - x_r0_g54 >= -1
 lin1_64_0_131: p_r0_g131_h67_t64 - x_r0_g131 <= 0
 lin2_64_0_131: p_r0_g131_h67_t64 - x_r0_g67 <= 0
 lin3_64_0_131: p_r0_g131_h67_t64 - x_r0_g131 - x_r0_g67 >= -1
 lin1_64_0_143: p_r0_g143_h79_t64 - x_r0_g143 <= 0
 lin2_64_0_143: p_r0_g143_h79_t64 - x_r0_g79 <= 0
 lin3_64_0_143: p_r0_g143_h79_t64 - x_r0_g143 - x_r0_g79 >= -1
 lin1_64_1_8: p_r1_g8_h111_t64 - x_r1_g8 <= 0
 lin2_64_1_8: p_r1_g8_h111_t64 - x_r1_g111 <= 0
 lin3_64_1_8: p_r1_g8_h111_t64 - x_r1_g8 - x_r1_g111 >= -1
 lin1_64_1_11: p_r1_g11_h114_t64 - x_r1_g11 <= 0
 lin2_64_1_11: p_r1_g11_h114_t64 - x_r1_g114 <= 0
 lin3_64_1_11: p_r1_g11_h114_t64 - x_r1_g11 - x_r1_g114 >= -1
 lin1_64_1_25: p_r1_g25_h128_t64 - x_r1_g25 <= 0
 lin2_64_1_25: p_r1_g25_h128_t64 - x_r1_g128 <= 0
 lin3_64_1_25: p_r1_g25_h128_t64 - x_r1_g25 - x_r1_g128 >= -1
 lin1_64_1_75: p_r1_g75_h11_t64 - x_r1_g75 <= 0
 lin2_64_1_75: p_r1_g75_h11_t64 - x_r1_g11 <= 0
 lin3_64_1_75: p_r1_g75_h11_t64 - x_r1_g75 - x_r1_g11 >= -1
 lin1_64_1_117: p_r1_g117_h53_t64 - x_r1_g117 <= 0
 lin2_64_1_117: p_r1_g117_h53_t64 - x_r1_g53 <= 0
 lin3_64_1_117: p_r1_g117_h53_t64 - x_r1_g117 - x_r1_g53 >= -1
 lin1_64_1_126: p_r1_g126_h62_t64 - x_r1_g126 <= 0
 lin2_64_1_126: p_r1_g126_h62_t64 - x_r1_g62 <= 0
 lin3_64_1_126: p_r1_g126_h62_t64 - x_r1_g126 - x_r1_g62 >= -1
 lin1_64_1_128: p_r1_g128_h64_t64 - x_r1_g128 <= 0
 lin2_64_1_128: p_r1_g128_h64_t64 - x_r1_g64 <= 0
 lin3_64_1_128: p_r1_g128_h64_t64 - x_r1_g128 - x_r1_g64 >= -1
 lin1_64_1_154: p_r1_g154_h90_t64 - x_r1_g154 <= 0
 lin2_64_1_154: p_r1_g154_h90_t64 - x_r1_g90 <= 0
 lin3_64_1_154: p_r1_g154_h90_t64 - x_r1_g154 - x_r1_g90 >= -1
 lin1_64_1_155: p_r1_g155_h91_t64 - x_r1_g155 <= 0
 lin2_64_1_155: p_r1_g155_h91_t64 - x_r1_g91 <= 0
 lin3_64_1_155: p_r1_g155_h91_t64 - x_r1_g155 - x_r1_g91 >= -1
 lin1_64_1_157: p_r1_g157_h93_t64 - x_r1_g157 <= 0
 lin2_64_1_157: p_r1_g157_h93_t64 - x_r1_g93 <= 0
 lin3_64_1_157: p_r1_g157_h93_t64 - x_r1_g157 - x_r1_g93 >= -1
 lin1_64_2_60: p_r2_g60_h163_t64 - x_r2_g60 <= 0
 lin2_64_2_60: p_r2_g60_h163_t64 - x_r2_g163 <= 0
 lin3_64_2_60: p_r2_g60_h163_t64 - x_r2_g60 - x_r2_g163 >= -1
 lin1_64_2_62: p_r2_g62_h165_t64 - x_r2_g62 <= 0
 lin2_64_2_62: p_r2_g62_h165_t64 - x_r2_g165 <= 0
 lin3_64_2_62: p_r2_g62_h165_t64 - x_r2_g62 - x_r2_g165 >= -1
 lin1_64_2_66: p_r2_g66_h2_t64 - x_r2_g66 <= 0
 lin2_64_2_66: p_r2_g66_h2_t64 - x_r2_g2 <= 0
 lin3_64_2_66: p_r2_g66_h2_t64 - x_r2_g66 - x_r2_g2 >= -1
 lin1_64_2_82: p_r2_g82_h18_t64 - x_r2_g82 <= 0
 lin2_64_2_82: p_r2_g82_h18_t64 - x_r2_g18 <= 0
 lin3_64_2_82: p_r2_g82_h18_t64 - x_r2_g82 - x_r2_g18 >= -1
 lin1_64_2_98: p_r2_g98_h34_t64 - x_r2_g98 <= 0
 lin2_64_2_98: p_r2_g98_h34_t64 - x_r2_g34 <= 0
 lin3_64_2_98: p_r2_g98_h34_t64 - x_r2_g98 - x_r2_g34 >= -1
 lin1_64_2_128: p_r2_g128_h64_t64 - x_r2_g128 <= 0
 lin2_64_2_128: p_r2_g128_h64_t64 - x_r2_g64 <= 0
 lin3_64_2_128: p_r2_g128_h64_t64 - x_r2_g128 - x_r2_g64 >= -1
 lin1_64_2_155: p_r2_g155_h91_t64 - x_r2_g155 <= 0
 lin2_64_2_155: p_r2_g155_h91_t64 - x_r2_g91 <= 0
 lin3_64_2_155: p_r2_g155_h91_t64 - x_r2_g155 - x_r2_g91 >= -1
 lin1_64_2_159: p_r2_g159_h95_t64 - x_r2_g159 <= 0
 lin2_64_2_159: p_r2_g159_h95_t64 - x_r2_g95 <= 0
 lin3_64_2_159: p_r2_g159_h95_t64 - x_r2_g159 - x_r2_g95 >= -1
 lin1_64_2_162: p_r2_g162_h98_t64 - x_r2_g162 <= 0
 lin2_64_2_162: p_r2_g162_h98_t64 - x_r2_g98 <= 0
 lin3_64_2_162: p_r2_g162_h98_t64 - x_r2_g162 - x_r2_g98 >= -1
 lin1_64_2_164: p_r2_g164_h100_t64 - x_r2_g164 <= 0
 lin2_64_2_164: p_r2_g164_h100_t64 - x_r2_g100 <= 0
 lin3_64_2_164: p_r2_g164_h100_t64 - x_r2_g164 - x_r2_g100 >= -1
 lin1_64_3_3: p_r3_g3_h106_t64 - x_r3_g3 <= 0
 lin2_64_3_3: p_r3_g3_h106_t64 - x_r3_g106 <= 0
 lin3_64_3_3: p_r3_g3_h106_t64 - x_r3_g3 - x_r3_g106 >= -1
 lin1_64_3_8: p_r3_g8_h111_t64 - x_r3_g8 <= 0
 lin2_64_3_8: p_r3_g8_h111_t64 - x_r3_g111 <= 0
 lin3_64_3_8: p_r3_g8_h111_t64 - x_r3_g8 - x_r3_g111 >= -1
 lin1_64_3_18: p_r3_g18_h121_t64 - x_r3_g18 <= 0
 lin2_64_3_18: p_r3_g18_h121_t64 - x_r3_g121 <= 0
 lin3_64_3_18: p_r3_g18_h121_t64 - x_r3_g18 - x_r3_g121 >= -1
 lin1_64_3_51: p_r3_g51_h154_t64 - x_r3_g51 <= 0
 lin2_64_3_51: p_r3_g51_h154_t64 - x_r3_g154 <= 0
 lin3_64_3_51: p_r3_g51_h154_t64 - x_r3_g51 - x_r3_g154 >= -1
 lin1_64_3_56: p_r3_g56_h159_t64 - x_r3_g56 <= 0
 lin2_64_3_56: p_r3_g56_h159_t64 - x_r3_g159 <= 0
 lin3_64_3_56: p_r3_g56_h159_t64 - x_r3_g56 - x_r3_g159 >= -1
 lin1_64_3_72: p_r3_g72_h8_t64 - x_r3_g72 <= 0
 lin2_64_3_72: p_r3_g72_h8_t64 - x_r3_g8 <= 0
 lin3_64_3_72: p_r3_g72_h8_t64 - x_r3_g72 - x_r3_g8 >= -1
 lin1_64_3_77: p_r3_g77_h13_t64 - x_r3_g77 <= 0
 lin2_64_3_77: p_r3_g77_h13_t64 - x_r3_g13 <= 0
 lin3_64_3_77: p_r3_g77_h13_t64 - x_r3_g77 - x_r3_g13 >= -1
 lin1_64_3_79: p_r3_g79_h15_t64 - x_r3_g79 <= 0
 lin2_64_3_79: p_r3_g79_h15_t64 - x_r3_g15 <= 0
 lin3_64_3_79: p_r3_g79_h15_t64 - x_r3_g79 - x_r3_g15 >= -1
 lin1_64_3_91: p_r3_g91_h27_t64 - x_r3_g91 <= 0
 lin2_64_3_91: p_r3_g91_h27_t64 - x_r3_g27 <= 0
 lin3_64_3_91: p_r3_g91_h27_t64 - x_r3_g91 - x_r3_g27 >= -1
 lin1_64_3_121: p_r3_g121_h57_t64 - x_r3_g121 <= 0
 lin2_64_3_121: p_r3_g121_h57_t64 - x_r3_g57 <= 0
 lin3_64_3_121: p_r3_g121_h57_t64 - x_r3_g121 - x_r3_g57 >= -1
 defect_64: 1 d_64 - 1 x_r0_g1 - 1 x_r0_g17 - 1 x_r0_g22 - 1 x_r0_g23 - 1 x_r0_g26 - 2 x_r0_g34 - 2 x_r0_g36 - 1 x_r0_g48 - 1 x_r0_g54 - 1 x_r0_g60 - 1 x_r0_g67 - 1 x_r0_g68 - 1 x_r0_g69 - 1 x_r0_g70 - 1 x_r0_g79 - 1 x_r0_g87 - 1 x_r0_g101 - 1 x_r0_g102 - 1 x_r0_g118 - 1 x_r0_g123 - 1 x_r0_g143 - 2 x_r0_g162 - 1 x_r1_g13 - 1 x_r1_g15 - 1 x_r1_g17 - 1 x_r1_g25 - 1 x_r1_g31 - 1 x_r1_g35 - 1 x_r1_g38 - 1 x_r1_g53 - 1 x_r1_g59 - 1 x_r1_g67 - 1 x_r1_g76 - 1 x_r1_g80 - 1 x_r1_g90 - 1 x_r1_g91 - 1 x_r1_g93 - 2 x_r1_g96 - 1 x_r1_g108 - 1 x_r1_g110 - 2 x_r1_g113 - 2 x_r1_g121 - 2 x_r1_g132 - 2 x_r1_g143 - 1 x_r1_g146 - 1 x_r2_g2 - 1 x_r2_g18 - 2 x_r2_g29 - 1 x_r2_g30 - 1 x_r2_g34 - 2 x_r2_g48 - 1 x_r2_g62 - 1 x_r2_g64 - 1 x_r2_g66 - 1 x_r2_g70 - 1 x_r2_g73 - 1 x_r2_g82 - 1 x_r2_g86 - 1 x_r2_g91 - 1 x_r2_g95 - 2 x_r2_g107 - 2 x_r2_g110 - 1 x_r2_g120 - 1 x_r2_g128 - 1 x_r2_g136 - 1 x_r2_g139 - 2 x_r2_g142 - 2 x_r2_g149 - 1 x_r2_g152 - 1 x_r2_g158 - 1 x_r2_g159 - 1 x_r2_g164 - 1 x_r2_g165 - 1 x_r3_g7 - 1 x_r3_g11 - 1 x_r3_g15 - 2 x_r3_g16 - 2 x_r3_g19 - 2 x_r3_g34 - 1 x_r3_g36 - 1 x_r3_g57 - 2 x_r3_g65 - 1 x_r3_g79 - 1 x_r3_g94 - 1 x_r3_g103 - 1 x_r3_g111 - 1 x_r3_g113 - 2 x_r3_g123 - 2 x_r3_g125 - 1 x_r3_g138 - 2 x_r3_g144 - 1 x_r3_g145 - 1 x_r3_g147 - 2 x_r3_g162 - 1 x_r3_g165 - 1 p_r0_g20_h123_t64 - 1 p_r0_g28_h131_t64 - 1 p_r0_g68_h4_t64 - 1 p_r0_g84_h20_t64 - 1 p_r0_g87_h23_t64 - 1 p_r0_g101_h37_t64 - 1 p_r0_g118_h54_t64 - 1 p_r0_g131_h67_t64 - 1 p_r0_g143_h79_t64 - 1 p_r1_g8_h111_t64 - 1 p_r1_g11_h114_t64 - 1 p_r1_g25_h128_t64 - 1 p_r1_g75_h11_t64 - 1 p_r1_g117_h53_t64 - 1 p_r1_g126_h62_t64 - 1 p_r1_g128_h64_t64 - 1 p_r1_g154_h90_t64 - 1 p_r1_g155_h91_t64 - 1 p_r1_g157_h93_t64 - 1 p_r2_g60_h163_t64 - 1 p_r2_g62_h165_t64 - 1 p_r2_g66_h2_t64 - 1 p_r2_g82_h18_t64 - 1 p_r2_g98_h34_t64 - 1 p_r2_g128_h64_t64 - 1 p_r2_g155_h91_t64 - 1 p_r2_g159_h95_t64 - 1 p_r2_g162_h98_t64 - 1 p_r2_g164_h100_t64 - 1 p_r3_g3_h106_t64 - 1 p_r3_g8_h111_t64 - 1 p_r3_g18_h121_t64 - 1 p_r3_g51_h154_t64 - 1 p_r3_g56_h159_t64 - 1 p_r3_g72_h8_t64 - 1 p_r3_g77_h13_t64 - 1 p_r3_g79_h15_t64 - 1 p_r3_g91_h27_t64 - 1 p_r3_g121_h57_t64 = -75
 abs_pos_64: d_64 - u_64 <= 0
 abs_neg_64: - d_64 - u_64 <= 0
 max_def_64: u_64 - M <= 0
 cap_64: u_64 <= 1
 lin1_69_0_4: p_r0_g4_h102_t69 - x_r0_g4 <= 0
 lin2_69_0_4: p_r0_g4_h102_t69 - x_r0_g102 <= 0
 lin3_69_0_4: p_r0_g4_h102_t69 - x_r0_g4 - x_r0_g102 >= -1
 lin1_69_0_20: p_r0_g20_h118_t69 - x_r0_g20 <= 0
 lin2_69_0_20: p_r0_g20_h118_t69 - x_r0_g118 <= 0
 lin3_69_0_20: p_r0_g20_h118_t69 - x_r0_g20 - x_r0_g118 >= -1
 lin1_69_0_23: p_r0_g23_h121_t69 - x_r0_g23 <= 0
 lin2_69_0_23: p_r0_g23_h121_t69 - x_r0_g121 <= 0
 lin3_69_0_23: p_r0_g23_h121_t69 - x_r0_g23 - x_r0_g121 >= -1
 lin1_69_0_25: p_r0_g25_h123_t69 - x_r0_g25 <= 0
 lin2_69_0_25: p_r0_g25_h123_t69 - x_r0_g123 <= 0
 lin3_69_0_25: p_r0_g25_h123_t69 - x_r0_g25 - x_r0_g123 >= -1
 lin1_69_0_32: p_r0_g32_h130_t69 - x_r0_g32 <= 0
 lin2_69_0_32: p_r0_g32_h130_t69 - x_r0_g130 <= 0
 lin3_69_0_32: p_r0_g32_h130_t69 - x_r0_g32 - x_r0_g130 >= -1
 lin1_69_0_70: p_r0_g70_h1_t69 - x_r0_g70 <= 0
 lin2_69_0_70: p_r0_g70_h1_t69 - x_r0_g1 <= 0
 lin3_69_0_70: p_r0_g70_h1_t69 - x_r0_g70 - x_r0_g1 >= -1
 lin1_69_0_97: p_r0_g97_h28_t69 - x_r0_g97 <= 0
 lin2_69_0_97: p_r0_g97_h28_t69 - x_r0_g28 <= 0
 lin3_69_0_97: p_r0_g97_h28_t69 - x_r0_g97 - x_r0_g28 >= -1
 lin1_69_0_101: p_r0_g101_h32_t69 - x_r0_g101 <= 0
 lin2_69_0_101: p_r0_g101_h32_t69 - x_r0_g32 <= 0
 lin3_69_0_101: p_r0_g101_h32_t69 - x_r0_g101 - x_r0_g32 >= -1
 lin1_69_0_123: p_r0_g123_h54_t69 - x_r0_g123 <= 0
 lin2_69_0_123: p_r0_g123_h54_t69 - x_r0_g54 <= 0
 lin3_69_0_123: p_r0_g123_h54_t69 - x_r0_g123 - x_r0_g54 >= -1
 lin1_69_0_153: p_r0_g153_h84_t69 - x_r0_g153 <= 0
 lin2_69_0_153: p_r0_g153_h84_t69 - x_r0_g84 <= 0
 lin3_69_0_153: p_r0_g153_h84_t69 - x_r0_g153 - x_r0_g84 >= -1
 lin1_69_1_13: p_r1_g13_h111_t69 - x_r1_g13 <= 0
 lin2_69_1_13: p_r1_g13_h111_t69 - x_r1_g111 <= 0
 lin3_69_1_13: p_r1_g13_h111_t69 - x_r1_g13 - x_r1_g111 >= -1
 lin1_69_1_15: p_r1_g15_h113_t69 - x_r1_g15 <= 0
 lin2_69_1_15: p_r1_g15_h113_t69 - x_r1_g113 <= 0
 lin3_69_1_15: p_r1_g15_h113_t69 - x_r1_g15 - x_r1_g113 >= -1
 lin1_69_1_30: p_r1_g30_h128_t69 - x_r1_g30 <= 0
 lin2_69_1_30: p_r1_g30_h128_t69 - x_r1_g128 <= 0
 lin3_69_1_30: p_r1_g30_h128_t69 - x_r1_g30 - x_r1_g128 >= -1
 lin1_69_1_59: p_r1_g59_h157_t69 - x_r1_g59 <= 0
 lin2_69_1_59: p_r1_g59_h157_t69 - x_r1_g157 <= 0
 lin3_69_1_59: p_r1_g59_h157_t69 - x_r1_g59 - x_r1_g157 >= -1
 lin1_69_1_80: p_r1_g80_h11_t69 - x_r1_g80 <= 0
 lin2_69_1_80: p_r1_g80_h11_t69 - x_r1_g11 <= 0
 lin3_69_1_80: p_r1_g80_h11_t69 - x_r1_g80 - x_r1_g11 >= -1
 lin1_69_1_107: p_r1_g107_h38_t69 - x_r1_g107 <= 0
 lin2_69_1_107: p_r1_g107_h38_t69 - x_r1_g38 <= 0
 lin3_69_1_107: p_r1_g107_h38_t69 - x_r1_g107 - x_r1_g38 >= -1
 lin1_69_1_128: p_r1_g128_h59_t69 - x_r1_g128 <= 0
 lin2_69_1_128: p_r1_g128_h59_t69 - x_r1_g59 <= 0
 lin3_69_1_128: p_r1_g128_h59_t69 - x_r1_g128 - x_r1_g59 >= -1
 lin1_69_2_2: p_r2_g2_h100_t69 - x_r2_g2 <= 0
 lin2_69_2_2: p_r2_g2_h100_t69 - x_r2_g100 <= 0
 lin3_69_2_2: p_r2_g2_h100_t69 - x_r2_g2 - x_r2_g100 >= -1
 lin1_69_2_30: p_r2_g30_h128_t69 - x_r2_g30 <= 0
 lin2_69_2_30: p_r2_g30_h128_t69 - x_r2_g128 <= 0
 lin3_69_2_30: p_r2_g30_h128_t69 - x_r2_g30 - x_r2_g128 >= -1
 lin1_69_2_60: p_r2_g60_h158_t69 - x_r2_g60 <= 0
 lin2_69_2_60: p_r2_g60_h158_t69 - x_r2_g158 <= 0
 lin3_69_2_60: p_r2_g60_h158_t69 - x_r2_g60 - x_r2_g158 >= -1
 lin1_69_2_64: p_r2_g64_h162_t69 - x_r2_g64 <= 0
 lin2_69_2_64: p_r2_g64_h162_t69 - x_r2_g162 <= 0
 lin3_69_2_64: p_r2_g64_h162_t69 - x_r2_g64 - x_r2_g162 >= -1
 lin1_69_2_66: p_r2_g66_h164_t69 - x_r2_g66 <= 0
 lin2_69_2_66: p_r2_g66_h164_t69 - x_r2_g164 <= 0
 lin3_69_2_66: p_r2_g66_h164_t69 - x_r2_g66 - x_r2_g164 >= -1
 lin1_69_2_67: p_r2_g67_h165_t69 - x_r2_g67 <= 0
 lin2_69_2_67: p_r2_g67_h165_t69 - x_r2_g165 <= 0
 lin3_69_2_67: p_r2_g67_h165_t69 - x_r2_g67 - x_r2_g165 >= -1
 lin1_69_2_98: p_r2_g98_h29_t69 - x_r2_g98 <= 0
 lin2_69_2_98: p_r2_g98_h29_t69 - x_r2_g29 <= 0
 lin3_69_2_98: p_r2_g98_h29_t69 - x_r2_g98 - x_r2_g29 >= -1
 lin1_69_2_135: p_r2_g135_h66_t69 - x_r2_g135 <= 0
 lin2_69_2_135: p_r2_g135_h66_t69 - x_r2_g66 <= 0
 lin3_69_2_135: p_r2_g135_h66_t69 - x_r2_g135 - x_r2_g66 >= -1
 lin1_69_2_136: p_r2_g136_h67_t69 - x_r2_g136 <= 0
 lin2_69_2_136: p_r2_g136_h67_t69 - x_r2_g67 <= 0
 lin3_69_2_136: p_r2_g136_h67_t69 - x_r2_g136 - x_r2_g67 >= -1
 lin1_69_2_139: p_r2_g139_h70_t69 - x_r2_g139 <= 0
 lin2_69_2_139: p_r2_g139_h70_t69 - x_r2_g70 <= 0
 lin3_69_2_139: p_r2_g139_h70_t69 - x_r2_g139 - x_r2_g70 >= -1
 lin1_69_2_142: p_r2_g142_h73_t69 - x_r2_g142 <= 0
 lin2_69_2_142: p_r2_g142_h73_t69 - x_r2_g73 <= 0
 lin3_69_2_142: p_r2_g142_h73_t69 - x_r2_g142 - x_r2_g73 >= -1
 lin1_69_2_149: p_r2_g149_h80_t69 - x_r2_g149 <= 0
 lin2_69_2_149: p_r2_g149_h80_t69 - x_r2_g80 <= 0
 lin3_69_2_149: p_r2_g149_h80_t69 - x_r2_g149 - x_r2_g80 >= -1
 lin1_69_2_155: p_r2_g155_h86_t69 - x_r2_g155 <= 0
 lin2_69_2_155: p_r2_g155_h86_t69 - x_r2_g86 <= 0
 lin3_69_2_155: p_r2_g155_h86_t69 - x_r2_g155 - x_r2_g86 >= -1
 lin1_69_2_164: p_r2_g164_h95_t69 - x_r2_g164 <= 0
 lin2_69_2_164: p_r2_g164_h95_t69 - x_r2_g95 <= 0
 lin3_69_2_164: p_r2_g164_h95_t69 - x_r2_g164 - x_r2_g95 >= -1
 lin1_69_3_8: p_r3_g8_h106_t69 - x_r3_g8 <= 0
 lin2_69_3_8: p_r3_g8_h106_t69 - x_r3_g106 <= 0
 lin3_69_3_8: p_r3_g8_h106_t69 - x_r3_g8 - x_r3_g106 >= -1
 lin1_69_3_13: p_r3_g13_h111_t69 - x_r3_g13 <= 0
 lin2_69_3_13: p_r3_g13_h111_t69 - x_r3_g111 <= 0
 lin3_69_3_13: p_r3_g13_h111_t69 - x_r3_g13 - x_r3_g111 >= -1
 lin1_69_3_15: p_r3_g15_h113_t69 - x_r3_g15 <= 0
 lin2_69_3_15: p_r3_g15_h113_t69 - x_r3_g113 <= 0
 lin3_69_3_15: p_r3_g15_h113_t69 - x_r3_g15 - x_r3_g113 >= -1
 lin1_69_3_27: p_r3_g27_h125_t69 - x_r3_g27 <= 0
 lin2_69_3_27: p_r3_g27_h125_t69 - x_r3_g125 <= 0
 lin3_69_3_27: p_r3_g27_h125_t69 - x_r3_g27 - x_r3_g125 >= -1
 lin1_69_3_56: p_r3_g56_h154_t69 - x_r3_g56 <= 0
 lin2_69_3_56: p_r3_g56_h154_t69 - x_r3_g154 <= 0
 lin3_69_3_56: p_r3_g56_h154_t69 - x_r3_g56 - x_r3_g154 >= -1
 lin1_69_3_72: p_r3_g72_h3_t69 - x_r3_g72 <= 0
 lin2_69_3_72: p_r3_g72_h3_t69 - x_r3_g3 <= 0
 lin3_69_3_72: p_r3_g72_h3_t69 - x_r3_g72 - x_r3_g3 >= -1
 lin1_69_3_77: p_r3_g77_h8_t69 - x_r3_g77 <= 0
 lin2_69_3_77: p_r3_g77_h8_t69 - x_r3_g8 <= 0
 lin3_69_3_77: p_r3_g77_h8_t69 - x_r3_g77 - x_r3_g8 >= -1
 lin1_69_3_103: p_r3_g103_h34_t69 - x_r3_g103 <= 0
 lin2_69_3_103: p_r3_g103_h34_t69 - x_r3_g34 <= 0
 lin3_69_3_103: p_r3_g103_h34_t69 - x_r3_g103 - x_r3_g34 >= -1
 lin1_69_3_125: p_r3_g125_h56_t69 - x_r3_g125 <= 0
 lin2_69_3_125: p_r3_g125_h56_t69 - x_r3_g56 <= 0
 lin3_69_3_125: p_r3_g125_h56_t69 - x_r3_g125 - x_r3_g56 >= -1
 defect_69: 1 d_69 - 1 x_r0_g22 - 1 x_r0_g28 - 2 x_r0_g34 - 1 x_r0_g37 - 1 x_r0_g47 - 1 x_r0_g48 - 1 x_r0_g54 - 1 x_r0_g60 - 2 x_r0_g67 - 1 x_r0_g68 - 1 x_r0_g70 - 1 x_r0_g84 - 1 x_r0_g101 - 1 x_r0_g118 - 1 x_r0_g121 - 1 x_r0_g131 - 2 x_r0_g143 - 1 x_r0_g153 - 1 x_r1_g11 - 1 x_r1_g13 - 1 x_r1_g15 - 1 x_r1_g17 - 1 x_r1_g25 - 1 x_r1_g31 - 1 x_r1_g62 - 1 x_r1_g90 - 1 x_r1_g91 - 1 x_r1_g96 - 2 x_r1_g108 - 1 x_r1_g111 - 1 x_r1_g113 - 1 x_r1_g114 - 1 x_r1_g126 - 1 x_r1_g154 - 1 x_r1_g155 - 1 x_r1_g157 - 2 x_r2_g18 - 1 x_r2_g34 - 1 x_r2_g48 - 1 x_r2_g60 - 1 x_r2_g62 - 1 x_r2_g70 - 1 x_r2_g73 - 1 x_r2_g77 - 1 x_r2_g82 - 1 x_r2_g91 - 1 x_r2_g95 - 1 x_r2_g98 - 1 x_r2_g100 - 1 x_r2_g110 - 1 x_r2_g139 - 1 x_r2_g152 - 2 x_r2_g159 - 1 x_r2_g162 - 2 x_r2_g163 - 1 x_r3_g7 - 1 x_r3_g11 - 1 x_r3_g34 - 1 x_r3_g36 - 1 x_r3_g51 - 2 x_r3_g53 - 2 x_r3_g65 - 1 x_r3_g79 - 2 x_r3_g91 - 1 x_r3_g94 - 1 x_r3_g103 - 1 x_r3_g106 - 2 x_r3_g124 - 2 x_r3_g128 - 1 x_r3_g138 - 2 x_r3_g144 - 2 x_r3_g145 - 2 x_r3_g147 - 1 x_r3_g159 - 1 p_r0_g4_h102_t69 - 1 p_r0_g20_h118_t69 - 1 p_r0_g23_h121_t69 - 1 p_r0_g25_h123_t69 - 1 p_r0_g32_h130_t69 - 1 p_r0_g70_h1_t69 - 1 p_r0_g97_h28_t69 - 1 p_r0_g101_h32_t69 - 1 p_r0_g123_h54_t69 - 1 p_r0_g153_h84_t69 - 1 p_r1_g13_h111_t69 - 1 p_r1_g15_h113_t69 - 1 p_r1_g30_h128_t69 - 1 p_r1_g59_h157_t69 - 1 p_r1_g80_h11_t69 - 1 p_r1_g107_h38_t69 - 1 p_r1_g128_h59_t69 - 1 p_r2_g2_h100_t69 - 1 p_r2_g30_h128_t69 - 1 p_r2_g60_h158_t69 - 1 p_r2_g64_h162_t69 - 1 p_r2_g66_h164_t69 - 1 p_r2_g67_h165_t69 - 1 p_r2_g98_h29_t69 - 1 p_r2_g135_h66_t69 - 1 p_r2_g136_h67_t69 - 1 p_r2_g139_h70_t69 - 1 p_r2_g142_h73_t69 - 1 p_r2_g149_h80_t69 - 1 p_r2_g155_h86_t69 - 1 p_r2_g164_h95_t69 - 1 p_r3_g8_h106_t69 - 1 p_r3_g13_h111_t69 - 1 p_r3_g15_h113_t69 - 1 p_r3_g27_h125_t69 - 1 p_r3_g56_h154_t69 - 1 p_r3_g72_h3_t69 - 1 p_r3_g77_h8_t69 - 1 p_r3_g103_h34_t69 - 1 p_r3_g125_h56_t69 = -69
 abs_pos_69: d_69 - u_69 <= 0
 abs_neg_69: - d_69 - u_69 <= 0
 max_def_69: u_69 - M <= 0
 cap_69: u_69 <= 2
 lin1_73_0_7: p_r0_g7_h101_t73 - x_r0_g7 <= 0
 lin2_73_0_7: p_r0_g7_h101_t73 - x_r0_g101 <= 0
 lin3_73_0_7: p_r0_g7_h101_t73 - x_r0_g7 - x_r0_g101 >= -1
 lin1_73_0_36: p_r0_g36_h130_t73 - x_r0_g36 <= 0
 lin2_73_0_36: p_r0_g36_h130_t73 - x_r0_g130 <= 0
 lin3_73_0_36: p_r0_g36_h130_t73 - x_r0_g36 - x_r0_g130 >= -1
 lin1_73_0_37: p_r0_g37_h131_t73 - x_r0_g37 <= 0
 lin2_73_0_37: p_r0_g37_h131_t73 - x_r0_g131 <= 0
 lin3_73_0_37: p_r0_g37_h131_t73 - x_r0_g37 - x_r0_g131 >= -1
 lin1_73_0_68: p_r0_g68_h162_t73 - x_r0_g68 <= 0
 lin2_73_0_68: p_r0_g68_h162_t73 - x_r0_g162 <= 0
 lin3_73_0_68: p_r0_g68_h162_t73 - x_r0_g68 - x_r0_g162 >= -1
 lin1_73_0_87: p_r0_g87_h14_t73 - x_r0_g87 <= 0
 lin2_73_0_87: p_r0_g87_h14_t73 - x_r0_g14 <= 0
 lin3_73_0_87: p_r0_g87_h14_t73 - x_r0_g87 - x_r0_g14 >= -1
 lin1_73_0_101: p_r0_g101_h28_t73 - x_r0_g101 <= 0
 lin2_73_0_101: p_r0_g101_h28_t73 - x_r0_g28 <= 0
 lin3_73_0_101: p_r0_g101_h28_t73 - x_r0_g101 - x_r0_g28 >= -1
 lin1_73_0_121: p_r0_g121_h48_t73 - x_r0_g121 <= 0
 lin2_73_0_121: p_r0_g121_h48_t73 - x_r0_g48 <= 0
 lin3_73_0_121: p_r0_g121_h48_t73 - x_r0_g121 - x_r0_g48 >= -1
 lin1_73_0_143: p_r0_g143_h70_t73 - x_r0_g143 <= 0
 lin2_73_0_143: p_r0_g143_h70_t73 - x_r0_g70 <= 0
 lin3_73_0_143: p_r0_g143_h70_t73 - x_r0_g143 - x_r0_g70 >= -1
 lin1_73_1_13: p_r1_g13_h107_t73 - x_r1_g13 <= 0
 lin2_73_1_13: p_r1_g13_h107_t73 - x_r1_g107 <= 0
 lin3_73_1_13: p_r1_g13_h107_t73 - x_r1_g13 - x_r1_g107 >= -1
 lin1_73_1_17: p_r1_g17_h111_t73 - x_r1_g17 <= 0
 lin2_73_1_17: p_r1_g17_h111_t73 - x_r1_g111 <= 0
 lin3_73_1_17: p_r1_g17_h111_t73 - x_r1_g17 - x_r1_g111 >= -1
 lin1_73_1_38: p_r1_g38_h132_t73 - x_r1_g38 <= 0
 lin2_73_1_38: p_r1_g38_h132_t73 - x_r1_g132 <= 0
 lin3_73_1_38: p_r1_g38_h132_t73 - x_r1_g38 - x_r1_g132 >= -1
 lin1_73_1_67: p_r1_g67_h161_t73 - x_r1_g67 <= 0
 lin2_73_1_67: p_r1_g67_h161_t73 - x_r1_g161 <= 0
 lin3_73_1_67: p_r1_g67_h161_t73 - x_r1_g67 - x_r1_g161 >= -1
 lin1_73_1_90: p_r1_g90_h17_t73 - x_r1_g90 <= 0
 lin2_73_1_90: p_r1_g90_h17_t73 - x_r1_g17 <= 0
 lin3_73_1_90: p_r1_g90_h17_t73 - x_r1_g90 - x_r1_g17 >= -1
 lin1_73_1_108: p_r1_g108_h35_t73 - x_r1_g108 <= 0
 lin2_73_1_108: p_r1_g108_h35_t73 - x_r1_g35 <= 0
 lin3_73_1_108: p_r1_g108_h35_t73 - x_r1_g108 - x_r1_g35 >= -1
 lin1_73_1_111: p_r1_g111_h38_t73 - x_r1_g111 <= 0
 lin2_73_1_111: p_r1_g111_h38_t73 - x_r1_g38 <= 0
 lin3_73_1_111: p_r1_g111_h38_t73 - x_r1_g111 - x_r1_g38 >= -1
 lin1_73_1_126: p_r1_g126_h53_t73 - x_r1_g126 <= 0
 lin2_73_1_126: p_r1_g126_h53_t73 - x_r1_g53 <= 0
 lin3_73_1_126: p_r1_g126_h53_t73 - x_r1_g126 - x_r1_g53 >= -1
 lin1_73_1_132: p_r1_g132_h59_t73 - x_r1_g132 <= 0
 lin2_73_1_132: p_r1_g132_h59_t73 - x_r1_g59 <= 0
 lin3_73_1_132: p_r1_g132_h59_t73 - x_r1_g132 - x_r1_g59 >= -1
 lin1_73_2_34: p_r2_g34_h128_t73 - x_r2_g34 <= 0
 lin2_73_2_34: p_r2_g34_h128_t73 - x_r2_g128 <= 0
 lin3_73_2_34: p_r2_g34_h128_t73 - x_r2_g34 - x_r2_g128 >= -1
 lin1_73_2_48: p_r2_g48_h142_t73 - x_r2_g48 <= 0
 lin2_73_2_48: p_r2_g48_h142_t73 - x_r2_g142 <= 0
 lin3_73_2_48: p_r2_g48_h142_t73 - x_r2_g48 - x_r2_g142 >= -1
 lin1_73_2_64: p_r2_g64_h158_t73 - x_r2_g64 <= 0
 lin2_73_2_64: p_r2_g64_h158_t73 - x_r2_g158 <= 0
 lin3_73_2_64: p_r2_g64_h158_t73 - x_r2_g64 - x_r2_g158 >= -1
 lin1_73_2_70: p_r2_g70_h164_t73 - x_r2_g70 <= 0
 lin2_73_2_70: p_r2_g70_h164_t73 - x_r2_g164 <= 0
 lin3_73_2_70: p_r2_g70_h164_t73 - x_r2_g70 - x_r2_g164 >= -1
 lin1_73_2_91: p_r2_g91_h18_t73 - x_r2_g91 <= 0
 lin2_73_2_91: p_r2_g91_h18_t73 - x_r2_g18 <= 0
 lin3_73_2_91: p_r2_g91_h18_t73 - x_r2_g91 - x_r2_g18 >= -1
 lin1_73_2_107: p_r2_g107_h34_t73 - x_r2_g107 <= 0
 lin2_73_2_107: p_r2_g107_h34_t73 - x_r2_g34 <= 0
 lin3_73_2_107: p_r2_g107_h34_t73 - x_r2_g107 - x_r2_g34 >= -1
 lin1_73_2_135: p_r2_g135_h62_t73 - x_r2_g135 <= 0
 lin2_73_2_135: p_r2_g135_h62_t73 - x_r2_g62 <= 0
 lin3_73_2_135: p_r2_g135_h62_t73 - x_r2_g135 - x_r2_g62 >= -1
 lin1_73_2_139: p_r2_g139_h66_t73 - x_r2_g139 <= 0
 lin2_73_2_139: p_r2_g139_h66_t73 - x_r2_g66 <= 0
 lin3_73_2_139: p_r2_g139_h66_t73 - x_r2_g139 - x_r2_g66 >= -1
 lin1_73_2_155: p_r2_g155_h82_t73 - x_r2_g155 <= 0
 lin2_73_2_155: p_r2_g155_h82_t73 - x_r2_g82 <= 0
 lin3_73_2_155: p_r2_g155_h82_t73 - x_r2_g155 - x_r2_g82 >= -1
 lin1_73_2_159: p_r2_g159_h86_t73 - x_r2_g159 <= 0
 lin2_73_2_159: p_r2_g159_h86_t73 - x_r2_g86 <= 0
 lin3_73_2_159: p_r2_g159_h86_t73 - x_r2_g159 - x_r2_g86 >= -1
 lin1_73_2_164: p_r2_g164_h91_t73 - x_r2_g164 <= 0
 lin2_73_2_164: p_r2_g164_h91_t73 - x_r2_g91 <= 0
 lin3_73_2_164: p_r2_g164_h91_t73 - x_r2_g164 - x_r2_g91 >= -1
 lin1_73_3_19: p_r3_g19_h113_t73 - x_r3_g19 <= 0
 lin2_73_3_19: p_r3_g19_h113_t73 - x_r3_g113 <= 0
 lin3_73_3_19: p_r3_g19_h113_t73 - x_r3_g19 - x_r3_g113 >= -1
 lin1_73_3_27: p_r3_g27_h121_t73 - x_r3_g27 <= 0
 lin2_73_3_27: p_r3_g27_h121_t73 - x_r3_g121 <= 0
 lin3_73_3_27: p_r3_g27_h121_t73 - x_r3_g27 - x_r3_g121 >= -1
 lin1_73_3_34: p_r3_g34_h128_t73 - x_r3_g34 <= 0
 lin2_73_3_34: p_r3_g34_h128_t73 - x_r3_g128 <= 0
 lin3_73_3_34: p_r3_g34_h128_t73 - x_r3_g34 - x_r3_g128 >= -1
 lin1_73_3_51: p_r3_g51_h145_t73 - x_r3_g51 <= 0
 lin2_73_3_51: p_r3_g51_h145_t73 - x_r3_g145 <= 0
 lin3_73_3_51: p_r3_g51_h145_t73 - x_r3_g51 - x_r3_g145 >= -1
 lin1_73_3_53: p_r3_g53_h147_t73 - x_r3_g53 <= 0
 lin2_73_3_53: p_r3_g53_h147_t73 - x_r3_g147 <= 0
 lin3_73_3_53: p_r3_g53_h147_t73 - x_r3_g53 - x_r3_g147 >= -1
 lin1_73_3_65: p_r3_g65_h159_t73 - x_r3_g65 <= 0
 lin2_73_3_65: p_r3_g65_h159_t73 - x_r3_g159 <= 0
 lin3_73_3_65: p_r3_g65_h159_t73 - x_r3_g65 - x_r3_g159 >= -1
 lin1_73_3_91: p_r3_g91_h18_t73 - x_r3_g91 <= 0
 lin2_73_3_91: p_r3_g91_h18_t73 - x_r3_g18 <= 0
 lin3_73_3_91: p_r3_g91_h18_t73 - x_r3_g91 - x_r3_g18 >= -1
 lin1_73_3_106: p_r3_g106_h33_t73 - x_r3_g106 <= 0
 lin2_73_3_106: p_r3_g106_h33_t73 - x_r3_g33 <= 0
 lin3_73_3_106: p_r3_g106_h33_t73 - x_r3_g106 - x_r3_g33 >= -1
 lin1_73_3_124: p_r3_g124_h51_t73 - x_r3_g124 <= 0
 lin2_73_3_124: p_r3_g124_h51_t73 - x_r3_g51 <= 0
 lin3_73_3_124: p_r3_g124_h51_t73 - x_r3_g124 - x_r3_g51 >= -1
 lin1_73_3_138: p_r3_g138_h65_t73 - x_r3_g138 <= 0
 lin2_73_3_138: p_r3_g138_h65_t73 - x_r3_g65 <= 0
 lin3_73_3_138: p_r3_g138_h65_t73 - x_r3_g138 - x_r3_g65 >= -1
 lin1_73_3_145: p_r3_g145_h72_t73 - x_r3_g145 <= 0
 lin2_73_3_145: p_r3_g145_h72_t73 - x_r3_g72 <= 0
 lin3_73_3_145: p_r3_g145_h72_t73 - x_r3_g145 - x_r3_g72 >= -1
 defect_73: 1 d_73 - 1 x_r0_g1 - 2 x_r0_g4 - 1 x_r0_g9 - 1 x_r0_g17 - 1 x_r0_g22 - 2 x_r0_g25 - 1 x_r0_g26 - 1 x_r0_g28 - 1 x_r0_g32 - 1 x_r0_g47 - 1 x_r0_g48 - 1 x_r0_g54 - 2 x_r0_g69 - 2 x_r0_g79 - 2 x_r0_g84 - 1 x_r0_g87 - 1 x_r0_g97 - 1 x_r0_g118 - 1 x_r0_g131 - 1 x_r0_g143 - 1 x_r0_g153 - 1 x_r1_g8 - 1 x_r1_g11 - 2 x_r1_g15 - 2 x_r1_g25 - 2 x_r1_g30 - 1 x_r1_g62 - 1 x_r1_g67 - 1 x_r1_g76 - 2 x_r1_g83 - 1 x_r1_g90 - 2 x_r1_g91 - 2 x_r1_g93 - 2 x_r1_g110 - 1 x_r1_g113 - 1 x_r1_g114 - 1 x_r1_g117 - 1 x_r1_g121 - 1 x_r1_g126 - 2 x_r1_g143 - 1 x_r1_g154 - 1 x_r1_g155 - 1 x_r1_g157 - 1 x_r1_g161 - 1 x_r2_g2 - 1 x_r2_g18 - 1 x_r2_g29 - 1 x_r2_g48 - 1 x_r2_g64 - 1 x_r2_g66 - 2 x_r2_g67 - 2 x_r2_g73 - 1 x_r2_g74 - 2 x_r2_g77 - 2 x_r2_g80 - 1 x_r2_g95 - 2 x_r2_g98 - 1 x_r2_g100 - 1 x_r2_g120 - 1 x_r2_g135 - 1 x_r2_g136 - 1 x_r2_g152 - 1 x_r2_g155 - 1 x_r2_g158 - 1 x_r2_g159 - 1 x_r2_g162 - 1 x_r2_g163 - 1 x_r3_g3 - 1 x_r3_g7 - 1 x_r3_g8 - 1 x_r3_g13 - 2 x_r3_g16 - 1 x_r3_g18 - 1 x_r3_g33 - 1 x_r3_g56 - 1 x_r3_g57 - 1 x_r3_g72 - 1 x_r3_g77 - 1 x_r3_g79 - 2 x_r3_g103 - 1 x_r3_g106 - 2 x_r3_g111 - 1 x_r3_g113 - 1 x_r3_g124 - 1 x_r3_g128 - 1 x_r3_g147 - 1 x_r3_g154 - 1 x_r3_g159 - 2 x_r3_g162 - 1 p_r0_g7_h101_t73 - 1 p_r0_g36_h130_t73 - 1 p_r0_g37_h131_t73 - 1 p_r0_g68_h162_t73 - 1 p_r0_g87_h14_t73 - 1 p_r0_g101_h28_t73 - 1 p_r0_g121_h48_t73 - 1 p_r0_g143_h70_t73 - 1 p_r1_g13_h107_t73 - 1 p_r1_g17_h111_t73 - 1 p_r1_g38_h132_t73 - 1 p_r1_g67_h161_t73 - 1 p_r1_g90_h17_t73 - 1 p_r1_g108_h35_t73 - 1 p_r1_g111_h38_t73 - 1 p_r1_g126_h53_t73 - 1 p_r1_g132_h59_t73 - 1 p_r2_g34_h128_t73 - 1 p_r2_g48_h142_t73 - 1 p_r2_g64_h158_t73 - 1 p_r2_g70_h164_t73 - 1 p_r2_g91_h18_t73 - 1 p_r2_g107_h34_t73 - 1 p_r2_g135_h62_t73 - 1 p_r2_g139_h66_t73 - 1 p_r2_g155_h82_t73 - 1 p_r2_g159_h86_t73 - 1 p_r2_g164_h91_t73 - 1 p_r3_g19_h113_t73 - 1 p_r3_g27_h121_t73 - 1 p_r3_g34_h128_t73 - 1 p_r3_g51_h145_t73 - 1 p_r3_g53_h147_t73 - 1 p_r3_g65_h159_t73 - 1 p_r3_g91_h18_t73 - 1 p_r3_g106_h33_t73 - 1 p_r3_g124_h51_t73 - 1 p_r3_g138_h65_t73 - 1 p_r3_g145_h72_t73 = -51
 abs_pos_73: d_73 - u_73 <= 0
 abs_neg_73: - d_73 - u_73 <= 0
 max_def_73: u_73 - M <= 0
 cap_73: u_73 <= 2
 lin1_75_0_9: p_r0_g9_h101_t75 - x_r0_g9 <= 0
 lin2_75_0_9: p_r0_g9_h101_t75 - x_r0_g101 <= 0
 lin3_75_0_9: p_r0_g9_h101_t75 - x_r0_g9 - x_r0_g101 >= -1
 lin1_75_0_26: p_r0_g26_h118_t75 - x_r0_g26 <= 0
 lin2_75_0_26: p_r0_g26_h118_t75 - x_r0_g118 <= 0
 lin3_75_0_26: p_r0_g26_h118_t75 - x_r0_g26 - x_r0_g118 >= -1
 lin1_75_0_70: p_r0_g70_h162_t75 - x_r0_g70 <= 0
 lin2_75_0_70: p_r0_g70_h162_t75 - x_r0_g162 <= 0
 lin3_75_0_70: p_r0_g70_h162_t75 - x_r0_g70 - x_r0_g162 >= -1
 lin1_75_0_79: p_r0_g79_h4_t75 - x_r0_g79 <= 0
 lin2_75_0_79: p_r0_g79_h4_t75 - x_r0_g4 <= 0
 lin3_75_0_79: p_r0_g79_h4_t75 - x_r0_g79 - x_r0_g4 >= -1
 lin1_75_0_84: p_r0_g84_h9_t75 - x_r0_g84 <= 0
 lin2_75_0_84: p_r0_g84_h9_t75 - x_r0_g9 <= 0
 lin3_75_0_84: p_r0_g84_h9_t75 - x_r0_g84 - x_r0_g9 >= -1
 lin1_75_0_97: p_r0_g97_h22_t75 - x_r0_g97 <= 0
 lin2_75_0_97: p_r0_g97_h22_t75 - x_r0_g22 <= 0
 lin3_75_0_97: p_r0_g97_h22_t75 - x_r0_g97 - x_r0_g22 >= -1
 lin1_75_0_101: p_r0_g101_h26_t75 - x_r0_g101 <= 0
 lin2_75_0_101: p_r0_g101_h26_t75 - x_r0_g26 <= 0
 lin3_75_0_101: p_r0_g101_h26_t75 - x_r0_g101 - x_r0_g26 >= -1
 lin1_75_0_123: p_r0_g123_h48_t75 - x_r0_g123 <= 0
 lin2_75_0_123: p_r0_g123_h48_t75 - x_r0_g48 <= 0
 lin3_75_0_123: p_r0_g123_h48_t75 - x_r0_g123 - x_r0_g48 >= -1
 lin1_75_0_143: p_r0_g143_h68_t75 - x_r0_g143 <= 0
 lin2_75_0_143: p_r0_g143_h68_t75 - x_r0_g68 <= 0
 lin3_75_0_143: p_r0_g143_h68_t75 - x_r0_g143 - x_r0_g68 >= -1
 lin1_75_0_144: p_r0_g144_h69_t75 - x_r0_g144 <= 0
 lin2_75_0_144: p_r0_g144_h69_t75 - x_r0_g69 <= 0
 lin3_75_0_144: p_r0_g144_h69_t75 - x_r0_g144 - x_r0_g69 >= -1
 lin1_75_0_162: p_r0_g162_h87_t75 - x_r0_g162 <= 0
 lin2_75_0_162: p_r0_g162_h87_t75 - x_r0_g87 <= 0
 lin3_75_0_162: p_r0_g162_h87_t75 - x_r0_g162 - x_r0_g87 >= -1
 lin1_75_1_15: p_r1_g15_h107_t75 - x_r1_g15 <= 0
 lin2_75_1_15: p_r1_g15_h107_t75 - x_r1_g107 <= 0
 lin3_75_1_15: p_r1_g15_h107_t75 - x_r1_g15 - x_r1_g107 >= -1
 lin1_75_1_25: p_r1_g25_h117_t75 - x_r1_g25 <= 0
 lin2_75_1_25: p_r1_g25_h117_t75 - x_r1_g117 <= 0
 lin3_75_1_25: p_r1_g25_h117_t75 - x_r1_g25 - x_r1_g117 >= -1
 lin1_75_1_62: p_r1_g62_h154_t75 - x_r1_g62 <= 0
 lin2_75_1_62: p_r1_g62_h154_t75 - x_r1_g154 <= 0
 lin3_75_1_62: p_r1_g62_h154_t75 - x_r1_g62 - x_r1_g154 >= -1
 lin1_75_1_83: p_r1_g83_h8_t75 - x_r1_g83 <= 0
 lin2_75_1_83: p_r1_g83_h8_t75 - x_r1_g8 <= 0
 lin3_75_1_83: p_r1_g83_h8_t75 - x_r1_g83 - x_r1_g8 >= -1
 lin1_75_1_90: p_r1_g90_h15_t75 - x_r1_g90 <= 0
 lin2_75_1_90: p_r1_g90_h15_t75 - x_r1_g15 <= 0
 lin3_75_1_90: p_r1_g90_h15_t75 - x_r1_g90 - x_r1_g15 >= -1
 lin1_75_1_110: p_r1_g110_h35_t75 - x_r1_g110 <= 0
 lin2_75_1_110: p_r1_g110_h35_t75 - x_r1_g35 <= 0
 lin3_75_1_110: p_r1_g110_h35_t75 - x_r1_g110 - x_r1_g35 >= -1
 lin1_75_1_113: p_r1_g113_h38_t75 - x_r1_g113 <= 0
 lin2_75_1_113: p_r1_g113_h38_t75 - x_r1_g38 <= 0
 lin3_75_1_113: p_r1_g113_h38_t75 - x_r1_g113 - x_r1_g38 >= -1
 lin1_75_1_128: p_r1_g128_h53_t75 - x_r1_g128 <= 0
 lin2_75_1_128: p_r1_g128_h53_t75 - x_r1_g53 <= 0
 lin3_75_1_128: p_r1_g128_h53_t75 - x_r1_g128 - x_r1_g53 >= -1
 lin1_75_1_155: p_r1_g155_h80_t75 - x_r1_g155 <= 0
 lin2_75_1_155: p_r1_g155_h80_t75 - x_r1_g80 <= 0
 lin3_75_1_155: p_r1_g155_h80_t75 - x_r1_g155 - x_r1_g80 >= -1
 lin1_75_2_18: p_r2_g18_h110_t75 - x_r2_g18 <= 0
 lin2_75_2_18: p_r2_g18_h110_t75 - x_r2_g110 <= 0
 lin3_75_2_18: p_r2_g18_h110_t75 - x_r2_g18 - x_r2_g110 >= -1
 lin1_75_2_60: p_r2_g60_h152_t75 - x_r2_g60 <= 0
 lin2_75_2_60: p_r2_g60_h152_t75 - x_r2_g152 <= 0
 lin3_75_2_60: p_r2_g60_h152_t75 - x_r2_g60 - x_r2_g152 >= -1
 lin1_75_2_66: p_r2_g66_h158_t75 - x_r2_g66 <= 0
 lin2_75_2_66: p_r2_g66_h158_t75 - x_r2_g158 <= 0
 lin3_75_2_66: p_r2_g66_h158_t75 - x_r2_g66 - x_r2_g158 >= -1
 lin1_75_2_67: p_r2_g67_h159_t75 - x_r2_g67 <= 0
 lin2_75_2_67: p_r2_g67_h159_t75 - x_r2_g159 <= 0
 lin3_75_2_67: p_r2_g67_h159_t75 - x_r2_g67 - x_r2_g159 >= -1
 lin1_75_2_70: p_r2_g70_h162_t75 - x_r2_g70 <= 0
 lin2_75_2_70: p_r2_g70_h162_t75 - x_r2_g162 <= 0
 lin3_75_2_70: p_r2_g70_h162_t75 - x_r2_g70 - x_r2_g162 >= -1
 lin1_75_2_73: p_r2_g73_h165_t75 - x_r2_g73 <= 0
 lin2_75_2_73: p_r2_g73_h165_t75 - x_r2_g165 <= 0
 lin3_75_2_73: p_r2_g73_h165_t75 - x_r2_g73 - x_r2_g165 >= -1
 lin1_75_2_77: p_r2_g77_h2_t75 - x_r2_g77 <= 0
 lin2_75_2_77: p_r2_g77_h2_t75 - x_r2_g2 <= 0
 lin3_75_2_77: p_r2_g77_h2_t75 - x_r2_g77 - x_r2_g2 >= -1
 lin1_75_2_135: p_r2_g135_h60_t75 - x_r2_g135 <= 0
 lin2_75_2_135: p_r2_g135_h60_t75 - x_r2_g60 <= 0
 lin3_75_2_135: p_r2_g135_h60_t75 - x_r2_g135 - x_r2_g60 >= -1
 lin1_75_2_139: p_r2_g139_h64_t75 - x_r2_g139 <= 0
 lin2_75_2_139: p_r2_g139_h64_t75 - x_r2_g64 <= 0
 lin3_75_2_139: p_r2_g139_h64_t75 - x_r2_g139 - x_r2_g64 >= -1
 lin1_75_2_142: p_r2_g142_h67_t75 - x_r2_g142 <= 0
 lin2_75_2_142: p_r2_g142_h67_t75 - x_r2_g67 <= 0
 lin3_75_2_142: p_r2_g142_h67_t75 - x_r2_g142 - x_r2_g67 >= -1
 lin1_75_2_149: p_r2_g149_h74_t75 - x_r2_g149 <= 0
 lin2_75_2_149: p_r2_g149_h74_t75 - x_r2_g74 <= 0
 lin3_75_2_149: p_r2_g149_h74_t75 - x_r2_g149 - x_r2_g74 >= -1
 lin1_75_2_152: p_r2_g152_h77_t75 - x_r2_g152 <= 0
 lin2_75_2_152: p_r2_g152_h77_t75 - x_r2_g77 <= 0
 lin3_75_2_152: p_r2_g152_h77_t75 - x_r2_g152 - x_r2_g77 >= -1
 lin1_75_2_155: p_r2_g155_h80_t75 - x_r2_g155 <= 0
 lin2_75_2_155: p_r2_g155_h80_t75 - x_r2_g80 <= 0
 lin3_75_2_155: p_r2_g155_h80_t75 - x_r2_g155 - x_r2_g80 >= -1
 lin1_75_3_11: p_r3_g11_h103_t75 - x_r3_g11 <= 0
 lin2_75_3_11: p_r3_g11_h103_t75 - x_r3_g103 <= 0
 lin3_75_3_11: p_r3_g11_h103_t75 - x_r3_g11 - x_r3_g103 >= -1
 lin1_75_3_19: p_r3_g19_h111_t75 - x_r3_g19 <= 0
 lin2_75_3_19: p_r3_g19_h111_t75 - x_r3_g111 <= 0
 lin3_75_3_19: p_r3_g19_h111_t75 - x_r3_g19 - x_r3_g111 >= -1
 lin1_75_3_33: p_r3_g33_h125_t75 - x_r3_g33 <= 0
 lin2_75_3_33: p_r3_g33_h125_t75 - x_r3_g125 <= 0
 lin3_75_3_33: p_r3_g33_h125_t75 - x_r3_g33 - x_r3_g125 >= -1
 lin1_75_3_36: p_r3_g36_h128_t75 - x_r3_g36 <= 0
 lin2_75_3_36: p_r3_g36_h128_t75 - x_r3_g128 <= 0
 lin3_75_3_36: p_r3_g36_h128_t75 - x_r3_g36 - x_r3_g128 >= -1
 lin1_75_3_53: p_r3_g53_h145_t75 - x_r3_g53 <= 0
 lin2_75_3_53: p_r3_g53_h145_t75 - x_r3_g145 <= 0
 lin3_75_3_53: p_r3_g53_h145_t75 - x_r3_g53 - x_r3_g145 >= -1
 lin1_75_3_91: p_r3_g91_h16_t75 - x_r3_g91 <= 0
 lin2_75_3_91: p_r3_g91_h16_t75 - x_r3_g16 <= 0
 lin3_75_3_91: p_r3_g91_h16_t75 - x_r3_g91 - x_r3_g16 >= -1
 lin1_75_3_94: p_r3_g94_h19_t75 - x_r3_g94 <= 0
 lin2_75_3_94: p_r3_g94_h19_t75 - x_r3_g19 <= 0
 lin3_75_3_94: p_r3_g94_h19_t75 - x_r3_g94 - x_r3_g19 >= -1
 lin1_75_3_111: p_r3_g111_h36_t75 - x_r3_g111 <= 0
 lin2_75_3_111: p_r3_g111_h36_t75 - x_r3_g36 <= 0
 lin3_75_3_111: p_r3_g111_h36_t75 - x_r3_g111 - x_r3_g36 >= -1
 lin1_75_3_128: p_r3_g128_h53_t75 - x_r3_g128 <= 0
 lin2_75_3_128: p_r3_g128_h53_t75 - x_r3_g53 <= 0
 lin3_75_3_128: p_r3_g128_h53_t75 - x_r3_g128 - x_r3_g53 >= -1
 lin1_75_3_147: p_r3_g147_h72_t75 - x_r3_g147 <= 0
 lin2_75_3_147: p_r3_g147_h72_t75 - x_r3_g72 <= 0
 lin3_75_3_147: p_r3_g147_h72_t75 - x_r3_g147 - x_r3_g72 >= -1
 lin1_75_3_154: p_r3_g154_h79_t75 - x_r3_g154 <= 0
 lin2_75_3_154: p_r3_g154_h79_t75 - x_r3_g79 <= 0
 lin3_75_3_154: p_r3_g154_h79_t75 - x_r3_g154 - x_r3_g79 >= -1
 defect_75: 1 d_75 - 1 x_r0_g14 - 1 x_r0_g23 - 1 x_r0_g25 - 2 x_r0_g28 - 1 x_r0_g34 - 1 x_r0_g35 - 2 x_r0_g47 - 1 x_r0_g54 - 1 x_r0_g60 - 2 x_r0_g67 - 1 x_r0_g68 - 1 x_r0_g84 - 1 x_r0_g87 - 1 x_r0_g97 - 1 x_r0_g118 - 2 x_r0_g130 - 1 x_r0_g143 - 1 x_r0_g144 - 1 x_r1_g8 - 1 x_r1_g11 - 1 x_r1_g13 - 1 x_r1_g17 - 1 x_r1_g25 - 1 x_r1_g31 - 1 x_r1_g35 - 1 x_r1_g38 - 1 x_r1_g64 - 1 x_r1_g67 - 1 x_r1_g76 - 2 x_r1_g91 - 2 x_r1_g93 - 1 x_r1_g107 - 1 x_r1_g108 - 1 x_r1_g110 - 1 x_r1_g111 - 1 x_r1_g114 - 1 x_r1_g117 - 2 x_r1_g121 - 1 x_r1_g128 - 2 x_r1_g132 - 1 x_r1_g143 - 1 x_r1_g154 - 2 x_r1_g157 - 1 x_r1_g161 - 1 x_r2_g2 - 1 x_r2_g18 - 2 x_r2_g29 - 2 x_r2_g30 - 1 x_r2_g34 - 1 x_r2_g48 - 1 x_r2_g62 - 1 x_r2_g73 - 2 x_r2_g82 - 1 x_r2_g86 - 1 x_r2_g95 - 1 x_r2_g100 - 1 x_r2_g120 - 1 x_r2_g135 - 1 x_r2_g136 - 1 x_r2_g155 - 1 x_r2_g158 - 1 x_r2_g162 - 1 x_r2_g165 - 1 x_r3_g3 - 1 x_r3_g7 - 1 x_r3_g8 - 1 x_r3_g11 - 1 x_r3_g16 - 1 x_r3_g18 - 1 x_r3_g27 - 1 x_r3_g33 - 1 x_r3_g51 - 1 x_r3_g56 - 2 x_r3_g57 - 1 x_r3_g65 - 1 x_r3_g77 - 1 x_r3_g79 - 1 x_r3_g91 - 1 x_r3_g94 - 1 x_r3_g103 - 1 x_r3_g113 - 1 x_r3_g121 - 2 x_r3_g124 - 1 x_r3_g138 - 1 x_r3_g147 - 1 x_r3_g154 - 1 p_r0_g9_h101_t75 - 1 p_r0_g26_h118_t75 - 1 p_r0_g70_h162_t75 - 1 p_r0_g79_h4_t75 - 1 p_r0_g84_h9_t75 - 1 p_r0_g97_h22_t75 - 1 p_r0_g101_h26_t75 - 1 p_r0_g123_h48_t75 - 1 p_r0_g143_h68_t75 - 1 p_r0_g144_h69_t75 - 1 p_r0_g162_h87_t75 - 1 p_r1_g15_h107_t75 - 1 p_r1_g25_h117_t75 - 1 p_r1_g62_h154_t75 - 1 p_r1_g83_h8_t75 - 1 p_r1_g90_h15_t75 - 1 p_r1_g110_h35_t75 - 1 p_r1_g113_h38_t75 - 1 p_r1_g128_h53_t75 - 1 p_r1_g155_h80_t75 - 1 p_r2_g18_h110_t75 - 1 p_r2_g60_h152_t75 - 1 p_r2_g66_h158_t75 - 1 p_r2_g67_h159_t75 - 1 p_r2_g70_h162_t75 - 1 p_r2_g73_h165_t75 - 1 p_r2_g77_h2_t75 - 1 p_r2_g135_h60_t75 - 1 p_r2_g139_h64_t75 - 1 p_r2_g142_h67_t75 - 1 p_r2_g149_h74_t75 - 1 p_r2_g152_h77_t75 - 1 p_r2_g155_h80_t75 - 1 p_r3_g11_h103_t75 - 1 p_r3_g19_h111_t75 - 1 p_r3_g33_h125_t75 - 1 p_r3_g36_h128_t75 - 1 p_r3_g53_h145_t75 - 1 p_r3_g91_h16_t75 - 1 p_r3_g94_h19_t75 - 1 p_r3_g111_h36_t75 - 1 p_r3_g128_h53_t75 - 1 p_r3_g147_h72_t75 - 1 p_r3_g154_h79_t75 = -65
 abs_pos_75: d_75 - u_75 <= 0
 abs_neg_75: - d_75 - u_75 <= 0
 max_def_75: u_75 - M <= 0
 cap_75: u_75 <= 1
 lin1_83_0_17: p_r0_g17_h101_t83 - x_r0_g17 <= 0
 lin2_83_0_17: p_r0_g17_h101_t83 - x_r0_g101 <= 0
 lin3_83_0_17: p_r0_g17_h101_t83 - x_r0_g17 - x_r0_g101 >= -1
 lin1_83_0_34: p_r0_g34_h118_t83 - x_r0_g34 <= 0
 lin2_83_0_34: p_r0_g34_h118_t83 - x_r0_g118 <= 0
 lin3_83_0_34: p_r0_g34_h118_t83 - x_r0_g34 - x_r0_g118 >= -1
 lin1_83_0_37: p_r0_g37_h121_t83 - x_r0_g37 <= 0
 lin2_83_0_37: p_r0_g37_h121_t83 - x_r0_g121 <= 0
 lin3_83_0_37: p_r0_g37_h121_t83 - x_r0_g37 - x_r0_g121 >= -1
 lin1_83_0_47: p_r0_g47_h131_t83 - x_r0_g47 <= 0
 lin2_83_0_47: p_r0_g47_h131_t83 - x_r0_g131 <= 0
 lin3_83_0_47: p_r0_g47_h131_t83 - x_r0_g47 - x_r0_g131 >= -1
 lin1_83_0_60: p_r0_g60_h144_t83 - x_r0_g60 <= 0
 lin2_83_0_60: p_r0_g60_h144_t83 - x_r0_g144 <= 0
 lin3_83_0_60: p_r0_g60_h144_t83 - x_r0_g60 - x_r0_g144 >= -1
 lin1_83_0_69: p_r0_g69_h153_t83 - x_r0_g69 <= 0
 lin2_83_0_69: p_r0_g69_h153_t83 - x_r0_g153 <= 0
 lin3_83_0_69: p_r0_g69_h153_t83 - x_r0_g69 - x_r0_g153 >= -1
 lin1_83_0_84: p_r0_g84_h1_t83 - x_r0_g84 <= 0
 lin2_83_0_84: p_r0_g84_h1_t83 - x_r0_g1 <= 0
 lin3_83_0_84: p_r0_g84_h1_t83 - x_r0_g84 - x_r0_g1 >= -1
 lin1_83_0_87: p_r0_g87_h4_t83 - x_r0_g87 <= 0
 lin2_83_0_87: p_r0_g87_h4_t83 - x_r0_g4 <= 0
 lin3_83_0_87: p_r0_g87_h4_t83 - x_r0_g87 - x_r0_g4 >= -1
 lin1_83_0_97: p_r0_g97_h14_t83 - x_r0_g97 <= 0
 lin2_83_0_97: p_r0_g97_h14_t83 - x_r0_g14 <= 0
 lin3_83_0_97: p_r0_g97_h14_t83 - x_r0_g97 - x_r0_g14 >= -1
 lin1_83_0_118: p_r0_g118_h35_t83 - x_r0_g118 <= 0
 lin2_83_0_118: p_r0_g118_h35_t83 - x_r0_g35 <= 0
 lin3_83_0_118: p_r0_g118_h35_t83 - x_r0_g118 - x_r0_g35 >= -1
 lin1_83_0_130: p_r0_g130_h47_t83 - x_r0_g130 <= 0
 lin2_83_0_130: p_r0_g130_h47_t83 - x_r0_g47 <= 0
 lin3_83_0_130: p_r0_g130_h47_t83 - x_r0_g130 - x_r0_g47 >= -1
 lin1_83_0_131: p_r0_g131_h48_t83 - x_r0_g131 <= 0
 lin2_83_0_131: p_r0_g131_h48_t83 - x_r0_g48 <= 0
 lin3_83_0_131: p_r0_g131_h48_t83 - x_r0_g131 - x_r0_g48 >= -1
 lin1_83_0_143: p_r0_g143_h60_t83 - x_r0_g143 <= 0
 lin2_83_0_143: p_r0_g143_h60_t83 - x_r0_g60 <= 0
 lin3_83_0_143: p_r0_g143_h60_t83 - x_r0_g143 - x_r0_g60 >= -1
 lin1_83_0_153: p_r0_g153_h70_t83 - x_r0_g153 <= 0
 lin2_83_0_153: p_r0_g153_h70_t83 - x_r0_g70 <= 0
 lin3_83_0_153: p_r0_g153_h70_t83 - x_r0_g153 - x_r0_g70 >= -1
 lin1_83_0_162: p_r0_g162_h79_t83 - x_r0_g162 <= 0
 lin2_83_0_162: p_r0_g162_h79_t83 - x_r0_g79 <= 0
 lin3_83_0_162: p_r0_g162_h79_t83 - x_r0_g162 - x_r0_g79 >= -1
 lin1_83_1_30: p_r1_g30_h114_t83 - x_r1_g30 <= 0
 lin2_83_1_30: p_r1_g30_h114_t83 - x_r1_g114 <= 0
 lin3_83_1_30: p_r1_g30_h114_t83 - x_r1_g30 - x_r1_g114 >= -1
 lin1_83_1_59: p_r1_g59_h143_t83 - x_r1_g59 <= 0
 lin2_83_1_59: p_r1_g59_h143_t83 - x_r1_g143 <= 0
 lin3_83_1_59: p_r1_g59_h143_t83 - x_r1_g59 - x_r1_g143 >= -1
 lin1_83_1_62: p_r1_g62_h146_t83 - x_r1_g62 <= 0
 lin2_83_1_62: p_r1_g62_h146_t83 - x_r1_g146 <= 0
 lin3_83_1_62: p_r1_g62_h146_t83 - x_r1_g62 - x_r1_g146 >= -1
 lin1_83_1_91: p_r1_g91_h8_t83 - x_r1_g91 <= 0
 lin2_83_1_91: p_r1_g91_h8_t83 - x_r1_g8 <= 0
 lin3_83_1_91: p_r1_g91_h8_t83 - x_r1_g91 - x_r1_g8 >= -1
 lin1_83_1_96: p_r1_g96_h13_t83 - x_r1_g96 <= 0
 lin2_83_1_96: p_r1_g96_h13_t83 - x_r1_g13 <= 0
 lin3_83_1_96: p_r1_g96_h13_t83 - x_r1_g96 - x_r1_g13 >= -1
 lin1_83_1_108: p_r1_g108_h25_t83 - x_r1_g108 <= 0
 lin2_83_1_108: p_r1_g108_h25_t83 - x_r1_g25 <= 0
 lin3_83_1_108: p_r1_g108_h25_t83 - x_r1_g108 - x_r1_g25 >= -1
 lin1_83_1_113: p_r1_g113_h30_t83 - x_r1_g113 <= 0
 lin2_83_1_113: p_r1_g113_h30_t83 - x_r1_g30 <= 0
 lin3_83_1_113: p_r1_g113_h30_t83 - x_r1_g113 - x_r1_g30 >= -1
 lin1_83_1_114: p_r1_g114_h31_t83 - x_r1_g114 <= 0
 lin2_83_1_114: p_r1_g114_h31_t83 - x_r1_g31 <= 0
 lin3_83_1_114: p_r1_g114_h31_t83 - x_r1_g114 - x_r1_g31 >= -1
 lin1_83_1_121: p_r1_g121_h38_t83 - x_r1_g121 <= 0
 lin2_83_1_121: p_r1_g121_h38_t83 - x_r1_g38 <= 0
 lin3_83_1_121: p_r1_g121_h38_t83 - x_r1_g121 - x_r1_g38 >= -1
 lin1_83_2_2: p_r2_g2_h86_t83 - x_r2_g2 <= 0
 lin2_83_2_2: p_r2_g2_h86_t83 - x_r2_g86 <= 0
 lin3_83_2_2: p_r2_g2_h86_t83 - x_r2_g2 - x_r2_g86 >= -1
 lin1_83_2_74: p_r2_g74_h158_t83 - x_r2_g74 <= 0
 lin2_83_2_74: p_r2_g74_h158_t83 - x_r2_g158 <= 0
 lin3_83_2_74: p_r2_g74_h158_t83 - x_r2_g74 - x_r2_g158 >= -1
 lin1_83_2_80: p_r2_g80_h164_t83 - x_r2_g80 <= 0
 lin2_83_2_80: p_r2_g80_h164_t83 - x_r2_g164 <= 0
 lin3_83_2_80: p_r2_g80_h164_t83 - x_r2_g80 - x_r2_g164 >= -1
 lin1_83_2_149: p_r2_g149_h66_t83 - x_r2_g149 <= 0
 lin2_83_2_149: p_r2_g149_h66_t83 - x_r2_g66 <= 0
 lin3_83_2_149: p_r2_g149_h66_t83 - x_r2_g149 - x_r2_g66 >= -1
 lin1_83_2_163: p_r2_g163_h80_t83 - x_r2_g163 <= 0
 lin2_83_2_163: p_r2_g163_h80_t83 - x_r2_g80 <= 0
 lin3_83_2_163: p_r2_g163_h80_t83 - x_r2_g163 - x_r2_g80 >= -1
 lin1_83_2_165: p_r2_g165_h82_t83 - x_r2_g165 <= 0
 lin2_83_2_165: p_r2_g165_h82_t83 - x_r2_g82 <= 0
 lin3_83_2_165: p_r2_g165_h82_t83 - x_r2_g165 - x_r2_g82 >= -1
 lin1_83_3_7: p_r3_g7_h91_t83 - x_r3_g7 <= 0
 lin2_83_3_7: p_r3_g7_h91_t83 - x_r3_g91 <= 0
 lin3_83_3_7: p_r3_g7_h91_t83 - x_r3_g7 - x_r3_g91 >= -1
 lin1_83_3_19: p_r3_g19_h103_t83 - x_r3_g19 <= 0
 lin2_83_3_19: p_r3_g19_h103_t83 - x_r3_g103 <= 0
 lin3_83_3_19: p_r3_g19_h103_t83 - x_r3_g19 - x_r3_g103 >= -1
 lin1_83_3_27: p_r3_g27_h111_t83 - x_r3_g27 <= 0
 lin2_83_3_27: p_r3_g27_h111_t83 - x_r3_g111 <= 0
 lin3_83_3_27: p_r3_g27_h111_t83 - x_r3_g27 - x_r3_g111 >= -1
 lin1_83_3_91: p_r3_g91_h8_t83 - x_r3_g91 <= 0
 lin2_83_3_91: p_r3_g91_h8_t83 - x_r3_g8 <= 0
 lin3_83_3_91: p_r3_g91_h8_t83 - x_r3_g91 - x_r3_g8 >= -1
 lin1_83_3_94: p_r3_g94_h11_t83 - x_r3_g94 <= 0
 lin2_83_3_94: p_r3_g94_h11_t83 - x_r3_g11 <= 0
 lin3_83_3_94: p_r3_g94_h11_t83 - x_r3_g94 - x_r3_g11 >= -1
 lin1_83_3_162: p_r3_g162_h79_t83 - x_r3_g162 <= 0
 lin2_83_3_162: p_r3_g162_h79_t83 - x_r3_g79 <= 0
 lin3_83_3_162: p_r3_g162_h79_t83 - x_r3_g162 - x_r3_g79 >= -1
 defect_83: 1 d_83 - 1 x_r0_g4 - 1 x_r0_g7 - 1 x_r0_g14 - 1 x_r0_g17 - 1 x_r0_g20 - 1 x_r0_g22 - 1 x_r0_g23 - 1 x_r0_g32 - 1 x_r0_g35 - 2 x_r0_g36 - 1 x_r0_g37 - 1 x_r0_g48 - 1 x_r0_g54 - 1 x_r0_g67 - 2 x_r0_g68 - 1 x_r0_g69 - 1 x_r0_g79 - 1 x_r0_g87 - 1 x_r0_g97 - 1 x_r0_g102 - 1 x_r0_g121 - 1 x_r0_g123 - 1 x_r0_g143 - 1 x_r1_g11 - 1 x_r1_g15 - 1 x_r1_g17 - 1 x_r1_g25 - 1 x_r1_g31 - 1 x_r1_g35 - 1 x_r1_g75 - 2 x_r1_g76 - 2 x_r1_g80 - 1 x_r1_g83 - 1 x_r1_g93 - 2 x_r1_g110 - 1 x_r1_g111 - 1 x_r1_g113 - 1 x_r1_g121 - 1 x_r1_g126 - 1 x_r1_g128 - 1 x_r1_g132 - 1 x_r1_g154 - 1 x_r1_g161 - 1 x_r2_g2 - 2 x_r2_g18 - 2 x_r2_g29 - 2 x_r2_g30 - 1 x_r2_g48 - 1 x_r2_g62 - 1 x_r2_g64 - 1 x_r2_g66 - 2 x_r2_g67 - 1 x_r2_g70 - 1 x_r2_g73 - 1 x_r2_g74 - 2 x_r2_g77 - 1 x_r2_g91 - 1 x_r2_g98 - 2 x_r2_g110 - 2 x_r2_g111 - 1 x_r2_g139 - 1 x_r2_g142 - 1 x_r2_g149 - 1 x_r2_g152 - 1 x_r2_g158 - 1 x_r2_g159 - 1 x_r2_g162 - 1 x_r3_g3 - 2 x_r3_g15 - 1 x_r3_g16 - 1 x_r3_g27 - 1 x_r3_g34 - 1 x_r3_g36 - 1 x_r3_g51 - 1 x_r3_g53 - 2 x_r3_g56 - 1 x_r3_g57 - 2 x_r3_g65 - 1 x_r3_g77 - 1 x_r3_g79 - 1 x_r3_g103 - 1 x_r3_g106 - 1 x_r3_g111 - 1 x_r3_g113 - 2 x_r3_g121 - 2 x_r3_g123 - 2 x_r3_g124 - 1 x_r3_g125 - 1 x_r3_g128 - 1 x_r3_g138 - 1 x_r3_g144 - 2 x_r3_g145 - 2 x_r3_g159 - 1 x_r3_g162 - 1 x_r3_g165 - 1 p_r0_g17_h101_t83 - 1 p_r0_g34_h118_t83 - 1 p_r0_g37_h121_t83 - 1 p_r0_g47_h131_t83 - 1 p_r0_g60_h144_t83 - 1 p_r0_g69_h153_t83 - 1 p_r0_g84_h1_t83 - 1 p_r0_g87_h4_t83 - 1 p_r0_g97_h14_t83 - 1 p_r0_g118_h35_t83 - 1 p_r0_g130_h47_t83 - 1 p_r0_g131_h48_t83 - 1 p_r0_g143_h60_t83 - 1 p_r0_g153_h70_t83 - 1 p_r0_g162_h79_t83 - 1 p_r1_g30_h114_t83 - 1 p_r1_g59_h143_t83 - 1 p_r1_g62_h146_t83 - 1 p_r1_g91_h8_t83 - 1 p_r1_g96_h13_t83 - 1 p_r1_g108_h25_t83 - 1 p_r1_g113_h30_t83 - 1 p_r1_g114_h31_t83 - 1 p_r1_g121_h38_t83 - 1 p_r2_g2_h86_t83 - 1 p_r2_g74_h158_t83 - 1 p_r2_g80_h164_t83 - 1 p_r2_g149_h66_t83 - 1 p_r2_g163_h80_t83 - 1 p_r2_g165_h82_t83 - 1 p_r3_g7_h91_t83 - 1 p_r3_g19_h103_t83 - 1 p_r3_g27_h111_t83 - 1 p_r3_g91_h8_t83 - 1 p_r3_g94_h11_t83 - 1 p_r3_g162_h79_t83 = -63
 abs_pos_83: d_83 - u_83 <= 0
 abs_neg_83: - d_83 - u_83 <= 0
 max_def_83: u_83 - M <= 0
 cap_83: u_83 <= 1
 tier_M_cap: M <= 3
 weighted_cap: 1 u_1 + 10 u_2 + 10 u_3 + 1 u_4 + 1 u_7 + 1 u_9 + 1 u_10 + 1 u_12 + 1 u_13 + 1 u_16 + 1 u_18 + 1 u_19 + 1 u_20 + 1 u_21 + 1 u_22 + 1 u_23 + 1 u_26 + 1 u_29 + 1 u_36 + 1 u_37 + 1 u_38 + 1 u_39 + 1 u_44 + 1 u_50 + 1 u_58 + 1 u_62 + 1 u_64 + 1 u_69 + 1 u_73 + 1 u_75 + 1 u_83 <= 71
 flip_def: 1 F - 1 x_r0_g1 - 1 x_r0_g4 - 1 x_r0_g9 - 1 x_r0_g17 - 1 x_r0_g22 - 1 x_r0_g23 - 1 x_r0_g26 - 1 x_r0_g28 - 1 x_r0_g32 - 1 x_r0_g35 - 1 x_r0_g69 - 1 x_r0_g79 - 1 x_r0_g84 - 1 x_r0_g87 - 1 x_r0_g97 - 1 x_r0_g121 - 1 x_r0_g130 - 1 x_r0_g144 - 1 x_r0_g153 - 1 x_r0_g162 - 1 x_r1_g8 - 1 x_r1_g13 - 1 x_r1_g17 - 1 x_r1_g25 - 1 x_r1_g30 - 1 x_r1_g35 - 1 x_r1_g59 - 1 x_r1_g67 - 1 x_r1_g75 - 1 x_r1_g76 - 1 x_r1_g83 - 1 x_r1_g93 - 1 x_r1_g110 - 1 x_r1_g111 - 1 x_r1_g117 - 1 x_r1_g121 - 1 x_r1_g126 - 1 x_r1_g143 - 1 x_r1_g157 - 1 x_r1_g161 - 1 x_r2_g2 - 1 x_r2_g29 - 1 x_r2_g62 - 1 x_r2_g66 - 1 x_r2_g67 - 1 x_r2_g73 - 1 x_r2_g77 - 1 x_r2_g80 - 1 x_r2_g91 - 1 x_r2_g95 - 1 x_r2_g100 - 1 x_r2_g107 - 1 x_r2_g111 - 1 x_r2_g142 - 1 x_r2_g149 - 1 x_r2_g155 - 1 x_r2_g158 - 1 x_r2_g159 - 1 x_r2_g164 - 1 x_r2_g165 - 1 x_r3_g3 - 1 x_r3_g7 - 1 x_r3_g11 - 1 x_r3_g15 - 1 x_r3_g16 - 1 x_r3_g33 - 1 x_r3_g34 - 1 x_r3_g51 - 1 x_r3_g56 - 1 x_r3_g57 - 1 x_r3_g72 - 1 x_r3_g79 - 1 x_r3_g91 - 1 x_r3_g103 - 1 x_r3_g113 - 1 x_r3_g121 - 1 x_r3_g125 - 1 x_r3_g147 - 1 x_r3_g159 - 1 x_r3_g165 + 1 x_r0_g7 + 1 x_r0_g14 + 1 x_r0_g20 + 1 x_r0_g25 + 1 x_r0_g34 + 1 x_r0_g36 + 1 x_r0_g37 + 1 x_r0_g47 + 1 x_r0_g48 + 1 x_r0_g54 + 1 x_r0_g60 + 1 x_r0_g67 + 1 x_r0_g68 + 1 x_r0_g70 + 1 x_r0_g101 + 1 x_r0_g102 + 1 x_r0_g118 + 1 x_r0_g123 + 1 x_r0_g131 + 1 x_r0_g143 + 1 x_r1_g11 + 1 x_r1_g15 + 1 x_r1_g31 + 1 x_r1_g38 + 1 x_r1_g53 + 1 x_r1_g62 + 1 x_r1_g64 + 1 x_r1_g80 + 1 x_r1_g90 + 1 x_r1_g91 + 1 x_r1_g96 + 1 x_r1_g107 + 1 x_r1_g108 + 1 x_r1_g113 + 1 x_r1_g114 + 1 x_r1_g128 + 1 x_r1_g132 + 1 x_r1_g146 + 1 x_r1_g154 + 1 x_r1_g155 + 1 x_r2_g18 + 1 x_r2_g30 + 1 x_r2_g34 + 1 x_r2_g48 + 1 x_r2_g60 + 1 x_r2_g64 + 1 x_r2_g70 + 1 x_r2_g74 + 1 x_r2_g82 + 1 x_r2_g86 + 1 x_r2_g98 + 1 x_r2_g110 + 1 x_r2_g120 + 1 x_r2_g128 + 1 x_r2_g135 + 1 x_r2_g136 + 1 x_r2_g139 + 1 x_r2_g152 + 1 x_r2_g162 + 1 x_r2_g163 + 1 x_r3_g8 + 1 x_r3_g13 + 1 x_r3_g18 + 1 x_r3_g19 + 1 x_r3_g27 + 1 x_r3_g36 + 1 x_r3_g53 + 1 x_r3_g65 + 1 x_r3_g77 + 1 x_r3_g94 + 1 x_r3_g106 + 1 x_r3_g111 + 1 x_r3_g123 + 1 x_r3_g124 + 1 x_r3_g128 + 1 x_r3_g138 + 1 x_r3_g144 + 1 x_r3_g145 + 1 x_r3_g154 + 1 x_r3_g162 = 80
 flip_cap: F <= 6
Bounds
 d_1 free
 0 <= u_1
 d_2 free
 0 <= u_2
 d_3 free
 0 <= u_3
 d_4 free
 0 <= u_4
 d_7 free
 0 <= u_7
 d_9 free
 0 <= u_9
 d_10 free
 0 <= u_10
 d_12 free
 0 <= u_12
 d_13 free
 0 <= u_13
 d_16 free
 0 <= u_16
 d_18 free
 0 <= u_18
 d_19 free
 0 <= u_19
 d_20 free
 0 <= u_20
 d_21 free
 0 <= u_21
 d_22 free
 0 <= u_22
 d_23 free
 0 <= u_23
 d_26 free
 0 <= u_26
 d_29 free
 0 <= u_29
 d_36 free
 0 <= u_36
 d_37 free
 0 <= u_37
 d_38 free
 0 <= u_38
 d_39 free
 0 <= u_39
 d_44 free
 0 <= u_44
 d_50 free
 0 <= u_50
 d_58 free
 0 <= u_58
 d_62 free
 0 <= u_62
 d_64 free
 0 <= u_64
 d_69 free
 0 <= u_69
 d_73 free
 0 <= u_73
 d_75 free
 0 <= u_75
 d_83 free
 0 <= u_83
 0 <= M
 0 <= F
Binaries
 x_r0_g1
 x_r0_g4
 x_r0_g7
 x_r0_g9
 x_r0_g14
 x_r0_g17
 x_r0_g20
 x_r0_g22
 x_r0_g23
 x_r0_g25
 x_r0_g26
 x_r0_g28
 x_r0_g32
 x_r0_g34
 x_r0_g35
 x_r0_g36
 x_r0_g37
 x_r0_g47
 x_r0_g48
 x_r0_g54
 x_r0_g60
 x_r0_g67
 x_r0_g68
 x_r0_g69
 x_r0_g70
 x_r0_g79
 x_r0_g84
 x_r0_g87
 x_r0_g97
 x_r0_g101
 x_r0_g102
 x_r0_g118
 x_r0_g121
 x_r0_g123
 x_r0_g130
 x_r0_g131
 x_r0_g143
 x_r0_g144
 x_r0_g153
 x_r0_g162
 x_r1_g8
 x_r1_g11
 x_r1_g13
 x_r1_g15
 x_r1_g17
 x_r1_g25
 x_r1_g30
 x_r1_g31
 x_r1_g35
 x_r1_g38
 x_r1_g53
 x_r1_g59
 x_r1_g62
 x_r1_g64
 x_r1_g67
 x_r1_g75
 x_r1_g76
 x_r1_g80
 x_r1_g83
 x_r1_g90
 x_r1_g91
 x_r1_g93
 x_r1_g96
 x_r1_g107
 x_r1_g108
 x_r1_g110
 x_r1_g111
 x_r1_g113
 x_r1_g114
 x_r1_g117
 x_r1_g121
 x_r1_g126
 x_r1_g128
 x_r1_g132
 x_r1_g143
 x_r1_g146
 x_r1_g154
 x_r1_g155
 x_r1_g157
 x_r1_g161
 x_r2_g2
 x_r2_g18
 x_r2_g29
 x_r2_g30
 x_r2_g34
 x_r2_g48
 x_r2_g60
 x_r2_g62
 x_r2_g64
 x_r2_g66
 x_r2_g67
 x_r2_g70
 x_r2_g73
 x_r2_g74
 x_r2_g77
 x_r2_g80
 x_r2_g82
 x_r2_g86
 x_r2_g91
 x_r2_g95
 x_r2_g98
 x_r2_g100
 x_r2_g107
 x_r2_g110
 x_r2_g111
 x_r2_g120
 x_r2_g128
 x_r2_g135
 x_r2_g136
 x_r2_g139
 x_r2_g142
 x_r2_g149
 x_r2_g152
 x_r2_g155
 x_r2_g158
 x_r2_g159
 x_r2_g162
 x_r2_g163
 x_r2_g164
 x_r2_g165
 x_r3_g3
 x_r3_g7
 x_r3_g8
 x_r3_g11
 x_r3_g13
 x_r3_g15
 x_r3_g16
 x_r3_g18
 x_r3_g19
 x_r3_g27
 x_r3_g33
 x_r3_g34
 x_r3_g36
 x_r3_g51
 x_r3_g53
 x_r3_g56
 x_r3_g57
 x_r3_g65
 x_r3_g72
 x_r3_g77
 x_r3_g79
 x_r3_g91
 x_r3_g94
 x_r3_g103
 x_r3_g106
 x_r3_g111
 x_r3_g113
 x_r3_g121
 x_r3_g123
 x_r3_g124
 x_r3_g125
 x_r3_g128
 x_r3_g138
 x_r3_g144
 x_r3_g145
 x_r3_g147
 x_r3_g154
 x_r3_g159
 x_r3_g162
 x_r3_g165
 p_r0_g23_h22_t1
 p_r0_g26_h25_t1
 p_r0_g35_h34_t1
 p_r0_g36_h35_t1
 p_r0_g37_h36_t1
 p_r0_g48_h47_t1
 p_r0_g68_h67_t1
 p_r0_g69_h68_t1
 p_r0_g70_h69_t1
 p_r0_g102_h101_t1
 p_r0_g131_h130_t1
 p_r0_g144_h143_t1
 p_r1_g31_h30_t1
 p_r1_g76_h75_t1
 p_r1_g91_h90_t1
 p_r1_g108_h107_t1
 p_r1_g111_h110_t1
 p_r1_g114_h113_t1
 p_r1_g155_h154_t1
 p_r2_g30_h29_t1
 p_r2_g67_h66_t1
 p_r2_g74_h73_t1
 p_r2_g111_h110_t1
 p_r2_g136_h135_t1
 p_r2_g159_h158_t1
 p_r2_g163_h162_t1
 p_r2_g164_h163_t1
 p_r2_g165_h164_t1
 p_r3_g8_h7_t1
 p_r3_g16_h15_t1
 p_r3_g19_h18_t1
 p_r3_g34_h33_t1
 p_r3_g57_h56_t1
 p_r3_g124_h123_t1
 p_r3_g125_h124_t1
 p_r3_g145_h144_t1
 p_r0_g9_h7_t2
 p_r0_g22_h20_t2
 p_r0_g25_h23_t2
 p_r0_g28_h26_t2
 p_r0_g34_h32_t2
 p_r0_g36_h34_t2
 p_r0_g37_h35_t2
 p_r0_g69_h67_t2
 p_r0_g70_h68_t2
 p_r0_g123_h121_t2
 p_r1_g13_h11_t2
 p_r1_g15_h13_t2
 p_r1_g17_h15_t2
 p_r1_g64_h62_t2
 p_r1_g93_h91_t2
 p_r1_g110_h108_t2
 p_r1_g113_h111_t2
 p_r1_g128_h126_t2
 p_r1_g157_h155_t2
 p_r2_g62_h60_t2
 p_r2_g64_h62_t2
 p_r2_g66_h64_t2
 p_r2_g82_h80_t2
 p_r2_g100_h98_t2
 p_r2_g164_h162_t2
 p_r2_g165_h163_t2
 p_r3_g13_h11_t2
 p_r3_g15_h13_t2
 p_r3_g18_h16_t2
 p_r3_g36_h34_t2
 p_r3_g53_h51_t2
 p_r3_g79_h77_t2
 p_r3_g113_h111_t2
 p_r3_g123_h121_t2
 p_r3_g125_h123_t2
 p_r3_g147_h145_t2
 p_r0_g4_h1_t3
 p_r0_g7_h4_t3
 p_r0_g17_h14_t3
 p_r0_g20_h17_t3
 p_r0_g23_h20_t3
 p_r0_g25_h22_t3
 p_r0_g26_h23_t3
 p_r0_g28_h25_t3
 p_r0_g35_h32_t3
 p_r0_g37_h34_t3
 p_r0_g70_h67_t3
 p_r0_g87_h84_t3
 p_r0_g121_h118_t3
 p_r1_g11_h8_t3
 p_r1_g38_h35_t3
 p_r1_g62_h59_t3
 p_r1_g67_h64_t3
 p_r1_g83_h80_t3
 p_r1_g93_h90_t3
 p_r1_g96_h93_t3
 p_r1_g110_h107_t3
 p_r1_g111_h108_t3
 p_r1_g113_h110_t3
 p_r1_g114_h111_t3
 p_r1_g117_h114_t3
 p_r1_g146_h143_t3
 p_r1_g157_h154_t3
 p_r2_g67_h64_t3
 p_r2_g70_h67_t3
 p_r2_g73_h70_t3
 p_r2_g77_h74_t3
 p_r2_g80_h77_t3
 p_r2_g98_h95_t3
 p_r2_g110_h107_t3
 p_r2_g139_h136_t3
 p_r2_g142_h139_t3
 p_r2_g152_h149_t3
 p_r2_g155_h152_t3
 p_r2_g158_h155_t3
 p_r2_g162_h159_t3
 p_r2_g165_h162_t3
 p_r3_g11_h8_t3
 p_r3_g16_h13_t3
 p_r3_g18_h15_t3
 p_r3_g19_h16_t3
 p_r3_g36_h33_t3
 p_r3_g56_h53_t3
 p_r3_g94_h91_t3
 p_r3_g106_h103_t3
 p_r3_g124_h121_t3
 p_r3_g128_h125_t3
 p_r3_g147_h144_t3
 p_r3_g162_h159_t3
 p_r3_g165_h162_t3
 p_r0_g26_h22_t4
 p_r0_g32_h28_t4
 p_r0_g36_h32_t4
 p_r0_g101_h97_t4
 p_r1_g15_h11_t4
 p_r1_g17_h13_t4
 p_r1_g35_h31_t4
 p_r1_g80_h76_t4
 p_r1_g111_h107_t4
 p_r1_g114_h110_t4
 p_r1_g117_h113_t4
 p_r1_g121_h117_t4
 p_r1_g132_h128_t4
 p_r1_g161_h157_t4
 p_r2_g2_h165_t4
 p_r2_g34_h30_t4
 p_r2_g64_h60_t4
 p_r2_g66_h62_t4
 p_r2_g70_h66_t4
 p_r2_g74_h70_t4
 p_r2_g77_h73_t4
 p_r2_g86_h82_t4
 p_r2_g95_h91_t4
 p_r2_g111_h107_t4
 p_r2_g139_h135_t4
 p_r2_g159_h155_t4
 p_r2_g162_h158_t4
 p_r2_g163_h159_t4
 p_r3_g7_h3_t4
 p_r3_g11_h7_t4
 p_r3_g15_h11_t4
 p_r3_g19_h15_t4
 p_r3_g57_h53_t4
 p_r3_g125_h121_t4
 p_r3_g128_h124_t4
 p_r0_g14_h7_t7
 p_r0_g32_h25_t7
 p_r0_g35_h28_t7
 p_r0_g54_h47_t7
 p_r0_g67_h60_t7
 p_r0_g130_h123_t7
 p_r1_g15_h8_t7
 p_r1_g38_h31_t7
 p_r1_g83_h76_t7
 p_r1_g90_h83_t7
 p_r1_g114_h107_t7
 p_r1_g117_h110_t7
 p_r1_g121_h114_t7
 p_r1_g128_h121_t7
 p_r1_g161_h154_t7
 p_r2_g2_h162_t7
 p_r2_g67_h60_t7
 p_r2_g73_h66_t7
 p_r2_g74_h67_t7
 p_r2_g77_h70_t7
 p_r2_g80_h73_t7
 p_r2_g98_h91_t7
 p_r2_g107_h100_t7
 p_r2_g135_h128_t7
 p_r2_g142_h135_t7
 p_r2_g149_h142_t7
 p_r2_g159_h152_t7
 p_r2_g162_h155_t7
 p_r2_g165_h158_t7
 p_r3_g15_h8_t7
 p_r3_g18_h11_t7
 p_r3_g34_h27_t7
 p_r3_g72_h65_t7
 p_r3_g79_h72_t7
 p_r3_g113_h106_t7
 p_r3_g128_h121_t7
 p_r3_g145_h138_t7
 p_r3_g154_h147_t7
 p_r0_g4_h162_t9
 p_r0_g23_h14_t9
 p_r0_g26_h17_t9
 p_r0_g32_h23_t9
 p_r0_g34_h25_t9
 p_r0_g35_h26_t9
 p_r0_g37_h28_t9
 p_r0_g69_h60_t9
 p_r0_g79_h70_t9
 p_r0_g130_h121_t9
 p_r0_g153_h144_t9
 p_r0_g162_h153_t9
 p_r1_g17_h8_t9
 p_r1_g62_h53_t9
 p_r1_g76_h67_t9
 p_r1_g117_h108_t9
 p_r1_g126_h117_t9
 p_r1_g155_h146_t9
 p_r2_g73_h64_t9
 p_r2_g82_h73_t9
 p_r2_g86_h77_t9
 p_r2_g91_h82_t9
 p_r2_g95_h86_t9
 p_r2_g100_h91_t9
 p_r2_g107_h98_t9
 p_r2_g120_h111_t9
 p_r2_g158_h149_t9
 p_r2_g164_h155_t9
 p_r3_g7_h165_t9
 p_r3_g16_h7_t9
 p_r3_g27_h18_t9
 p_r3_g36_h27_t9
 p_r3_g65_h56_t9
 p_r3_g103_h94_t9
 p_r3_g147_h138_t9
 p_r3_g154_h145_t9
 p_r0_g14_h4_t10
 p_r0_g17_h7_t10
 p_r0_g32_h22_t10
 p_r0_g35_h25_t10
 p_r0_g36_h26_t10
 p_r0_g47_h37_t10
 p_r0_g70_h60_t10
 p_r0_g79_h69_t10
 p_r0_g97_h87_t10
 p_r0_g131_h121_t10
 p_r0_g153_h143_t10
 p_r1_g25_h15_t10
 p_r1_g35_h25_t10
 p_r1_g90_h80_t10
 p_r1_g93_h83_t10
 p_r1_g117_h107_t10
 p_r1_g121_h111_t10
 p_r2_g2_h159_t10
 p_r2_g70_h60_t10
 p_r2_g74_h64_t10
 p_r2_g77_h67_t10
 p_r2_g80_h70_t10
 p_r2_g110_h100_t10
 p_r2_g120_h110_t10
 p_r2_g149_h139_t10
 p_r2_g152_h142_t10
 p_r2_g159_h149_t10
 p_r2_g162_h152_t10
 p_r2_g165_h155_t10
 p_r3_g8_h165_t10
 p_r3_g13_h3_t10
 p_r3_g18_h8_t10
 p_r3_g113_h103_t10
 p_r3_g121_h111_t10
 p_r3_g123_h113_t10
 p_r3_g138_h128_t10
 p_r3_g154_h144_t10
 p_r0_g7_h162_t12
 p_r0_g26_h14_t12
 p_r0_g32_h20_t12
 p_r0_g34_h22_t12
 p_r0_g35_h23_t12
 p_r0_g37_h25_t12
 p_r0_g47_h35_t12
 p_r0_g48_h36_t12
 p_r0_g60_h48_t12
 p_r0_g79_h67_t12
 p_r0_g130_h118_t12
 p_r0_g143_h131_t12
 p_r1_g25_h13_t12
 p_r1_g76_h64_t12
 p_r1_g108_h96_t12
 p_r1_g126_h114_t12
 p_r1_g155_h143_t12
 p_r2_g30_h18_t12
 p_r2_g60_h48_t12
 p_r2_g74_h62_t12
 p_r2_g82_h70_t12
 p_r2_g86_h74_t12
 p_r2_g98_h86_t12
 p_r2_g107_h95_t12
 p_r2_g110_h98_t12
 p_r2_g164_h152_t12
 p_r3_g7_h162_t12
 p_r3_g15_h3_t12
 p_r3_g19_h7_t12
 p_r3_g27_h15_t12
 p_r3_g65_h53_t12
 p_r3_g77_h65_t12
 p_r3_g91_h79_t12
 p_r3_g103_h91_t12
 p_r3_g106_h94_t12
 p_r3_g123_h111_t12
 p_r3_g125_h113_t12
 p_r3_g159_h147_t12
 p_r0_g14_h1_t13
 p_r0_g17_h4_t13
 p_r0_g20_h7_t13
 p_r0_g22_h9_t13
 p_r0_g35_h22_t13
 p_r0_g36_h23_t13
 p_r0_g47_h34_t13
 p_r0_g48_h35_t13
 p_r0_g60_h47_t13
 p_r0_g67_h54_t13
 p_r0_g97_h84_t13
 p_r0_g131_h118_t13
 p_r0_g143_h130_t13
 p_r0_g144_h131_t13
 p_r1_g30_h17_t13
 p_r1_g38_h25_t13
 p_r1_g75_h62_t13
 p_r1_g80_h67_t13
 p_r1_g93_h80_t13
 p_r1_g96_h83_t13
 p_r1_g121_h108_t13
 p_r1_g126_h113_t13
 p_r2_g73_h60_t13
 p_r2_g77_h64_t13
 p_r2_g80_h67_t13
 p_r2_g86_h73_t13
 p_r2_g95_h82_t13
 p_r2_g111_h98_t13
 p_r2_g120_h107_t13
 p_r2_g149_h136_t13
 p_r2_g152_h139_t13
 p_r2_g155_h142_t13
 p_r2_g162_h149_t13
 p_r2_g165_h152_t13
 p_r3_g8_h162_t13
 p_r3_g11_h165_t13
 p_r3_g16_h3_t13
 p_r3_g124_h111_t13
 p_r3_g138_h125_t13
 p_r0_g17_h1_t16
 p_r0_g20_h4_t16
 p_r0_g23_h7_t16
 p_r0_g25_h9_t16
 p_r0_g36_h20_t16
 p_r0_g48_h32_t16
 p_r0_g70_h54_t16
 p_r0_g84_h68_t16
 p_r0_g118_h102_t16
 p_r1_g31_h15_t16
 p_r1_g75_h59_t16
 p_r1_g80_h64_t16
 p_r1_g83_h67_t16
 p_r1_g91_h75_t16
 p_r1_g96_h80_t16
 p_r1_g107_h91_t16
 p_r1_g126_h110_t16
 p_r2_g18_h2_t16
 p_r2_g34_h18_t16
 p_r2_g64_h48_t16
 p_r2_g80_h64_t16
 p_r2_g82_h66_t16
 p_r2_g86_h70_t16
 p_r2_g98_h82_t16
 p_r2_g107_h91_t16
 p_r2_g111_h95_t16
 p_r2_g136_h120_t16
 p_r2_g152_h136_t16
 p_r2_g155_h139_t16
 p_r2_g158_h142_t16
 p_r2_g165_h149_t16
 p_r3_g3_h154_t16
 p_r3_g8_h159_t16
 p_r3_g11_h162_t16
 p_r3_g19_h3_t16
 p_r3_g27_h11_t16
 p_r3_g34_h18_t16
 p_r3_g72_h56_t16
 p_r3_g144_h128_t16
 p_r3_g154_h138_t16
 p_r0_g4_h153_t18
 p_r0_g22_h4_t18
 p_r0_g25_h7_t18
 p_r0_g32_h14_t18
 p_r0_g35_h17_t18
 p_r0_g54_h36_t18
 p_r0_g87_h69_t18
 p_r0_g97_h79_t18
 p_r0_g102_h84_t18
 p_r0_g162_h144_t18
 p_r1_g8_h157_t18
 p_r1_g31_h13_t18
 p_r1_g35_h17_t18
 p_r1_g53_h35_t18
 p_r1_g80_h62_t18
 p_r1_g93_h75_t18
 p_r1_g108_h90_t18
 p_r1_g111_h93_t18
 p_r1_g114_h96_t18
 p_r1_g126_h108_t18
 p_r1_g128_h110_t18
 p_r1_g132_h114_t18
 p_r1_g146_h128_t18
 p_r1_g161_h143_t18
 p_r2_g48_h30_t18
 p_r2_g66_h48_t18
 p_r2_g80_h62_t18
 p_r2_g82_h64_t18
 p_r2_g91_h73_t18
 p_r2_g95_h77_t18
 p_r2_g98_h80_t18
 p_r2_g100_h82_t18
 p_r2_g128_h110_t18
 p_r3_g13_h162_t18
 p_r3_g16_h165_t18
 p_r3_g33_h15_t18
 p_r3_g34_h16_t18
 p_r3_g36_h18_t18
 p_r3_g51_h33_t18
 p_r3_g121_h103_t18
 p_r3_g124_h106_t18
 p_r3_g162_h144_t18
 p_r3_g165_h147_t18
 p_r0_g14_h162_t19
 p_r0_g20_h1_t19
 p_r0_g23_h4_t19
 p_r0_g26_h7_t19
 p_r0_g28_h9_t19
 p_r0_g36_h17_t19
 p_r0_g47_h28_t19
 p_r0_g54_h35_t19
 p_r0_g67_h48_t19
 p_r0_g79_h60_t19
 p_r0_g87_h68_t19
 p_r0_g121_h102_t19
 p_r0_g162_h143_t19
 p_r1_g13_h161_t19
 p_r1_g30_h11_t19
 p_r1_g83_h64_t19
 p_r1_g110_h91_t19
 p_r1_g126_h107_t19
 p_r1_g132_h113_t19
 p_r2_g48_h29_t19
 p_r2_g67_h48_t19
 p_r2_g86_h67_t19
 p_r2_g110_h91_t19
 p_r2_g139_h120_t19
 p_r2_g155_h136_t19
 p_r2_g158_h139_t19
 p_r3_g11_h159_t19
 p_r3_g27_h8_t19
 p_r3_g34_h15_t19
 p_r3_g53_h34_t19
 p_r3_g72_h53_t19
 p_r3_g91_h72_t19
 p_r3_g113_h94_t19
 p_r3_g125_h106_t19
 p_r3_g144_h125_t19
 p_r3_g147_h128_t19
 p_r0_g34_h14_t20
 p_r0_g37_h17_t20
 p_r0_g48_h28_t20
 p_r0_g54_h34_t20
 p_r0_g67_h47_t20
 p_r0_g68_h48_t20
 p_r0_g87_h67_t20
 p_r0_g121_h101_t20
 p_r0_g143_h123_t20
 p_r1_g8_h155_t20
 p_r1_g31_h11_t20
 p_r1_g35_h15_t20
 p_r1_g96_h76_t20
 p_r1_g110_h90_t20
 p_r1_g111_h91_t20
 p_r1_g113_h93_t20
 p_r1_g128_h108_t20
 p_r1_g146_h126_t20
 p_r2_g2_h149_t20
 p_r2_g18_h165_t20
 p_r2_g80_h60_t20
 p_r2_g82_h62_t20
 p_r2_g86_h66_t20
 p_r2_g100_h80_t20
 p_r2_g111_h91_t20
 p_r2_g120_h100_t20
 p_r2_g155_h135_t20
 p_r2_g159_h139_t20
 p_r2_g162_h142_t20
 p_r3_g7_h154_t20
 p_r3_g15_h162_t20
 p_r3_g18_h165_t20
 p_r3_g27_h7_t20
 p_r3_g33_h13_t20
 p_r3_g36_h16_t20
 p_r3_g53_h33_t20
 p_r3_g56_h36_t20
 p_r3_g77_h57_t20
 p_r3_g111_h91_t20
 p_r3_g123_h103_t20
 p_r3_g144_h124_t20
 p_r3_g145_h125_t20
 p_r3_g165_h145_t20
 p_r0_g7_h153_t21
 p_r0_g22_h1_t21
 p_r0_g25_h4_t21
 p_r0_g28_h7_t21
 p_r0_g35_h14_t21
 p_r0_g47_h26_t21
 p_r0_g68_h47_t21
 p_r0_g69_h48_t21
 p_r0_g118_h97_t21
 p_r0_g123_h102_t21
 p_r0_g144_h123_t21
 p_r1_g8_h154_t21
 p_r1_g11_h157_t21
 p_r1_g15_h161_t21
 p_r1_g38_h17_t21
 p_r1_g59_h38_t21
 p_r1_g80_h59_t21
 p_r1_g83_h62_t21
 p_r1_g96_h75_t21
 p_r1_g111_h90_t21
 p_r1_g114_h93_t21
 p_r1_g117_h96_t21
 p_r1_g128_h107_t21
 p_r1_g132_h111_t21
 p_r2_g18_h164_t21
 p_r2_g91_h70_t21
 p_r2_g95_h74_t21
 p_r2_g98_h77_t21
 p_r2_g107_h86_t21
 p_r2_g128_h107_t21
 p_r2_g149_h128_t21
 p_r2_g163_h142_t21
 p_r3_g8_h154_t21
 p_r3_g13_h159_t21
 p_r3_g16_h162_t21
 p_r3_g19_h165_t21
 p_r3_g34_h13_t21
 p_r3_g36_h15_t21
 p_r3_g57_h36_t21
 p_r3_g72_h51_t21
 p_r3_g77_h56_t21
 p_r3_g124_h103_t21
 p_r3_g144_h123_t21
 p_r3_g145_h124_t21
 p_r3_g159_h138_t21
 p_r3_g165_h144_t21
 p_r0_g17_h162_t22
 p_r0_g23_h1_t22
 p_r0_g26_h4_t22
 p_r0_g36_h14_t22
 p_r0_g47_h25_t22
 p_r0_g48_h26_t22
 p_r0_g54_h32_t22
 p_r0_g69_h47_t22
 p_r0_g70_h48_t22
 p_r0_g101_h79_t22
 p_r0_g123_h101_t22
 p_r0_g143_h121_t22
 p_r0_g153_h131_t22
 p_r1_g30_h8_t22
 p_r1_g35_h13_t22
 p_r1_g53_h31_t22
 p_r1_g75_h53_t22
 p_r1_g113_h91_t22
 p_r1_g132_h110_t22
 p_r1_g143_h121_t22
 p_r1_g154_h132_t22
 p_r2_g18_h163_t22
 p_r2_g70_h48_t22
 p_r2_g82_h60_t22
 p_r2_g86_h64_t22
 p_r2_g95_h73_t22
 p_r2_g120_h98_t22
 p_r2_g142_h120_t22
 p_r2_g158_h136_t22
 p_r2_g164_h142_t22
 p_r3_g33_h11_t22
 p_r3_g56_h34_t22
 p_r3_g79_h57_t22
 p_r3_g94_h72_t22
 p_r3_g113_h91_t22
 p_r3_g125_h103_t22
 p_r3_g128_h106_t22
 p_r3_g145_h123_t22
 p_r3_g147_h125_t22
 p_r0_g9_h153_t23
 p_r0_g32_h9_t23
 p_r0_g37_h14_t23
 p_r0_g48_h25_t23
 p_r0_g60_h37_t23
 p_r0_g70_h47_t23
 p_r0_g102_h79_t23
 p_r0_g144_h121_t23
 p_r0_g153_h130_t23
 p_r1_g11_h155_t23
 p_r1_g13_h157_t23
 p_r1_g17_h161_t23
 p_r1_g31_h8_t23
 p_r1_g38_h15_t23
 p_r1_g53_h30_t23
 p_r1_g76_h53_t23
 p_r1_g90_h67_t23
 p_r1_g113_h90_t23
 p_r1_g114_h91_t23
 p_r1_g155_h132_t23
 p_r2_g18_h162_t23
 p_r2_g100_h77_t23
 p_r2_g158_h135_t23
 p_r2_g159_h136_t23
 p_r2_g162_h139_t23
 p_r2_g165_h142_t23
 p_r3_g3_h147_t23
 p_r3_g15_h159_t23
 p_r3_g18_h162_t23
 p_r3_g34_h11_t23
 p_r3_g36_h13_t23
 p_r3_g56_h33_t23
 p_r3_g57_h34_t23
 p_r3_g79_h56_t23
 p_r3_g144_h121_t23
 p_r3_g147_h124_t23
 p_r0_g35_h9_t26
 p_r0_g48_h22_t26
 p_r0_g54_h28_t26
 p_r0_g60_h34_t26
 p_r0_g123_h97_t26
 p_r0_g144_h118_t26
 p_r1_g13_h154_t26
 p_r1_g64_h38_t26
 p_r1_g90_h64_t26
 p_r1_g93_h67_t26
 p_r1_g117_h91_t26
 p_r1_g143_h117_t26
 p_r1_g154_h128_t26
 p_r2_g18_h159_t26
 p_r2_g60_h34_t26
 p_r2_g74_h48_t26
 p_r2_g86_h60_t26
 p_r2_g100_h74_t26
 p_r2_g136_h110_t26
 p_r2_g162_h136_t26
 p_r2_g165_h139_t26
 p_r3_g3_h144_t26
 p_r3_g13_h154_t26
 p_r3_g18_h159_t26
 p_r3_g33_h7_t26
 p_r3_g34_h8_t26
 p_r3_g53_h27_t26
 p_r3_g77_h51_t26
 p_r3_g79_h53_t26
 p_r3_g91_h65_t26
 p_r3_g103_h77_t26
 p_r3_g147_h121_t26
 p_r3_g154_h128_t26
 p_r0_g36_h7_t29
 p_r0_g54_h25_t29
 p_r0_g97_h68_t29
 p_r0_g130_h101_t29
 p_r0_g131_h102_t29
 p_r1_g8_h146_t29
 p_r1_g17_h155_t29
 p_r1_g59_h30_t29
 p_r1_g64_h35_t29
 p_r1_g67_h38_t29
 p_r1_g91_h62_t29
 p_r1_g93_h64_t29
 p_r1_g96_h67_t29
 p_r1_g143_h114_t29
 p_r1_g146_h117_t29
 p_r1_g155_h126_t29
 p_r1_g157_h128_t29
 p_r1_g161_h132_t29
 p_r2_g77_h48_t29
 p_r2_g91_h62_t29
 p_r2_g95_h66_t29
 p_r2_g111_h82_t29
 p_r2_g120_h91_t29
 p_r2_g136_h107_t29
 p_r2_g139_h110_t29
 p_r2_g149_h120_t29
 p_r2_g164_h135_t29
 p_r2_g165_h136_t29
 p_r3_g7_h145_t29
 p_r3_g16_h154_t29
 p_r3_g27_h165_t29
 p_r3_g36_h7_t29
 p_r3_g56_h27_t29
 p_r3_g65_h36_t29
 p_r3_g94_h65_t29
 p_r3_g106_h77_t29
 p_r3_g123_h94_t29
 p_r3_g154_h125_t29
 p_r0_g22_h153_t36
 p_r0_g37_h1_t36
 p_r0_g68_h32_t36
 p_r0_g70_h34_t36
 p_r0_g84_h48_t36
 p_r0_g123_h87_t36
 p_r1_g15_h146_t36
 p_r1_g30_h161_t36
 p_r1_g53_h17_t36
 p_r1_g67_h31_t36
 p_r1_g111_h75_t36
 p_r1_g126_h90_t36
 p_r1_g132_h96_t36
 p_r1_g143_h107_t36
 p_r1_g146_h110_t36
 p_r1_g157_h121_t36
 p_r2_g18_h149_t36
 p_r2_g34_h165_t36
 p_r2_g66_h30_t36
 p_r2_g70_h34_t36
 p_r2_g98_h62_t36
 p_r2_g100_h64_t36
 p_r2_g110_h74_t36
 p_r2_g136_h100_t36
 p_r2_g164_h128_t36
 p_r3_g7_h138_t36
 p_r3_g13_h144_t36
 p_r3_g16_h147_t36
 p_r3_g34_h165_t36
 p_r3_g51_h15_t36
 p_r3_g72_h36_t36
 p_r3_g113_h77_t36
 p_r3_g147_h111_t36
 p_r3_g159_h123_t36
 p_r0_g1_h131_t37
 p_r0_g14_h144_t37
 p_r0_g23_h153_t37
 p_r0_g32_h162_t37
 p_r0_g54_h17_t37
 p_r0_g60_h23_t37
 p_r0_g69_h32_t37
 p_r0_g84_h47_t37
 p_r0_g97_h60_t37
 p_r0_g121_h84_t37
 p_r1_g13_h143_t37
 p_r1_g25_h155_t37
 p_r1_g31_h161_t37
 p_r1_g62_h25_t37
 p_r1_g67_h30_t37
 p_r1_g75_h38_t37
 p_r1_g90_h53_t37
 p_r1_g96_h59_t37
 p_r1_g113_h76_t37
 p_r1_g117_h80_t37
 p_r1_g128_h91_t37
 p_r1_g154_h117_t37
 p_r2_g29_h159_t37
 p_r2_g34_h164_t37
 p_r2_g66_h29_t37
 p_r2_g67_h30_t37
 p_r2_g107_h70_t37
 p_r2_g110_h73_t37
 p_r2_g111_h74_t37
 p_r2_g128_h91_t37
 p_r2_g135_h98_t37
 p_r2_g165_h128_t37
 p_r3_g8_h138_t37
 p_r3_g15_h145_t37
 p_r3_g53_h16_t37
 p_r3_g56_h19_t37
 p_r3_g94_h57_t37
 p_r3_g128_h91_t37
 p_r3_g162_h125_t37
 p_r3_g165_h128_t37
 p_r0_g1_h130_t38
 p_r0_g14_h143_t38
 p_r0_g47_h9_t38
 p_r0_g60_h22_t38
 p_r0_g70_h32_t38
 p_r1_g17_h146_t38
 p_r1_g25_h154_t38
 p_r1_g53_h15_t38
 p_r1_g76_h38_t38
 p_r1_g91_h53_t38
 p_r1_g113_h75_t38
 p_r1_g114_h76_t38
 p_r1_g121_h83_t38
 p_r1_g128_h90_t38
 p_r1_g146_h108_t38
 p_r1_g155_h117_t38
 p_r2_g29_h158_t38
 p_r2_g30_h159_t38
 p_r2_g34_h163_t38
 p_r2_g67_h29_t38
 p_r2_g86_h48_t38
 p_r2_g98_h60_t38
 p_r2_g100_h62_t38
 p_r2_g111_h73_t38
 p_r2_g120_h82_t38
 p_r2_g136_h98_t38
 p_r2_g149_h111_t38
 p_r2_g158_h120_t38
 p_r3_g15_h144_t38
 p_r3_g16_h145_t38
 p_r3_g18_h147_t38
 p_r3_g33_h162_t38
 p_r3_g36_h165_t38
 p_r3_g51_h13_t38
 p_r3_g53_h15_t38
 p_r3_g56_h18_t38
 p_r3_g57_h19_t38
 p_r3_g65_h27_t38
 p_r3_g72_h34_t38
 p_r3_g91_h53_t38
 p_r3_g94_h56_t38
 p_r3_g103_h65_t38
 p_r3_g144_h106_t38
 p_r3_g159_h121_t38
 p_r3_g162_h124_t38
 p_r0_g25_h153_t39
 p_r0_g34_h162_t39
 p_r0_g48_h9_t39
 p_r0_g67_h28_t39
 p_r0_g87_h48_t39
 p_r0_g118_h79_t39
 p_r0_g123_h84_t39
 p_r0_g162_h123_t39
 p_r1_g15_h143_t39
 p_r1_g64_h25_t39
 p_r1_g114_h75_t39
 p_r1_g132_h93_t39
 p_r1_g146_h107_t39
 p_r2_g30_h158_t39
 p_r2_g34_h162_t39
 p_r2_g73_h34_t39
 p_r2_g139_h100_t39
 p_r2_g149_h110_t39
 p_r2_g159_h120_t39
 p_r3_g16_h144_t39
 p_r3_g19_h147_t39
 p_r3_g34_h162_t39
 p_r3_g57_h18_t39
 p_r3_g72_h33_t39
 p_r3_g111_h72_t39
 p_r3_g145_h106_t39
 p_r3_g162_h123_t39
 p_r0_g7_h130_t44
 p_r0_g20_h143_t44
 p_r0_g48_h4_t44
 p_r0_g67_h23_t44
 p_r0_g69_h25_t44
 p_r0_g70_h26_t44
 p_r0_g79_h35_t44
 p_r0_g123_h79_t44
 p_r0_g131_h87_t44
 p_r0_g162_h118_t44
 p_r1_g31_h154_t44
 p_r1_g38_h161_t44
 p_r1_g59_h15_t44
 p_r1_g75_h31_t44
 p_r1_g108_h64_t44
 p_r1_g111_h67_t44
 p_r1_g154_h110_t44
 p_r1_g155_h111_t44
 p_r1_g157_h113_t44
 p_r1_g161_h117_t44
 p_r2_g29_h152_t44
 p_r2_g62_h18_t44
 p_r2_g73_h29_t44
 p_r2_g74_h30_t44
 p_r2_g110_h66_t44
 p_r2_g111_h67_t44
 p_r2_g135_h91_t44
 p_r2_g139_h95_t44
 p_r2_g142_h98_t44
 p_r2_g155_h111_t44
 p_r2_g164_h120_t44
 p_r3_g15_h138_t44
 p_r3_g36_h159_t44
 p_r3_g51_h7_t44
 p_r3_g57_h13_t44
 p_r3_g77_h33_t44
 p_r3_g121_h77_t44
 p_r3_g123_h79_t44
 p_r3_g138_h94_t44
 p_r3_g147_h103_t44
 p_r3_g165_h121_t44
 p_r0_g1_h118_t50
 p_r0_g4_h121_t50
 p_r0_g14_h131_t50
 p_r0_g26_h143_t50
 p_r0_g36_h153_t50
 p_r0_g54_h4_t50
 p_r0_g67_h17_t50
 p_r0_g70_h20_t50
 p_r0_g84_h34_t50
 p_r0_g87_h37_t50
 p_r0_g97_h47_t50
 p_r0_g118_h68_t50
 p_r1_g11_h128_t50
 p_r1_g15_h132_t50
 p_r1_g38_h155_t50
 p_r1_g67_h17_t50
 p_r1_g75_h25_t50
 p_r1_g80_h30_t50
 p_r1_g114_h64_t50
 p_r1_g117_h67_t50
 p_r1_g126_h76_t50
 p_r1_g143_h93_t50
 p_r1_g146_h96_t50
 p_r1_g157_h107_t50
 p_r1_g161_h111_t50
 p_r2_g18_h135_t50
 p_r2_g48_h165_t50
 p_r2_g80_h30_t50
 p_r2_g98_h48_t50
 p_r2_g110_h60_t50
 p_r2_g120_h70_t50
 p_r2_g136_h86_t50
 p_r3_g7_h124_t50
 p_r3_g8_h125_t50
 p_r3_g11_h128_t50
 p_r3_g27_h144_t50
 p_r3_g53_h3_t50
 p_r3_g57_h7_t50
 p_r3_g65_h15_t50
 p_r3_g77_h27_t50
 p_r3_g103_h53_t50
 p_r3_g106_h56_t50
 p_r3_g144_h94_t50
 p_r0_g9_h118_t58
 p_r0_g14_h123_t58
 p_r0_g22_h131_t58
 p_r0_g34_h143_t58
 p_r0_g35_h144_t58
 p_r0_g67_h9_t58
 p_r0_g84_h26_t58
 p_r0_g118_h60_t58
 p_r1_g8_h117_t58
 p_r1_g17_h126_t58
 p_r1_g75_h17_t58
 p_r1_g83_h25_t58
 p_r1_g93_h35_t58
 p_r1_g96_h38_t58
 p_r1_g111_h53_t58
 p_r1_g117_h59_t58
 p_r1_g154_h96_t58
 p_r2_g2_h111_t58
 p_r2_g30_h139_t58
 p_r2_g60_h2_t58
 p_r2_g120_h62_t58
 p_r2_g128_h70_t58
 p_r2_g135_h77_t58
 p_r2_g149_h91_t58
 p_r2_g158_h100_t58
 p_r2_g165_h107_t58
 p_r3_g15_h124_t58
 p_r3_g16_h125_t58
 p_r3_g19_h128_t58
 p_r3_g36_h145_t58
 p_r3_g53_h162_t58
 p_r3_g56_h165_t58
 p_r3_g65_h7_t58
 p_r3_g77_h19_t58
 p_r3_g91_h33_t58
 p_r3_g94_h36_t58
 p_r3_g111_h53_t58
 p_r3_g123_h65_t58
 p_r0_g25_h130_t62
 p_r0_g26_h131_t62
 p_r0_g48_h153_t62
 p_r0_g69_h7_t62
 p_r0_g79_h17_t62
 p_r0_g84_h22_t62
 p_r0_g87_h25_t62
 p_r0_g97_h35_t62
 p_r0_g130_h68_t62
 p_r0_g131_h69_t62
 p_r1_g8_h113_t62
 p_r1_g38_h143_t62
 p_r1_g75_h13_t62
 p_r1_g93_h31_t62
 p_r1_g121_h59_t62
 p_r1_g126_h64_t62
 p_r1_g155_h93_t62
 p_r2_g2_h107_t62
 p_r2_g30_h135_t62
 p_r2_g34_h139_t62
 p_r2_g60_h165_t62
 p_r2_g64_h2_t62
 p_r2_g80_h18_t62
 p_r2_g91_h29_t62
 p_r2_g110_h48_t62
 p_r2_g128_h66_t62
 p_r2_g135_h73_t62
 p_r2_g136_h74_t62
 p_r2_g139_h77_t62
 p_r2_g142_h80_t62
 p_r2_g162_h100_t62
 p_r3_g8_h113_t62
 p_r3_g16_h121_t62
 p_r3_g18_h123_t62
 p_r3_g19_h124_t62
 p_r3_g33_h138_t62
 p_r3_g57_h162_t62
 p_r3_g65_h3_t62
 p_r3_g77_h15_t62
 p_r3_g113_h51_t62
 p_r3_g165_h103_t62
 p_r0_g20_h123_t64
 p_r0_g28_h131_t64
 p_r0_g68_h4_t64
 p_r0_g84_h20_t64
 p_r0_g87_h23_t64
 p_r0_g101_h37_t64
 p_r0_g118_h54_t64
 p_r0_g131_h67_t64
 p_r0_g143_h79_t64
 p_r1_g8_h111_t64
 p_r1_g11_h114_t64
 p_r1_g25_h128_t64
 p_r1_g75_h11_t64
 p_r1_g117_h53_t64
 p_r1_g126_h62_t64
 p_r1_g128_h64_t64
 p_r1_g154_h90_t64
 p_r1_g155_h91_t64
 p_r1_g157_h93_t64
 p_r2_g60_h163_t64
 p_r2_g62_h165_t64
 p_r2_g66_h2_t64
 p_r2_g82_h18_t64
 p_r2_g98_h34_t64
 p_r2_g128_h64_t64
 p_r2_g155_h91_t64
 p_r2_g159_h95_t64
 p_r2_g162_h98_t64
 p_r2_g164_h100_t64
 p_r3_g3_h106_t64
 p_r3_g8_h111_t64
 p_r3_g18_h121_t64
 p_r3_g51_h154_t64
 p_r3_g56_h159_t64
 p_r3_g72_h8_t64
 p_r3_g77_h13_t64
 p_r3_g79_h15_t64
 p_r3_g91_h27_t64
 p_r3_g121_h57_t64
 p_r0_g4_h102_t69
 p_r0_g20_h118_t69
 p_r0_g23_h121_t69
 p_r0_g25_h123_t69
 p_r0_g32_h130_t69
 p_r0_g70_h1_t69
 p_r0_g97_h28_t69
 p_r0_g101_h32_t69
 p_r0_g123_h54_t69
 p_r0_g153_h84_t69
 p_r1_g13_h111_t69
 p_r1_g15_h113_t69
 p_r1_g30_h128_t69
 p_r1_g59_h157_t69
 p_r1_g80_h11_t69
 p_r1_g107_h38_t69
 p_r1_g128_h59_t69
 p_r2_g2_h100_t69
 p_r2_g30_h128_t69
 p_r2_g60_h158_t69
 p_r2_g64_h162_t69
 p_r2_g66_h164_t69
 p_r2_g67_h165_t69
 p_r2_g98_h29_t69
 p_r2_g135_h66_t69
 p_r2_g136_h67_t69
 p_r2_g139_h70_t69
 p_r2_g142_h73_t69
 p_r2_g149_h80_t69
 p_r2_g155_h86_t69
 p_r2_g164_h95_t69
 p_r3_g8_h106_t69
 p_r3_g13_h111_t69
 p_r3_g15_h113_t69
 p_r3_g27_h125_t69
 p_r3_g56_h154_t69
 p_r3_g72_h3_t69
 p_r3_g77_h8_t69
 p_r3_g103_h34_t69
 p_r3_g125_h56_t69
 p_r0_g7_h101_t73
 p_r0_g36_h130_t73
 p_r0_g37_h131_t73
 p_r0_g68_h162_t73
 p_r0_g87_h14_t73
 p_r0_g101_h28_t73
 p_r0_g121_h48_t73
 p_r0_g143_h70_t73
 p_r1_g13_h107_t73
 p_r1_g17_h111_t73
 p_r1_g38_h132_t73
 p_r1_g67_h161_t73
 p_r1_g90_h17_t73
 p_r1_g108_h35_t73
 p_r1_g111_h38_t73
 p_r1_g126_h53_t73
 p_r1_g132_h59_t73
 p_r2_g34_h128_t73
 p_r2_g48_h142_t73
 p_r2_g64_h158_t73
 p_r2_g70_h164_t73
 p_r2_g91_h18_t73
 p_r2_g107_h34_t73
 p_r2_g135_h62_t73
 p_r2_g139_h66_t73
 p_r2_g155_h82_t73
 p_r2_g159_h86_t73
 p_r2_g164_h91_t73
 p_r3_g19_h113_t73
 p_r3_g27_h121_t73
 p_r3_g34_h128_t73
 p_r3_g51_h145_t73
 p_r3_g53_h147_t73
 p_r3_g65_h159_t73
 p_r3_g91_h18_t73
 p_r3_g106_h33_t73
 p_r3_g124_h51_t73
 p_r3_g138_h65_t73
 p_r3_g145_h72_t73
 p_r0_g9_h101_t75
 p_r0_g26_h118_t75
 p_r0_g70_h162_t75
 p_r0_g79_h4_t75
 p_r0_g84_h9_t75
 p_r0_g97_h22_t75
 p_r0_g101_h26_t75
 p_r0_g123_h48_t75
 p_r0_g143_h68_t75
 p_r0_g144_h69_t75
 p_r0_g162_h87_t75
 p_r1_g15_h107_t75
 p_r1_g25_h117_t75
 p_r1_g62_h154_t75
 p_r1_g83_h8_t75
 p_r1_g90_h15_t75
 p_r1_g110_h35_t75
 p_r1_g113_h38_t75
 p_r1_g128_h53_t75
 p_r1_g155_h80_t75
 p_r2_g18_h110_t75
 p_r2_g60_h152_t75
 p_r2_g66_h158_t75
 p_r2_g67_h159_t75
 p_r2_g70_h162_t75
 p_r2_g73_h165_t75
 p_r2_g77_h2_t75
 p_r2_g135_h60_t75
 p_r2_g139_h64_t75
 p_r2_g142_h67_t75
 p_r2_g149_h74_t75
 p_r2_g152_h77_t75
 p_r2_g155_h80_t75
 p_r3_g11_h103_t75
 p_r3_g19_h111_t75
 p_r3_g33_h125_t75
 p_r3_g36_h128_t75
 p_r3_g53_h145_t75
 p_r3_g91_h16_t75
 p_r3_g94_h19_t75
 p_r3_g111_h36_t75
 p_r3_g128_h53_t75
 p_r3_g147_h72_t75
 p_r3_g154_h79_t75
 p_r0_g17_h101_t83
 p_r0_g34_h118_t83
 p_r0_g37_h121_t83
 p_r0_g47_h131_t83
 p_r0_g60_h144_t83
 p_r0_g69_h153_t83
 p_r0_g84_h1_t83
 p_r0_g87_h4_t83
 p_r0_g97_h14_t83
 p_r0_g118_h35_t83
 p_r0_g130_h47_t83
 p_r0_g131_h48_t83
 p_r0_g143_h60_t83
 p_r0_g153_h70_t83
 p_r0_g162_h79_t83
 p_r1_g30_h114_t83
 p_r1_g59_h143_t83
 p_r1_g62_h146_t83
 p_r1_g91_h8_t83
 p_r1_g96_h13_t83
 p_r1_g108_h25_t83
 p_r1_g113_h30_t83
 p_r1_g114_h31_t83
 p_r1_g121_h38_t83
 p_r2_g2_h86_t83
 p_r2_g74_h158_t83
 p_r2_g80_h164_t83
 p_r2_g149_h66_t83
 p_r2_g163_h80_t83
 p_r2_g165_h82_t83
 p_r3_g7_h91_t83
 p_r3_g19_h103_t83
 p_r3_g27_h111_t83
 p_r3_g91_h8_t83
 p_r3_g94_h11_t83
 p_r3_g162_h79_t83
Generals
 d_1
 d_2
 d_3
 d_4
 d_7
 d_9
 d_10
 d_12
 d_13
 d_16
 d_18
 d_19
 d_20
 d_21
 d_22
 d_23
 d_26
 d_29
 d_36
 d_37
 d_38
 d_39
 d_44
 d_50
 d_58
 d_62
 d_64
 d_69
 d_73
 d_75
 d_83
 u_1
 u_2
 u_3
 u_4
 u_7
 u_9
 u_10
 u_12
 u_13
 u_16
 u_18
 u_19
 u_20
 u_21
 u_22
 u_23
 u_26
 u_29
 u_36
 u_37
 u_38
 u_39
 u_44
 u_50
 u_58
 u_62
 u_64
 u_69
 u_73
 u_75
 u_83
 M
 F
End
