* #variable= 672 #constraint= 1525
* int d_1 d_2 d_3 d_4 d_7 d_18 d_19 d_21 d_29 d_39 d_69 d_73 u_1 u_2 u_3 u_4 u_7 u_18 u_19 u_21 u_29 u_39 u_69 u_73 M F ;
min: 1 M ;
1 x_r0_g4 1 x_r0_g7 1 x_r0_g9 1 x_r0_g17 1 x_r0_g20 1 x_r0_g22 1 x_r0_g25 1 x_r0_g26 1 x_r0_g27 1 x_r0_g28 1 x_r0_g34 1 x_r0_g35 1 x_r0_g37 1 x_r0_g46 1 x_r0_g47 1 x_r0_g54 1 x_r0_g60 1 x_r0_g62 1 x_r0_g68 1 x_r0_g69 1 x_r0_g70 1 x_r0_g79 1 x_r0_g84 1 x_r0_g87 1 x_r0_g88 1 x_r0_g93 1 x_r0_g97 1 x_r0_g102 1 x_r0_g118 1 x_r0_g126 1 x_r0_g129 1 x_r0_g130 1 x_r0_g131 1 x_r0_g136 1 x_r0_g137 1 x_r0_g143 1 x_r0_g144 1 x_r0_g153 1 x_r0_g159 1 x_r0_g162 = 20 ;
1 x_r1_g8 1 x_r1_g11 1 x_r1_g13 1 x_r1_g15 1 x_r1_g17 1 x_r1_g23 1 x_r1_g26 1 x_r1_g31 1 x_r1_g38 1 x_r1_g41 1 x_r1_g44 1 x_r1_g51 1 x_r1_g56 1 x_r1_g59 1 x_r1_g62 1 x_r1_g64 1 x_r1_g67 1 x_r1_g76 1 x_r1_g80 1 x_r1_g93 1 x_r1_g96 1 x_r1_g108 1 x_r1_g110 1 x_r1_g111 1 x_r1_g113 1 x_r1_g114 1 x_r1_g117 1 x_r1_g121 1 x_r1_g123 1 x_r1_g128 1 x_r1_g135 1 x_r1_g143 1 x_r1_g146 1 x_r1_g153 1 x_r1_g155 1 x_r1_g157 1 x_r1_g160 1 x_r1_g161 1 x_r1_g162 1 x_r1_g164 = 20 ;
1 x_r2_g2 1 x_r2_g18 1 x_r2_g21 1 x_r2_g29 1 x_r2_g30 1 x_r2_g48 1 x_r2_g54 1 x_r2_g60 1 x_r2_g62 1 x_r2_g64 1 x_r2_g66 1 x_r2_g70 1 x_r2_g73 1 x_r2_g74 1 x_r2_g77 1 x_r2_g80 1 x_r2_g86 1 x_r2_g91 1 x_r2_g102 1 x_r2_g105 1 x_r2_g107 1 x_r2_g110 1 x_r2_g120 1 x_r2_g128 1 x_r2_g130 1 x_r2_g131 1 x_r2_g133 1 x_r2_g139 1 x_r2_g141 1 x_r2_g142 1 x_r2_g143 1 x_r2_g146 1 x_r2_g149 1 x_r2_g152 1 x_r2_g155 1 x_r2_g158 1 x_r2_g159 1 x_r2_g162 1 x_r2_g163 1 x_r2_g165 = 20 ;
1 x_r3_g3 1 x_r3_g7 1 x_r3_g8 1 x_r3_g9 1 x_r3_g11 1 x_r3_g12 1 x_r3_g13 1 x_r3_g15 1 x_r3_g16 1 x_r3_g19 1 x_r3_g24 1 x_r3_g25 1 x_r3_g27 1 x_r3_g33 1 x_r3_g34 1 x_r3_g36 1 x_r3_g51 1 x_r3_g53 1 x_r3_g57 1 x_r3_g72 1 x_r3_g94 1 x_r3_g103 1 x_r3_g105 1 x_r3_g106 1 x_r3_g111 1 x_r3_g112 1 x_r3_g113 1 x_r3_g118 1 x_r3_g121 1 x_r3_g123 1 x_r3_g124 1 x_r3_g128 1 x_r3_g138 1 x_r3_g141 1 x_r3_g144 1 x_r3_g145 1 x_r3_g147 1 x_r3_g156 1 x_r3_g162 1 x_r3_g165 = 20 ;
1 p_r0_g26_h25_t1 -1 x_r0_g26 <= 0 ;
1 p_r0_g26_h25_t1 -1 x_r0_g25 <= 0 ;
1 p_r0_g26_h25_t1 -1 x_r0_g26 -1 x_r0_g25 >= -1 ;
1 p_r0_g27_h26_t1 -1 x_r0_g27 <= 0 ;
1 p_r0_g27_h26_t1 -1 x_r0_g26 <= 0 ;
1 p_r0_g27_h26_t1 -1 x_r0_g27 -1 x_r0_g26 >= -1 ;
1 p_r0_g28_h27_t1 -1 x_r0_g28 <= 0 ;
1 p_r0_g28_h27_t1 -1 x_r0_g27 <= 0 ;
1 p_r0_g28_h27_t1 -1 x_r0_g28 -1 x_r0_g27 >= -1 ;
1 p_r0_g35_h34_t1 -1 x_r0_g35 <= 0 ;
1 p_r0_g35_h34_t1 -1 x_r0_g34 <= 0 ;
1 p_r0_g35_h34_t1 -1 x_r0_g35 -1 x_r0_g34 >= -1 ;
1 p_r0_g47_h46_t1 -1 x_r0_g47 <= 0 ;
1 p_r0_g47_h46_t1 -1 x_r0_g46 <= 0 ;
1 p_r0_g47_h46_t1 -1 x_r0_g47 -1 x_r0_g46 >= -1 ;
1 p_r0_g69_h68_t1 -1 x_r0_g69 <= 0 ;
1 p_r0_g69_h68_t1 -1 x_r0_g68 <= 0 ;
1 p_r0_g69_h68_t1 -1 x_r0_g69 -1 x_r0_g68 >= -1 ;
1 p_r0_g70_h69_t1 -1 x_r0_g70 <= 0 ;
1 p_r0_g70_h69_t1 -1 x_r0_g69 <= 0 ;
1 p_r0_g70_h69_t1 -1 x_r0_g70 -1 x_r0_g69 >= -1 ;
1 p_r0_g88_h87_t1 -1 x_r0_g88 <= 0 ;
1 p_r0_g88_h87_t1 -1 x_r0_g87 <= 0 ;
1 p_r0_g88_h87_t1 -1 x_r0_g88 -1 x_r0_g87 >= -1 ;
1 p_r0_g130_h129_t1 -1 x_r0_g130 <= 0 ;
1 p_r0_g130_h129_t1 -1 x_r0_g129 <= 0 ;
1 p_r0_g130_h129_t1 -1 x_r0_g130 -1 x_r0_g129 >= -1 ;
1 p_r0_g131_h130_t1 -1 x_r0_g131 <= 0 ;
1 p_r0_g131_h130_t1 -1 x_r0_g130 <= 0 ;
1 p_r0_g131_h130_t1 -1 x_r0_g131 -1 x_r0_g130 >= -1 ;
1 p_r0_g137_h136_t1 -1 x_r0_g137 <= 0 ;
1 p_r0_g137_h136_t1 -1 x_r0_g136 <= 0 ;
1 p_r0_g137_h136_t1 -1 x_r0_g137 -1 x_r0_g136 >= -1 ;
1 p_r0_g144_h143_t1 -1 x_r0_g144 <= 0 ;
1 p_r0_g144_h143_t1 -1 x_r0_g143 <= 0 ;
1 p_r0_g144_h143_t1 -1 x_r0_g144 -1 x_r0_g143 >= -1 ;
1 p_r1_g111_h110_t1 -1 x_r1_g111 <= 0 ;
1 p_r1_g111_h110_t1 -1 x_r1_g110 <= 0 ;
1 p_r1_g111_h110_t1 -1 x_r1_g111 -1 x_r1_g110 >= -1 ;
1 p_r1_g114_h113_t1 -1 x_r1_g114 <= 0 ;
1 p_r1_g114_h113_t1 -1 x_r1_g113 <= 0 ;
1 p_r1_g114_h113_t1 -1 x_r1_g114 -1 x_r1_g113 >= -1 ;
1 p_r1_g161_h160_t1 -1 x_r1_g161 <= 0 ;
1 p_r1_g161_h160_t1 -1 x_r1_g160 <= 0 ;
1 p_r1_g161_h160_t1 -1 x_r1_g161 -1 x_r1_g160 >= -1 ;
1 p_r1_g162_h161_t1 -1 x_r1_g162 <= 0 ;
1 p_r1_g162_h161_t1 -1 x_r1_g161 <= 0 ;
1 p_r1_g162_h161_t1 -1 x_r1_g162 -1 x_r1_g161 >= -1 ;
1 p_r2_g30_h29_t1 -1 x_r2_g30 <= 0 ;
1 p_r2_g30_h29_t1 -1 x_r2_g29 <= 0 ;
1 p_r2_g30_h29_t1 -1 x_r2_g30 -1 x_r2_g29 >= -1 ;
1 p_r2_g74_h73_t1 -1 x_r2_g74 <= 0 ;
1 p_r2_g74_h73_t1 -1 x_r2_g73 <= 0 ;
1 p_r2_g74_h73_t1 -1 x_r2_g74 -1 x_r2_g73 >= -1 ;
1 p_r2_g131_h130_t1 -1 x_r2_g131 <= 0 ;
1 p_r2_g131_h130_t1 -1 x_r2_g130 <= 0 ;
1 p_r2_g131_h130_t1 -1 x_r2_g131 -1 x_r2_g130 >= -1 ;
1 p_r2_g142_h141_t1 -1 x_r2_g142 <= 0 ;
1 p_r2_g142_h141_t1 -1 x_r2_g141 <= 0 ;
1 p_r2_g142_h141_t1 -1 x_r2_g142 -1 x_r2_g141 >= -1 ;
1 p_r2_g143_h142_t1 -1 x_r2_g143 <= 0 ;
1 p_r2_g143_h142_t1 -1 x_r2_g142 <= 0 ;
1 p_r2_g143_h142_t1 -1 x_r2_g143 -1 x_r2_g142 >= -1 ;
1 p_r2_g159_h158_t1 -1 x_r2_g159 <= 0 ;
1 p_r2_g159_h158_t1 -1 x_r2_g158 <= 0 ;
1 p_r2_g159_h158_t1 -1 x_r2_g159 -1 x_r2_g158 >= -1 ;
1 p_r2_g163_h162_t1 -1 x_r2_g163 <= 0 ;
1 p_r2_g163_h162_t1 -1 x_r2_g162 <= 0 ;
1 p_r2_g163_h162_t1 -1 x_r2_g163 -1 x_r2_g162 >= -1 ;
1 p_r3_g8_h7_t1 -1 x_r3_g8 <= 0 ;
1 p_r3_g8_h7_t1 -1 x_r3_g7 <= 0 ;
1 p_r3_g8_h7_t1 -1 x_r3_g8 -1 x_r3_g7 >= -1 ;
1 p_r3_g9_h8_t1 -1 x_r3_g9 <= 0 ;
1 p_r3_g9_h8_t1 -1 x_r3_g8 <= 0 ;
1 p_r3_g9_h8_t1 -1 x_r3_g9 -1 x_r3_g8 >= -1 ;
1 p_r3_g12_h11_t1 -1 x_r3_g12 <= 0 ;
1 p_r3_g12_h11_t1 -1 x_r3_g11 <= 0 ;
1 p_r3_g12_h11_t1 -1 x_r3_g12 -1 x_r3_g11 >= -1 ;
1 p_r3_g13_h12_t1 -1 x_r3_g13 <= 0 ;
1 p_r3_g13_h12_t1 -1 x_r3_g12 <= 0 ;
1 p_r3_g13_h12_t1 -1 x_r3_g13 -1 x_r3_g12 >= -1 ;
1 p_r3_g16_h15_t1 -1 x_r3_g16 <= 0 ;
1 p_r3_g16_h15_t1 -1 x_r3_g15 <= 0 ;
1 p_r3_g16_h15_t1 -1 x_r3_g16 -1 x_r3_g15 >= -1 ;
1 p_r3_g25_h24_t1 -1 x_r3_g25 <= 0 ;
1 p_r3_g25_h24_t1 -1 x_r3_g24 <= 0 ;
1 p_r3_g25_h24_t1 -1 x_r3_g25 -1 x_r3_g24 >= -1 ;
1 p_r3_g34_h33_t1 -1 x_r3_g34 <= 0 ;
1 p_r3_g34_h33_t1 -1 x_r3_g33 <= 0 ;
1 p_r3_g34_h33_t1 -1 x_r3_g34 -1 x_r3_g33 >= -1 ;
1 p_r3_g106_h105_t1 -1 x_r3_g106 <= 0 ;
1 p_r3_g106_h105_t1 -1 x_r3_g105 <= 0 ;
1 p_r3_g106_h105_t1 -1 x_r3_g106 -1 x_r3_g105 >= -1 ;
1 p_r3_g112_h111_t1 -1 x_r3_g112 <= 0 ;
1 p_r3_g112_h111_t1 -1 x_r3_g111 <= 0 ;
1 p_r3_g112_h111_t1 -1 x_r3_g112 -1 x_r3_g111 >= -1 ;
1 p_r3_g113_h112_t1 -1 x_r3_g113 <= 0 ;
1 p_r3_g113_h112_t1 -1 x_r3_g112 <= 0 ;
1 p_r3_g113_h112_t1 -1 x_r3_g113 -1 x_r3_g112 >= -1 ;
1 p_r3_g124_h123_t1 -1 x_r3_g124 <= 0 ;
1 p_r3_g124_h123_t1 -1 x_r3_g123 <= 0 ;
1 p_r3_g124_h123_t1 -1 x_r3_g124 -1 x_r3_g123 >= -1 ;
1 p_r3_g145_h144_t1 -1 x_r3_g145 <= 0 ;
1 p_r3_g145_h144_t1 -1 x_r3_g144 <= 0 ;
1 p_r3_g145_h144_t1 -1 x_r3_g145 -1 x_r3_g144 >= -1 ;
1 d_1 -2 x_r0_g4 -1 x_r0_g7 -1 x_r0_g20 -1 x_r0_g35 -2 x_r0_g37 -1 x_r0_g46 -1 x_r0_g47 -1 x_r0_g54 -1 x_r0_g60 -1 x_r0_g62 -1 x_r0_g68 -1 x_r0_g97 -2 x_r0_g102 -1 x_r0_g118 -2 x_r0_g126 -1 x_r0_g131 -1 x_r0_g143 -1 x_r0_g153 -2 x_r0_g159 -1 x_r0_g162 -1 x_r1_g11 -1 x_r1_g15 -2 x_r1_g17 -1 x_r1_g26 -1 x_r1_g31 -2 x_r1_g38 -2 x_r1_g41 -1 x_r1_g56 -1 x_r1_g64 -2 x_r1_g67 -2 x_r1_g80 -1 x_r1_g96 -2 x_r1_g108 -1 x_r1_g110 -1 x_r1_g111 -1 x_r1_g113 -1 x_r1_g114 -1 x_r1_g117 -1 x_r1_g123 -1 x_r1_g128 -1 x_r1_g153 -2 x_r1_g155 -1 x_r1_g157 -1 x_r1_g160 -1 x_r1_g162 -1 x_r1_g164 -1 x_r2_g2 -1 x_r2_g21 -1 x_r2_g29 -1 x_r2_g30 -1 x_r2_g48 -1 x_r2_g60 -2 x_r2_g62 -2 x_r2_g64 -1 x_r2_g66 -1 x_r2_g74 -1 x_r2_g77 -2 x_r2_g86 -1 x_r2_g91 -1 x_r2_g102 -1 x_r2_g105 -2 x_r2_g120 -1 x_r2_g128 -1 x_r2_g130 -1 x_r2_g131 -2 x_r2_g133 -1 x_r2_g139 -1 x_r2_g141 -2 x_r2_g149 -2 x_r2_g152 -1 x_r2_g158 -1 x_r2_g159 -1 x_r2_g162 -2 x_r3_g3 -1 x_r3_g7 -1 x_r3_g16 -2 x_r3_g19 -1 x_r3_g25 -2 x_r3_g27 -1 x_r3_g33 -1 x_r3_g36 -1 x_r3_g111 -1 x_r3_g118 -1 x_r3_g121 -1 x_r3_g123 -2 x_r3_g128 -2 x_r3_g138 -2 x_r3_g141 -1 x_r3_g144 -1 x_r3_g147 -1 x_r3_g162 -1 x_r3_g165 -1 p_r0_g26_h25_t1 -1 p_r0_g27_h26_t1 -1 p_r0_g28_h27_t1 -1 p_r0_g35_h34_t1 -1 p_r0_g47_h46_t1 -1 p_r0_g69_h68_t1 -1 p_r0_g70_h69_t1 -1 p_r0_g88_h87_t1 -1 p_r0_g130_h129_t1 -1 p_r0_g131_h130_t1 -1 p_r0_g137_h136_t1 -1 p_r0_g144_h143_t1 -1 p_r1_g111_h110_t1 -1 p_r1_g114_h113_t1 -1 p_r1_g161_h160_t1 -1 p_r1_g162_h161_t1 -1 p_r2_g30_h29_t1 -1 p_r2_g74_h73_t1 -1 p_r2_g131_h130_t1 -1 p_r2_g142_h141_t1 -1 p_r2_g143_h142_t1 -1 p_r2_g159_h158_t1 -1 p_r2_g163_h162_t1 -1 p_r3_g8_h7_t1 -1 p_r3_g9_h8_t1 -1 p_r3_g12_h11_t1 -1 p_r3_g13_h12_t1 -1 p_r3_g16_h15_t1 -1 p_r3_g25_h24_t1 -1 p_r3_g34_h33_t1 -1 p_r3_g106_h105_t1 -1 p_r3_g112_h111_t1 -1 p_r3_g113_h112_t1 -1 p_r3_g124_h123_t1 -1 p_r3_g145_h144_t1 = -79 ;
1 d_1 -1 u_1 <= 0 ;
-1 d_1 -1 u_1 <= 0 ;
1 u_1 -1 M <= 0 ;
1 u_1 <= 1 ;
1 p_r0_g9_h7_t2 -1 x_r0_g9 <= 0 ;
1 p_r0_g9_h7_t2 -1 x_r0_g7 <= 0 ;
1 p_r0_g9_h7_t2 -1 x_r0_g9 -1 x_r0_g7 >= -1 ;
1 p_r0_g22_h20_t2 -1 x_r0_g22 <= 0 ;
1 p_r0_g22_h20_t2 -1 x_r0_g20 <= 0 ;
1 p_r0_g22_h20_t2 -1 x_r0_g22 -1 x_r0_g20 >= -1 ;
1 p_r0_g27_h25_t2 -1 x_r0_g27 <= 0 ;
1 p_r0_g27_h25_t2 -1 x_r0_g25 <= 0 ;
1 p_r0_g27_h25_t2 -1 x_r0_g27 -1 x_r0_g25 >= -1 ;
1 p_r0_g28_h26_t2 -1 x_r0_g28 <= 0 ;
1 p_r0_g28_h26_t2 -1 x_r0_g26 <= 0 ;
1 p_r0_g28_h26_t2 -1 x_r0_g28 -1 x_r0_g26 >= -1 ;
1 p_r0_g37_h35_t2 -1 x_r0_g37 <= 0 ;
1 p_r0_g37_h35_t2 -1 x_r0_g35 <= 0 ;
1 p_r0_g37_h35_t2 -1 x_r0_g37 -1 x_r0_g35 >= -1 ;
1 p_r0_g62_h60_t2 -1 x_r0_g62 <= 0 ;
1 p_r0_g62_h60_t2 -1 x_r0_g60 <= 0 ;
1 p_r0_g62_h60_t2 -1 x_r0_g62 -1 x_r0_g60 >= -1 ;
1 p_r0_g70_h68_t2 -1 x_r0_g70 <= 0 ;
1 p_r0_g70_h68_t2 -1 x_r0_g68 <= 0 ;
1 p_r0_g70_h68_t2 -1 x_r0_g70 -1 x_r0_g68 >= -1 ;
1 p_r0_g131_h129_t2 -1 x_r0_g131 <= 0 ;
1 p_r0_g131_h129_t2 -1 x_r0_g129 <= 0 ;
1 p_r0_g131_h129_t2 -1 x_r0_g131 -1 x_r0_g129 >= -1 ;
1 p_r1_g13_h11_t2 -1 x_r1_g13 <= 0 ;
1 p_r1_g13_h11_t2 -1 x_r1_g11 <= 0 ;
1 p_r1_g13_h11_t2 -1 x_r1_g13 -1 x_r1_g11 >= -1 ;
1 p_r1_g15_h13_t2 -1 x_r1_g15 <= 0 ;
1 p_r1_g15_h13_t2 -1 x_r1_g13 <= 0 ;
1 p_r1_g15_h13_t2 -1 x_r1_g15 -1 x_r1_g13 >= -1 ;
1 p_r1_g17_h15_t2 -1 x_r1_g17 <= 0 ;
1 p_r1_g17_h15_t2 -1 x_r1_g15 <= 0 ;
1 p_r1_g17_h15_t2 -1 x_r1_g17 -1 x_r1_g15 >= -1 ;
1 p_r1_g64_h62_t2 -1 x_r1_g64 <= 0 ;
1 p_r1_g64_h62_t2 -1 x_r1_g62 <= 0 ;
1 p_r1_g64_h62_t2 -1 x_r1_g64 -1 x_r1_g62 >= -1 ;
1 p_r1_g110_h108_t2 -1 x_r1_g110 <= 0 ;
1 p_r1_g110_h108_t2 -1 x_r1_g108 <= 0 ;
1 p_r1_g110_h108_t2 -1 x_r1_g110 -1 x_r1_g108 >= -1 ;
1 p_r1_g113_h111_t2 -1 x_r1_g113 <= 0 ;
1 p_r1_g113_h111_t2 -1 x_r1_g111 <= 0 ;
1 p_r1_g113_h111_t2 -1 x_r1_g113 -1 x_r1_g111 >= -1 ;
1 p_r1_g123_h121_t2 -1 x_r1_g123 <= 0 ;
1 p_r1_g123_h121_t2 -1 x_r1_g121 <= 0 ;
1 p_r1_g123_h121_t2 -1 x_r1_g123 -1 x_r1_g121 >= -1 ;
1 p_r1_g155_h153_t2 -1 x_r1_g155 <= 0 ;
1 p_r1_g155_h153_t2 -1 x_r1_g153 <= 0 ;
1 p_r1_g155_h153_t2 -1 x_r1_g155 -1 x_r1_g153 >= -1 ;
1 p_r1_g157_h155_t2 -1 x_r1_g157 <= 0 ;
1 p_r1_g157_h155_t2 -1 x_r1_g155 <= 0 ;
1 p_r1_g157_h155_t2 -1 x_r1_g157 -1 x_r1_g155 >= -1 ;
1 p_r1_g162_h160_t2 -1 x_r1_g162 <= 0 ;
1 p_r1_g162_h160_t2 -1 x_r1_g160 <= 0 ;
1 p_r1_g162_h160_t2 -1 x_r1_g162 -1 x_r1_g160 >= -1 ;
1 p_r1_g164_h162_t2 -1 x_r1_g164 <= 0 ;
1 p_r1_g164_h162_t2 -1 x_r1_g162 <= 0 ;
1 p_r1_g164_h162_t2 -1 x_r1_g164 -1 x_r1_g162 >= -1 ;
1 p_r2_g62_h60_t2 -1 x_r2_g62 <= 0 ;
1 p_r2_g62_h60_t2 -1 x_r2_g60 <= 0 ;
1 p_r2_g62_h60_t2 -1 x_r2_g62 -1 x_r2_g60 >= -1 ;
1 p_r2_g64_h62_t2 -1 x_r2_g64 <= 0 ;
1 p_r2_g64_h62_t2 -1 x_r2_g62 <= 0 ;
1 p_r2_g64_h62_t2 -1 x_r2_g64 -1 x_r2_g62 >= -1 ;
1 p_r2_g66_h64_t2 -1 x_r2_g66 <= 0 ;
1 p_r2_g66_h64_t2 -1 x_r2_g64 <= 0 ;
1 p_r2_g66_h64_t2 -1 x_r2_g66 -1 x_r2_g64 >= -1 ;
1 p_r2_g107_h105_t2 -1 x_r2_g107 <= 0 ;
1 p_r2_g107_h105_t2 -1 x_r2_g105 <= 0 ;
1 p_r2_g107_h105_t2 -1 x_r2_g107 -1 x_r2_g105 >= -1 ;
1 p_r2_g130_h128_t2 -1 x_r2_g130 <= 0 ;
1 p_r2_g130_h128_t2 -1 x_r2_g128 <= 0 ;
1 p_r2_g130_h128_t2 -1 x_r2_g130 -1 x_r2_g128 >= -1 ;
1 p_r2_g133_h131_t2 -1 x_r2_g133 <= 0 ;
1 p_r2_g133_h131_t2 -1 x_r2_g131 <= 0 ;
1 p_r2_g133_h131_t2 -1 x_r2_g133 -1 x_r2_g131 >= -1 ;
1 p_r2_g141_h139_t2 -1 x_r2_g141 <= 0 ;
1 p_r2_g141_h139_t2 -1 x_r2_g139 <= 0 ;
1 p_r2_g141_h139_t2 -1 x_r2_g141 -1 x_r2_g139 >= -1 ;
1 p_r2_g143_h141_t2 -1 x_r2_g143 <= 0 ;
1 p_r2_g143_h141_t2 -1 x_r2_g141 <= 0 ;
1 p_r2_g143_h141_t2 -1 x_r2_g143 -1 x_r2_g141 >= -1 ;
1 p_r2_g165_h163_t2 -1 x_r2_g165 <= 0 ;
1 p_r2_g165_h163_t2 -1 x_r2_g163 <= 0 ;
1 p_r2_g165_h163_t2 -1 x_r2_g165 -1 x_r2_g163 >= -1 ;
1 p_r3_g9_h7_t2 -1 x_r3_g9 <= 0 ;
1 p_r3_g9_h7_t2 -1 x_r3_g7 <= 0 ;
1 p_r3_g9_h7_t2 -1 x_r3_g9 -1 x_r3_g7 >= -1 ;
1 p_r3_g11_h9_t2 -1 x_r3_g11 <= 0 ;
1 p_r3_g11_h9_t2 -1 x_r3_g9 <= 0 ;
1 p_r3_g11_h9_t2 -1 x_r3_g11 -1 x_r3_g9 >= -1 ;
1 p_r3_g13_h11_t2 -1 x_r3_g13 <= 0 ;
1 p_r3_g13_h11_t2 -1 x_r3_g11 <= 0 ;
1 p_r3_g13_h11_t2 -1 x_r3_g13 -1 x_r3_g11 >= -1 ;
1 p_r3_g15_h13_t2 -1 x_r3_g15 <= 0 ;
1 p_r3_g15_h13_t2 -1 x_r3_g13 <= 0 ;
1 p_r3_g15_h13_t2 -1 x_r3_g15 -1 x_r3_g13 >= -1 ;
1 p_r3_g27_h25_t2 -1 x_r3_g27 <= 0 ;
1 p_r3_g27_h25_t2 -1 x_r3_g25 <= 0 ;
1 p_r3_g27_h25_t2 -1 x_r3_g27 -1 x_r3_g25 >= -1 ;
1 p_r3_g36_h34_t2 -1 x_r3_g36 <= 0 ;
1 p_r3_g36_h34_t2 -1 x_r3_g34 <= 0 ;
1 p_r3_g36_h34_t2 -1 x_r3_g36 -1 x_r3_g34 >= -1 ;
1 p_r3_g53_h51_t2 -1 x_r3_g53 <= 0 ;
1 p_r3_g53_h51_t2 -1 x_r3_g51 <= 0 ;
1 p_r3_g53_h51_t2 -1 x_r3_g53 -1 x_r3_g51 >= -1 ;
1 p_r3_g105_h103_t2 -1 x_r3_g105 <= 0 ;
1 p_r3_g105_h103_t2 -1 x_r3_g103 <= 0 ;
1 p_r3_g105_h103_t2 -1 x_r3_g105 -1 x_r3_g103 >= -1 ;
1 p_r3_g113_h111_t2 -1 x_r3_g113 <= 0 ;
1 p_r3_g113_h111_t2 -1 x_r3_g111 <= 0 ;
1 p_r3_g113_h111_t2 -1 x_r3_g113 -1 x_r3_g111 >= -1 ;
1 p_r3_g123_h121_t2 -1 x_r3_g123 <= 0 ;
1 p_r3_g123_h121_t2 -1 x_r3_g121 <= 0 ;
1 p_r3_g123_h121_t2 -1 x_r3_g123 -1 x_r3_g121 >= -1 ;
1 p_r3_g147_h145_t2 -1 x_r3_g147 <= 0 ;
1 p_r3_g147_h145_t2 -1 x_r3_g145 <= 0 ;
1 p_r3_g147_h145_t2 -1 x_r3_g147 -1 x_r3_g145 >= -1 ;
1 d_2 -1 x_r0_g4 -1 x_r0_g7 -1 x_r0_g9 -2 x_r0_g17 -1 x_r0_g28 -1 x_r0_g34 -1 x_r0_g46 -2 x_r0_g47 -1 x_r0_g54 -1 x_r0_g60 -1 x_r0_g69 -1 x_r0_g79 -1 x_r0_g88 -1 x_r0_g102 -2 x_r0_g118 -1 x_r0_g129 -1 x_r0_g130 -1 x_r0_g137 -2 x_r0_g144 -2 x_r0_g153 -1 x_r0_g159 -1 x_r0_g162 -1 x_r1_g8 -1 x_r1_g31 -2 x_r1_g38 -1 x_r1_g41 -2 x_r1_g44 -2 x_r1_g51 -1 x_r1_g59 -1 x_r1_g64 -2 x_r1_g67 -1 x_r1_g76 -2 x_r1_g80 -2 x_r1_g93 -1 x_r1_g96 -1 x_r1_g110 -1 x_r1_g111 -1 x_r1_g113 -2 x_r1_g114 -2 x_r1_g117 -1 x_r1_g121 -1 x_r1_g128 -1 x_r1_g143 -1 x_r1_g157 -2 x_r1_g161 -1 x_r1_g164 -2 x_r2_g2 -1 x_r2_g18 -2 x_r2_g29 -1 x_r2_g30 -1 x_r2_g48 -1 x_r2_g54 -1 x_r2_g60 -1 x_r2_g66 -1 x_r2_g70 -1 x_r2_g73 -1 x_r2_g77 -2 x_r2_g80 -1 x_r2_g91 -1 x_r2_g102 -1 x_r2_g110 -1 x_r2_g120 -1 x_r2_g128 -1 x_r2_g130 -1 x_r2_g131 -1 x_r2_g133 -1 x_r2_g139 -1 x_r2_g142 -1 x_r2_g146 -1 x_r2_g149 -1 x_r2_g152 -2 x_r2_g155 -1 x_r2_g158 -2 x_r2_g159 -1 x_r2_g162 -1 x_r2_g163 -1 x_r2_g165 -2 x_r3_g3 -1 x_r3_g7 -1 x_r3_g8 -1 x_r3_g15 -1 x_r3_g16 -1 x_r3_g19 -2 x_r3_g24 -1 x_r3_g34 -1 x_r3_g36 -1 x_r3_g51 -1 x_r3_g53 -2 x_r3_g57 -1 x_r3_g72 -1 x_r3_g106 -1 x_r3_g112 -1 x_r3_g121 -1 x_r3_g124 -1 x_r3_g138 -2 x_r3_g141 -1 x_r3_g144 -1 x_r3_g145 -1 x_r3_g147 -1 x_r3_g156 -1 x_r3_g162 -1 x_r3_g165 -1 p_r0_g9_h7_t2 -1 p_r0_g22_h20_t2 -1 p_r0_g27_h25_t2 -1 p_r0_g28_h26_t2 -1 p_r0_g37_h35_t2 -1 p_r0_g62_h60_t2 -1 p_r0_g70_h68_t2 -1 p_r0_g131_h129_t2 -1 p_r1_g13_h11_t2 -1 p_r1_g15_h13_t2 -1 p_r1_g17_h15_t2 -1 p_r1_g64_h62_t2 -1 p_r1_g110_h108_t2 -1 p_r1_g113_h111_t2 -1 p_r1_g123_h121_t2 -1 p_r1_g155_h153_t2 -1 p_r1_g157_h155_t2 -1 p_r1_g162_h160_t2 -1 p_r1_g164_h162_t2 -1 p_r2_g62_h60_t2 -1 p_r2_g64_h62_t2 -1 p_r2_g66_h64_t2 -1 p_r2_g107_h105_t2 -1 p_r2_g130_h128_t2 -1 p_r2_g133_h131_t2 -1 p_r2_g141_h139_t2 -1 p_r2_g143_h141_t2 -1 p_r2_g165_h163_t2 -1 p_r3_g9_h7_t2 -1 p_r3_g11_h9_t2 -1 p_r3_g13_h11_t2 -1 p_r3_g15_h13_t2 -1 p_r3_g27_h25_t2 -1 p_r3_g36_h34_t2 -1 p_r3_g53_h51_t2 -1 p_r3_g105_h103_t2 -1 p_r3_g113_h111_t2 -1 p_r3_g123_h121_t2 -1 p_r3_g147_h145_t2 = -58 ;
1 d_2 -1 u_2 <= 0 ;
-1 d_2 -1 u_2 <= 0 ;
1 u_2 -1 M <= 0 ;
1 u_2 <= 2 ;
1 p_r0_g7_h4_t3 -1 x_r0_g7 <= 0 ;
1 p_r0_g7_h4_t3 -1 x_r0_g4 <= 0 ;
1 p_r0_g7_h4_t3 -1 x_r0_g7 -1 x_r0_g4 >= -1 ;
1 p_r0_g20_h17_t3 -1 x_r0_g20 <= 0 ;
1 p_r0_g20_h17_t3 -1 x_r0_g17 <= 0 ;
1 p_r0_g20_h17_t3 -1 x_r0_g20 -1 x_r0_g17 >= -1 ;
1 p_r0_g25_h22_t3 -1 x_r0_g25 <= 0 ;
1 p_r0_g25_h22_t3 -1 x_r0_g22 <= 0 ;
1 p_r0_g25_h22_t3 -1 x_r0_g25 -1 x_r0_g22 >= -1 ;
1 p_r0_g28_h25_t3 -1 x_r0_g28 <= 0 ;
1 p_r0_g28_h25_t3 -1 x_r0_g25 <= 0 ;
1 p_r0_g28_h25_t3 -1 x_r0_g28 -1 x_r0_g25 >= -1 ;
1 p_r0_g37_h34_t3 -1 x_r0_g37 <= 0 ;
1 p_r0_g37_h34_t3 -1 x_r0_g34 <= 0 ;
1 p_r0_g37_h34_t3 -1 x_r0_g37 -1 x_r0_g34 >= -1 ;
1 p_r0_g87_h84_t3 -1 x_r0_g87 <= 0 ;
1 p_r0_g87_h84_t3 -1 x_r0_g84 <= 0 ;
1 p_r0_g87_h84_t3 -1 x_r0_g87 -1 x_r0_g84 >= -1 ;
1 p_r0_g129_h126_t3 -1 x_r0_g129 <= 0 ;
1 p_r0_g129_h126_t3 -1 x_r0_g126 <= 0 ;
1 p_r0_g129_h126_t3 -1 x_r0_g129 -1 x_r0_g126 >= -1 ;
1 p_r0_g162_h159_t3 -1 x_r0_g162 <= 0 ;
1 p_r0_g162_h159_t3 -1 x_r0_g159 <= 0 ;
1 p_r0_g162_h159_t3 -1 x_r0_g162 -1 x_r0_g159 >= -1 ;
1 p_r1_g11_h8_t3 -1 x_r1_g11 <= 0 ;
1 p_r1_g11_h8_t3 -1 x_r1_g8 <= 0 ;
1 p_r1_g11_h8_t3 -1 x_r1_g11 -1 x_r1_g8 >= -1 ;
1 p_r1_g26_h23_t3 -1 x_r1_g26 <= 0 ;
1 p_r1_g26_h23_t3 -1 x_r1_g23 <= 0 ;
1 p_r1_g26_h23_t3 -1 x_r1_g26 -1 x_r1_g23 >= -1 ;
1 p_r1_g41_h38_t3 -1 x_r1_g41 <= 0 ;
1 p_r1_g41_h38_t3 -1 x_r1_g38 <= 0 ;
1 p_r1_g41_h38_t3 -1 x_r1_g41 -1 x_r1_g38 >= -1 ;
1 p_r1_g44_h41_t3 -1 x_r1_g44 <= 0 ;
1 p_r1_g44_h41_t3 -1 x_r1_g41 <= 0 ;
1 p_r1_g44_h41_t3 -1 x_r1_g44 -1 x_r1_g41 >= -1 ;
1 p_r1_g59_h56_t3 -1 x_r1_g59 <= 0 ;
1 p_r1_g59_h56_t3 -1 x_r1_g56 <= 0 ;
1 p_r1_g59_h56_t3 -1 x_r1_g59 -1 x_r1_g56 >= -1 ;
1 p_r1_g62_h59_t3 -1 x_r1_g62 <= 0 ;
1 p_r1_g62_h59_t3 -1 x_r1_g59 <= 0 ;
1 p_r1_g62_h59_t3 -1 x_r1_g62 -1 x_r1_g59 >= -1 ;
1 p_r1_g67_h64_t3 -1 x_r1_g67 <= 0 ;
1 p_r1_g67_h64_t3 -1 x_r1_g64 <= 0 ;
1 p_r1_g67_h64_t3 -1 x_r1_g67 -1 x_r1_g64 >= -1 ;
1 p_r1_g96_h93_t3 -1 x_r1_g96 <= 0 ;
1 p_r1_g96_h93_t3 -1 x_r1_g93 <= 0 ;
1 p_r1_g96_h93_t3 -1 x_r1_g96 -1 x_r1_g93 >= -1 ;
1 p_r1_g111_h108_t3 -1 x_r1_g111 <= 0 ;
1 p_r1_g111_h108_t3 -1 x_r1_g108 <= 0 ;
1 p_r1_g111_h108_t3 -1 x_r1_g111 -1 x_r1_g108 >= -1 ;
1 p_r1_g113_h110_t3 -1 x_r1_g113 <= 0 ;
1 p_r1_g113_h110_t3 -1 x_r1_g110 <= 0 ;
1 p_r1_g113_h110_t3 -1 x_r1_g113 -1 x_r1_g110 >= -1 ;
1 p_r1_g114_h111_t3 -1 x_r1_g114 <= 0 ;
1 p_r1_g114_h111_t3 -1 x_r1_g111 <= 0 ;
1 p_r1_g114_h111_t3 -1 x_r1_g114 -1 x_r1_g111 >= -1 ;
1 p_r1_g117_h114_t3 -1 x_r1_g117 <= 0 ;
1 p_r1_g117_h114_t3 -1 x_r1_g114 <= 0 ;
1 p_r1_g117_h114_t3 -1 x_r1_g117 -1 x_r1_g114 >= -1 ;
1 p_r1_g146_h143_t3 -1 x_r1_g146 <= 0 ;
1 p_r1_g146_h143_t3 -1 x_r1_g143 <= 0 ;
1 p_r1_g146_h143_t3 -1 x_r1_g146 -1 x_r1_g143 >= -1 ;
1 p_r1_g160_h157_t3 -1 x_r1_g160 <= 0 ;
1 p_r1_g160_h157_t3 -1 x_r1_g157 <= 0 ;
1 p_r1_g160_h157_t3 -1 x_r1_g160 -1 x_r1_g157 >= -1 ;
1 p_r1_g164_h161_t3 -1 x_r1_g164 <= 0 ;
1 p_r1_g164_h161_t3 -1 x_r1_g161 <= 0 ;
1 p_r1_g164_h161_t3 -1 x_r1_g164 -1 x_r1_g161 >= -1 ;
1 p_r2_g21_h18_t3 -1 x_r2_g21 <= 0 ;
1 p_r2_g21_h18_t3 -1 x_r2_g18 <= 0 ;
1 p_r2_g21_h18_t3 -1 x_r2_g21 -1 x_r2_g18 >= -1 ;
1 p_r2_g73_h70_t3 -1 x_r2_g73 <= 0 ;
1 p_r2_g73_h70_t3 -1 x_r2_g70 <= 0 ;
1 p_r2_g73_h70_t3 -1 x_r2_g73 -1 x_r2_g70 >= -1 ;
1 p_r2_g77_h74_t3 -1 x_r2_g77 <= 0 ;
1 p_r2_g77_h74_t3 -1 x_r2_g74 <= 0 ;
1 p_r2_g77_h74_t3 -1 x_r2_g77 -1 x_r2_g74 >= -1 ;
1 p_r2_g80_h77_t3 -1 x_r2_g80 <= 0 ;
1 p_r2_g80_h77_t3 -1 x_r2_g77 <= 0 ;
1 p_r2_g80_h77_t3 -1 x_r2_g80 -1 x_r2_g77 >= -1 ;
1 p_r2_g105_h102_t3 -1 x_r2_g105 <= 0 ;
1 p_r2_g105_h102_t3 -1 x_r2_g102 <= 0 ;
1 p_r2_g105_h102_t3 -1 x_r2_g105 -1 x_r2_g102 >= -1 ;
1 p_r2_g110_h107_t3 -1 x_r2_g110 <= 0 ;
1 p_r2_g110_h107_t3 -1 x_r2_g107 <= 0 ;
1 p_r2_g110_h107_t3 -1 x_r2_g110 -1 x_r2_g107 >= -1 ;
1 p_r2_g131_h128_t3 -1 x_r2_g131 <= 0 ;
1 p_r2_g131_h128_t3 -1 x_r2_g128 <= 0 ;
1 p_r2_g131_h128_t3 -1 x_r2_g131 -1 x_r2_g128 >= -1 ;
1 p_r2_g133_h130_t3 -1 x_r2_g133 <= 0 ;
1 p_r2_g133_h130_t3 -1 x_r2_g130 <= 0 ;
1 p_r2_g133_h130_t3 -1 x_r2_g133 -1 x_r2_g130 >= -1 ;
1 p_r2_g142_h139_t3 -1 x_r2_g142 <= 0 ;
1 p_r2_g142_h139_t3 -1 x_r2_g139 <= 0 ;
1 p_r2_g142_h139_t3 -1 x_r2_g142 -1 x_r2_g139 >= -1 ;
1 p_r2_g146_h143_t3 -1 x_r2_g146 <= 0 ;
1 p_r2_g146_h143_t3 -1 x_r2_g143 <= 0 ;
1 p_r2_g146_h143_t3 -1 x_r2_g146 -1 x_r2_g143 >= -1 ;
1 p_r2_g149_h146_t3 -1 x_r2_g149 <= 0 ;
1 p_r2_g149_h146_t3 -1 x_r2_g146 <= 0 ;
1 p_r2_g149_h146_t3 -1 x_r2_g149 -1 x_r2_g146 >= -1 ;
1 p_r2_g152_h149_t3 -1 x_r2_g152 <= 0 ;
1 p_r2_g152_h149_t3 -1 x_r2_g149 <= 0 ;
1 p_r2_g152_h149_t3 -1 x_r2_g152 -1 x_r2_g149 >= -1 ;
1 p_r2_g155_h152_t3 -1 x_r2_g155 <= 0 ;
1 p_r2_g155_h152_t3 -1 x_r2_g152 <= 0 ;
1 p_r2_g155_h152_t3 -1 x_r2_g155 -1 x_r2_g152 >= -1 ;
1 p_r2_g158_h155_t3 -1 x_r2_g158 <= 0 ;
1 p_r2_g158_h155_t3 -1 x_r2_g155 <= 0 ;
1 p_r2_g158_h155_t3 -1 x_r2_g158 -1 x_r2_g155 >= -1 ;
1 p_r2_g162_h159_t3 -1 x_r2_g162 <= 0 ;
1 p_r2_g162_h159_t3 -1 x_r2_g159 <= 0 ;
1 p_r2_g162_h159_t3 -1 x_r2_g162 -1 x_r2_g159 >= -1 ;
1 p_r2_g165_h162_t3 -1 x_r2_g165 <= 0 ;
1 p_r2_g165_h162_t3 -1 x_r2_g162 <= 0 ;
1 p_r2_g165_h162_t3 -1 x_r2_g165 -1 x_r2_g162 >= -1 ;
1 p_r3_g11_h8_t3 -1 x_r3_g11 <= 0 ;
1 p_r3_g11_h8_t3 -1 x_r3_g8 <= 0 ;
1 p_r3_g11_h8_t3 -1 x_r3_g11 -1 x_r3_g8 >= -1 ;
1 p_r3_g12_h9_t3 -1 x_r3_g12 <= 0 ;
1 p_r3_g12_h9_t3 -1 x_r3_g9 <= 0 ;
1 p_r3_g12_h9_t3 -1 x_r3_g12 -1 x_r3_g9 >= -1 ;
1 p_r3_g15_h12_t3 -1 x_r3_g15 <= 0 ;
1 p_r3_g15_h12_t3 -1 x_r3_g12 <= 0 ;
1 p_r3_g15_h12_t3 -1 x_r3_g15 -1 x_r3_g12 >= -1 ;
1 p_r3_g16_h13_t3 -1 x_r3_g16 <= 0 ;
1 p_r3_g16_h13_t3 -1 x_r3_g13 <= 0 ;
1 p_r3_g16_h13_t3 -1 x_r3_g16 -1 x_r3_g13 >= -1 ;
1 p_r3_g19_h16_t3 -1 x_r3_g19 <= 0 ;
1 p_r3_g19_h16_t3 -1 x_r3_g16 <= 0 ;
1 p_r3_g19_h16_t3 -1 x_r3_g19 -1 x_r3_g16 >= -1 ;
1 p_r3_g27_h24_t3 -1 x_r3_g27 <= 0 ;
1 p_r3_g27_h24_t3 -1 x_r3_g24 <= 0 ;
1 p_r3_g27_h24_t3 -1 x_r3_g27 -1 x_r3_g24 >= -1 ;
1 p_r3_g36_h33_t3 -1 x_r3_g36 <= 0 ;
1 p_r3_g36_h33_t3 -1 x_r3_g33 <= 0 ;
1 p_r3_g36_h33_t3 -1 x_r3_g36 -1 x_r3_g33 >= -1 ;
1 p_r3_g106_h103_t3 -1 x_r3_g106 <= 0 ;
1 p_r3_g106_h103_t3 -1 x_r3_g103 <= 0 ;
1 p_r3_g106_h103_t3 -1 x_r3_g106 -1 x_r3_g103 >= -1 ;
1 p_r3_g121_h118_t3 -1 x_r3_g121 <= 0 ;
1 p_r3_g121_h118_t3 -1 x_r3_g118 <= 0 ;
1 p_r3_g121_h118_t3 -1 x_r3_g121 -1 x_r3_g118 >= -1 ;
1 p_r3_g124_h121_t3 -1 x_r3_g124 <= 0 ;
1 p_r3_g124_h121_t3 -1 x_r3_g121 <= 0 ;
1 p_r3_g124_h121_t3 -1 x_r3_g124 -1 x_r3_g121 >= -1 ;
1 p_r3_g141_h138_t3 -1 x_r3_g141 <= 0 ;
1 p_r3_g141_h138_t3 -1 x_r3_g138 <= 0 ;
1 p_r3_g141_h138_t3 -1 x_r3_g141 -1 x_r3_g138 >= -1 ;
1 p_r3_g144_h141_t3 -1 x_r3_g144 <= 0 ;
1 p_r3_g144_h141_t3 -1 x_r3_g141 <= 0 ;
1 p_r3_g144_h141_t3 -1 x_r3_g144 -1 x_r3_g141 >= -1 ;
1 p_r3_g147_h144_t3 -1 x_r3_g147 <= 0 ;
1 p_r3_g147_h144_t3 -1 x_r3_g144 <= 0 ;
1 p_r3_g147_h144_t3 -1 x_r3_g147 -1 x_r3_g144 >= -1 ;
1 p_r3_g165_h162_t3 -1 x_r3_g165 <= 0 ;
1 p_r3_g165_h162_t3 -1 x_r3_g162 <= 0 ;
1 p_r3_g165_h162_t3 -1 x_r3_g165 -1 x_r3_g162 >= -1 ;
1 d_3 -2 x_r0_g9 -1 x_r0_g17 -1 x_r0_g22 -1 x_r0_g27 -1 x_r0_g35 -1 x_r0_g37 -2 x_r0_g46 -1 x_r0_g54 -1 x_r0_g60 -2 x_r0_g62 -1 x_r0_g68 -1 x_r0_g70 -1 x_r0_g87 -1 x_r0_g93 -1 x_r0_g97 -1 x_r0_g126 -1 x_r0_g129 -1 x_r0_g130 -1 x_r0_g136 -1 x_r0_g143 -1 x_r0_g162 -2 x_r1_g13 -1 x_r1_g15 -1 x_r1_g17 -1 x_r1_g23 -1 x_r1_g26 -1 x_r1_g56 -1 x_r1_g62 -1 x_r1_g67 -1 x_r1_g76 -1 x_r1_g93 -1 x_r1_g110 -1 x_r1_g113 -1 x_r1_g121 -2 x_r1_g135 -1 x_r1_g143 -1 x_r1_g153 -1 x_r1_g157 -1 x_r1_g160 -1 x_r1_g162 -1 x_r2_g29 -2 x_r2_g30 -1 x_r2_g60 -1 x_r2_g62 -1 x_r2_g64 -1 x_r2_g66 -1 x_r2_g80 -1 x_r2_g86 -1 x_r2_g91 -1 x_r2_g107 -1 x_r2_g110 -1 x_r2_g131 -1 x_r2_g133 -1 x_r2_g139 -1 x_r2_g143 -1 x_r2_g158 -1 x_r2_g163 -1 x_r2_g165 -1 x_r3_g3 -1 x_r3_g7 -1 x_r3_g8 -1 x_r3_g9 -1 x_r3_g15 -1 x_r3_g19 -2 x_r3_g25 -1 x_r3_g27 -1 x_r3_g33 -1 x_r3_g34 -1 x_r3_g36 -1 x_r3_g72 -1 x_r3_g105 -1 x_r3_g111 -1 x_r3_g113 -1 x_r3_g124 -2 x_r3_g145 -1 x_r3_g165 -1 p_r0_g7_h4_t3 -1 p_r0_g20_h17_t3 -1 p_r0_g25_h22_t3 -1 p_r0_g28_h25_t3 -1 p_r0_g37_h34_t3 -1 p_r0_g87_h84_t3 -1 p_r0_g129_h126_t3 -1 p_r0_g162_h159_t3 -1 p_r1_g11_h8_t3 -1 p_r1_g26_h23_t3 -1 p_r1_g41_h38_t3 -1 p_r1_g44_h41_t3 -1 p_r1_g59_h56_t3 -1 p_r1_g62_h59_t3 -1 p_r1_g67_h64_t3 -1 p_r1_g96_h93_t3 -1 p_r1_g111_h108_t3 -1 p_r1_g113_h110_t3 -1 p_r1_g114_h111_t3 -1 p_r1_g117_h114_t3 -1 p_r1_g146_h143_t3 -1 p_r1_g160_h157_t3 -1 p_r1_g164_h161_t3 -1 p_r2_g21_h18_t3 -1 p_r2_g73_h70_t3 -1 p_r2_g77_h74_t3 -1 p_r2_g80_h77_t3 -1 p_r2_g105_h102_t3 -1 p_r2_g110_h107_t3 -1 p_r2_g131_h128_t3 -1 p_r2_g133_h130_t3 -1 p_r2_g142_h139_t3 -1 p_r2_g146_h143_t3 -1 p_r2_g149_h146_t3 -1 p_r2_g152_h149_t3 -1 p_r2_g155_h152_t3 -1 p_r2_g158_h155_t3 -1 p_r2_g162_h159_t3 -1 p_r2_g165_h162_t3 -1 p_r3_g11_h8_t3 -1 p_r3_g12_h9_t3 -1 p_r3_g15_h12_t3 -1 p_r3_g16_h13_t3 -1 p_r3_g19_h16_t3 -1 p_r3_g27_h24_t3 -1 p_r3_g36_h33_t3 -1 p_r3_g106_h103_t3 -1 p_r3_g121_h118_t3 -1 p_r3_g124_h121_t3 -1 p_r3_g141_h138_t3 -1 p_r3_g144_h141_t3 -1 p_r3_g147_h144_t3 -1 p_r3_g165_h162_t3 = -39 ;
1 d_3 -1 u_3 <= 0 ;
-1 d_3 -1 u_3 <= 0 ;
1 u_3 -1 M <= 0 ;
1 u_3 <= 2 ;
1 p_r0_g26_h22_t4 -1 x_r0_g26 <= 0 ;
1 p_r0_g26_h22_t4 -1 x_r0_g22 <= 0 ;
1 p_r0_g26_h22_t4 -1 x_r0_g26 -1 x_r0_g22 >= -1 ;
1 p_r0_g88_h84_t4 -1 x_r0_g88 <= 0 ;
1 p_r0_g88_h84_t4 -1 x_r0_g84 <= 0 ;
1 p_r0_g88_h84_t4 -1 x_r0_g88 -1 x_r0_g84 >= -1 ;
1 p_r0_g97_h93_t4 -1 x_r0_g97 <= 0 ;
1 p_r0_g97_h93_t4 -1 x_r0_g93 <= 0 ;
1 p_r0_g97_h93_t4 -1 x_r0_g97 -1 x_r0_g93 >= -1 ;
1 p_r0_g130_h126_t4 -1 x_r0_g130 <= 0 ;
1 p_r0_g130_h126_t4 -1 x_r0_g126 <= 0 ;
1 p_r0_g130_h126_t4 -1 x_r0_g130 -1 x_r0_g126 >= -1 ;
1 p_r1_g15_h11_t4 -1 x_r1_g15 <= 0 ;
1 p_r1_g15_h11_t4 -1 x_r1_g11 <= 0 ;
1 p_r1_g15_h11_t4 -1 x_r1_g15 -1 x_r1_g11 >= -1 ;
1 p_r1_g17_h13_t4 -1 x_r1_g17 <= 0 ;
1 p_r1_g17_h13_t4 -1 x_r1_g13 <= 0 ;
1 p_r1_g17_h13_t4 -1 x_r1_g17 -1 x_r1_g13 >= -1 ;
1 p_r1_g80_h76_t4 -1 x_r1_g80 <= 0 ;
1 p_r1_g80_h76_t4 -1 x_r1_g76 <= 0 ;
1 p_r1_g80_h76_t4 -1 x_r1_g80 -1 x_r1_g76 >= -1 ;
1 p_r1_g114_h110_t4 -1 x_r1_g114 <= 0 ;
1 p_r1_g114_h110_t4 -1 x_r1_g110 <= 0 ;
1 p_r1_g114_h110_t4 -1 x_r1_g114 -1 x_r1_g110 >= -1 ;
1 p_r1_g117_h113_t4 -1 x_r1_g117 <= 0 ;
1 p_r1_g117_h113_t4 -1 x_r1_g113 <= 0 ;
1 p_r1_g117_h113_t4 -1 x_r1_g117 -1 x_r1_g113 >= -1 ;
1 p_r1_g121_h117_t4 -1 x_r1_g121 <= 0 ;
1 p_r1_g121_h117_t4 -1 x_r1_g117 <= 0 ;
1 p_r1_g121_h117_t4 -1 x_r1_g121 -1 x_r1_g117 >= -1 ;
1 p_r1_g157_h153_t4 -1 x_r1_g157 <= 0 ;
1 p_r1_g157_h153_t4 -1 x_r1_g153 <= 0 ;
1 p_r1_g157_h153_t4 -1 x_r1_g157 -1 x_r1_g153 >= -1 ;
1 p_r1_g161_h157_t4 -1 x_r1_g161 <= 0 ;
1 p_r1_g161_h157_t4 -1 x_r1_g157 <= 0 ;
1 p_r1_g161_h157_t4 -1 x_r1_g161 -1 x_r1_g157 >= -1 ;
1 p_r1_g164_h160_t4 -1 x_r1_g164 <= 0 ;
1 p_r1_g164_h160_t4 -1 x_r1_g160 <= 0 ;
1 p_r1_g164_h160_t4 -1 x_r1_g164 -1 x_r1_g160 >= -1 ;
1 p_r2_g2_h165_t4 -1 x_r2_g2 <= 0 ;
1 p_r2_g2_h165_t4 -1 x_r2_g165 <= 0 ;
1 p_r2_g2_h165_t4 -1 x_r2_g2 -1 x_r2_g165 >= -1 ;
1 p_r2_g64_h60_t4 -1 x_r2_g64 <= 0 ;
1 p_r2_g64_h60_t4 -1 x_r2_g60 <= 0 ;
1 p_r2_g64_h60_t4 -1 x_r2_g64 -1 x_r2_g60 >= -1 ;
1 p_r2_g66_h62_t4 -1 x_r2_g66 <= 0 ;
1 p_r2_g66_h62_t4 -1 x_r2_g62 <= 0 ;
1 p_r2_g66_h62_t4 -1 x_r2_g66 -1 x_r2_g62 >= -1 ;
1 p_r2_g70_h66_t4 -1 x_r2_g70 <= 0 ;
1 p_r2_g70_h66_t4 -1 x_r2_g66 <= 0 ;
1 p_r2_g70_h66_t4 -1 x_r2_g70 -1 x_r2_g66 >= -1 ;
1 p_r2_g74_h70_t4 -1 x_r2_g74 <= 0 ;
1 p_r2_g74_h70_t4 -1 x_r2_g70 <= 0 ;
1 p_r2_g74_h70_t4 -1 x_r2_g74 -1 x_r2_g70 >= -1 ;
1 p_r2_g77_h73_t4 -1 x_r2_g77 <= 0 ;
1 p_r2_g77_h73_t4 -1 x_r2_g73 <= 0 ;
1 p_r2_g77_h73_t4 -1 x_r2_g77 -1 x_r2_g73 >= -1 ;
1 p_r2_g143_h139_t4 -1 x_r2_g143 <= 0 ;
1 p_r2_g143_h139_t4 -1 x_r2_g139 <= 0 ;
1 p_r2_g143_h139_t4 -1 x_r2_g143 -1 x_r2_g139 >= -1 ;
1 p_r2_g146_h142_t4 -1 x_r2_g146 <= 0 ;
1 p_r2_g146_h142_t4 -1 x_r2_g142 <= 0 ;
1 p_r2_g146_h142_t4 -1 x_r2_g146 -1 x_r2_g142 >= -1 ;
1 p_r2_g159_h155_t4 -1 x_r2_g159 <= 0 ;
1 p_r2_g159_h155_t4 -1 x_r2_g155 <= 0 ;
1 p_r2_g159_h155_t4 -1 x_r2_g159 -1 x_r2_g155 >= -1 ;
1 p_r2_g162_h158_t4 -1 x_r2_g162 <= 0 ;
1 p_r2_g162_h158_t4 -1 x_r2_g158 <= 0 ;
1 p_r2_g162_h158_t4 -1 x_r2_g162 -1 x_r2_g158 >= -1 ;
1 p_r2_g163_h159_t4 -1 x_r2_g163 <= 0 ;
1 p_r2_g163_h159_t4 -1 x_r2_g159 <= 0 ;
1 p_r2_g163_h159_t4 -1 x_r2_g163 -1 x_r2_g159 >= -1 ;
1 p_r3_g7_h3_t4 -1 x_r3_g7 <= 0 ;
1 p_r3_g7_h3_t4 -1 x_r3_g3 <= 0 ;
1 p_r3_g7_h3_t4 -1 x_r3_g7 -1 x_r3_g3 >= -1 ;
1 p_r3_g11_h7_t4 -1 x_r3_g11 <= 0 ;
1 p_r3_g11_h7_t4 -1 x_r3_g7 <= 0 ;
1 p_r3_g11_h7_t4 -1 x_r3_g11 -1 x_r3_g7 >= -1 ;
1 p_r3_g12_h8_t4 -1 x_r3_g12 <= 0 ;
1 p_r3_g12_h8_t4 -1 x_r3_g8 <= 0 ;
1 p_r3_g12_h8_t4 -1 x_r3_g12 -1 x_r3_g8 >= -1 ;
1 p_r3_g13_h9_t4 -1 x_r3_g13 <= 0 ;
1 p_r3_g13_h9_t4 -1 x_r3_g9 <= 0 ;
1 p_r3_g13_h9_t4 -1 x_r3_g13 -1 x_r3_g9 >= -1 ;
1 p_r3_g15_h11_t4 -1 x_r3_g15 <= 0 ;
1 p_r3_g15_h11_t4 -1 x_r3_g11 <= 0 ;
1 p_r3_g15_h11_t4 -1 x_r3_g15 -1 x_r3_g11 >= -1 ;
1 p_r3_g16_h12_t4 -1 x_r3_g16 <= 0 ;
1 p_r3_g16_h12_t4 -1 x_r3_g12 <= 0 ;
1 p_r3_g16_h12_t4 -1 x_r3_g16 -1 x_r3_g12 >= -1 ;
1 p_r3_g19_h15_t4 -1 x_r3_g19 <= 0 ;
1 p_r3_g19_h15_t4 -1 x_r3_g15 <= 0 ;
1 p_r3_g19_h15_t4 -1 x_r3_g19 -1 x_r3_g15 >= -1 ;
1 p_r3_g57_h53_t4 -1 x_r3_g57 <= 0 ;
1 p_r3_g57_h53_t4 -1 x_r3_g53 <= 0 ;
1 p_r3_g57_h53_t4 -1 x_r3_g57 -1 x_r3_g53 >= -1 ;
1 p_r3_g128_h124_t4 -1 x_r3_g128 <= 0 ;
1 p_r3_g128_h124_t4 -1 x_r3_g124 <= 0 ;
1 p_r3_g128_h124_t4 -1 x_r3_g128 -1 x_r3_g124 >= -1 ;
1 p_r3_g145_h141_t4 -1 x_r3_g145 <= 0 ;
1 p_r3_g145_h141_t4 -1 x_r3_g141 <= 0 ;
1 p_r3_g145_h141_t4 -1 x_r3_g145 -1 x_r3_g141 >= -1 ;
1 d_4 -2 x_r0_g7 -2 x_r0_g9 -1 x_r0_g17 -1 x_r0_g26 -2 x_r0_g34 -1 x_r0_g46 -2 x_r0_g47 -1 x_r0_g54 -1 x_r0_g62 -1 x_r0_g69 -1 x_r0_g70 -1 x_r0_g97 -2 x_r0_g102 -1 x_r0_g118 -1 x_r0_g126 -1 x_r0_g129 -1 x_r0_g131 -1 x_r0_g136 -1 x_r0_g143 -2 x_r0_g153 -2 x_r0_g159 -1 x_r0_g162 -1 x_r1_g23 -1 x_r1_g31 -1 x_r1_g38 -1 x_r1_g41 -1 x_r1_g44 -1 x_r1_g62 -1 x_r1_g64 -1 x_r1_g80 -1 x_r1_g93 -1 x_r1_g96 -1 x_r1_g108 -2 x_r1_g111 -1 x_r1_g113 -2 x_r1_g123 -2 x_r1_g128 -1 x_r1_g155 -1 x_r1_g160 -1 x_r1_g162 -1 x_r1_g164 -1 x_r2_g18 -1 x_r2_g21 -2 x_r2_g29 -2 x_r2_g30 -1 x_r2_g54 -1 x_r2_g60 -1 x_r2_g62 -1 x_r2_g64 -1 x_r2_g74 -2 x_r2_g86 -1 x_r2_g91 -1 x_r2_g102 -1 x_r2_g105 -1 x_r2_g110 -1 x_r2_g120 -1 x_r2_g128 -2 x_r2_g130 -1 x_r2_g131 -2 x_r2_g133 -1 x_r2_g139 -1 x_r2_g141 -1 x_r2_g146 -1 x_r2_g149 -1 x_r2_g152 -1 x_r2_g155 -1 x_r2_g163 -1 x_r2_g165 -1 x_r3_g3 -1 x_r3_g8 -1 x_r3_g9 -1 x_r3_g13 -1 x_r3_g16 -2 x_r3_g24 -1 x_r3_g33 -2 x_r3_g34 -2 x_r3_g36 -2 x_r3_g51 -1 x_r3_g53 -1 x_r3_g57 -2 x_r3_g72 -1 x_r3_g94 -1 x_r3_g103 -1 x_r3_g106 -1 x_r3_g112 -1 x_r3_g118 -2 x_r3_g123 -1 x_r3_g128 -2 x_r3_g138 -1 x_r3_g141 -2 x_r3_g144 -1 x_r3_g145 -2 x_r3_g147 -1 x_r3_g156 -1 x_r3_g162 -1 x_r3_g165 -1 p_r0_g26_h22_t4 -1 p_r0_g88_h84_t4 -1 p_r0_g97_h93_t4 -1 p_r0_g130_h126_t4 -1 p_r1_g15_h11_t4 -1 p_r1_g17_h13_t4 -1 p_r1_g80_h76_t4 -1 p_r1_g114_h110_t4 -1 p_r1_g117_h113_t4 -1 p_r1_g121_h117_t4 -1 p_r1_g157_h153_t4 -1 p_r1_g161_h157_t4 -1 p_r1_g164_h160_t4 -1 p_r2_g2_h165_t4 -1 p_r2_g64_h60_t4 -1 p_r2_g66_h62_t4 -1 p_r2_g70_h66_t4 -1 p_r2_g74_h70_t4 -1 p_r2_g77_h73_t4 -1 p_r2_g143_h139_t4 -1 p_r2_g146_h142_t4 -1 p_r2_g159_h155_t4 -1 p_r2_g162_h158_t4 -1 p_r2_g163_h159_t4 -1 p_r3_g7_h3_t4 -1 p_r3_g11_h7_t4 -1 p_r3_g12_h8_t4 -1 p_r3_g13_h9_t4 -1 p_r3_g15_h11_t4 -1 p_r3_g16_h12_t4 -1 p_r3_g19_h15_t4 -1 p_r3_g57_h53_t4 -1 p_r3_g128_h124_t4 -1 p_r3_g145_h141_t4 = -79 ;
1 d_4 -1 u_4 <= 0 ;
-1 d_4 -1 u_4 <= 0 ;
1 u_4 -1 M <= 0 ;
1 u_4 <= 1 ;
1 p_r0_g27_h20_t7 -1 x_r0_g27 <= 0 ;
1 p_r0_g27_h20_t7 -1 x_r0_g20 <= 0 ;
1 p_r0_g27_h20_t7 -1 x_r0_g27 -1 x_r0_g20 >= -1 ;
1 p_r0_g34_h27_t7 -1 x_r0_g34 <= 0 ;
1 p_r0_g34_h27_t7 -1 x_r0_g27 <= 0 ;
1 p_r0_g34_h27_t7 -1 x_r0_g34 -1 x_r0_g27 >= -1 ;
1 p_r0_g35_h28_t7 -1 x_r0_g35 <= 0 ;
1 p_r0_g35_h28_t7 -1 x_r0_g28 <= 0 ;
1 p_r0_g35_h28_t7 -1 x_r0_g35 -1 x_r0_g28 >= -1 ;
1 p_r0_g54_h47_t7 -1 x_r0_g54 <= 0 ;
1 p_r0_g54_h47_t7 -1 x_r0_g47 <= 0 ;
1 p_r0_g54_h47_t7 -1 x_r0_g54 -1 x_r0_g47 >= -1 ;
1 p_r0_g69_h62_t7 -1 x_r0_g69 <= 0 ;
1 p_r0_g69_h62_t7 -1 x_r0_g62 <= 0 ;
1 p_r0_g69_h62_t7 -1 x_r0_g69 -1 x_r0_g62 >= -1 ;
1 p_r0_g136_h129_t7 -1 x_r0_g136 <= 0 ;
1 p_r0_g136_h129_t7 -1 x_r0_g129 <= 0 ;
1 p_r0_g136_h129_t7 -1 x_r0_g136 -1 x_r0_g129 >= -1 ;
1 p_r0_g137_h130_t7 -1 x_r0_g137 <= 0 ;
1 p_r0_g137_h130_t7 -1 x_r0_g130 <= 0 ;
1 p_r0_g137_h130_t7 -1 x_r0_g137 -1 x_r0_g130 >= -1 ;
1 p_r0_g143_h136_t7 -1 x_r0_g143 <= 0 ;
1 p_r0_g143_h136_t7 -1 x_r0_g136 <= 0 ;
1 p_r0_g143_h136_t7 -1 x_r0_g143 -1 x_r0_g136 >= -1 ;
1 p_r0_g144_h137_t7 -1 x_r0_g144 <= 0 ;
1 p_r0_g144_h137_t7 -1 x_r0_g137 <= 0 ;
1 p_r0_g144_h137_t7 -1 x_r0_g144 -1 x_r0_g137 >= -1 ;
1 p_r1_g15_h8_t7 -1 x_r1_g15 <= 0 ;
1 p_r1_g15_h8_t7 -1 x_r1_g8 <= 0 ;
1 p_r1_g15_h8_t7 -1 x_r1_g15 -1 x_r1_g8 >= -1 ;
1 p_r1_g38_h31_t7 -1 x_r1_g38 <= 0 ;
1 p_r1_g38_h31_t7 -1 x_r1_g31 <= 0 ;
1 p_r1_g38_h31_t7 -1 x_r1_g38 -1 x_r1_g31 >= -1 ;
1 p_r1_g51_h44_t7 -1 x_r1_g51 <= 0 ;
1 p_r1_g51_h44_t7 -1 x_r1_g44 <= 0 ;
1 p_r1_g51_h44_t7 -1 x_r1_g51 -1 x_r1_g44 >= -1 ;
1 p_r1_g117_h110_t7 -1 x_r1_g117 <= 0 ;
1 p_r1_g117_h110_t7 -1 x_r1_g110 <= 0 ;
1 p_r1_g117_h110_t7 -1 x_r1_g117 -1 x_r1_g110 >= -1 ;
1 p_r1_g121_h114_t7 -1 x_r1_g121 <= 0 ;
1 p_r1_g121_h114_t7 -1 x_r1_g114 <= 0 ;
1 p_r1_g121_h114_t7 -1 x_r1_g121 -1 x_r1_g114 >= -1 ;
1 p_r1_g128_h121_t7 -1 x_r1_g128 <= 0 ;
1 p_r1_g128_h121_t7 -1 x_r1_g121 <= 0 ;
1 p_r1_g128_h121_t7 -1 x_r1_g128 -1 x_r1_g121 >= -1 ;
1 p_r1_g135_h128_t7 -1 x_r1_g135 <= 0 ;
1 p_r1_g135_h128_t7 -1 x_r1_g128 <= 0 ;
1 p_r1_g135_h128_t7 -1 x_r1_g135 -1 x_r1_g128 >= -1 ;
1 p_r1_g153_h146_t7 -1 x_r1_g153 <= 0 ;
1 p_r1_g153_h146_t7 -1 x_r1_g146 <= 0 ;
1 p_r1_g153_h146_t7 -1 x_r1_g153 -1 x_r1_g146 >= -1 ;
1 p_r1_g160_h153_t7 -1 x_r1_g160 <= 0 ;
1 p_r1_g160_h153_t7 -1 x_r1_g153 <= 0 ;
1 p_r1_g160_h153_t7 -1 x_r1_g160 -1 x_r1_g153 >= -1 ;
1 p_r1_g162_h155_t7 -1 x_r1_g162 <= 0 ;
1 p_r1_g162_h155_t7 -1 x_r1_g155 <= 0 ;
1 p_r1_g162_h155_t7 -1 x_r1_g162 -1 x_r1_g155 >= -1 ;
1 p_r1_g164_h157_t7 -1 x_r1_g164 <= 0 ;
1 p_r1_g164_h157_t7 -1 x_r1_g157 <= 0 ;
1 p_r1_g164_h157_t7 -1 x_r1_g164 -1 x_r1_g157 >= -1 ;
1 p_r2_g2_h162_t7 -1 x_r2_g2 <= 0 ;
1 p_r2_g2_h162_t7 -1 x_r2_g162 <= 0 ;
1 p_r2_g2_h162_t7 -1 x_r2_g2 -1 x_r2_g162 >= -1 ;
1 p_r2_g73_h66_t7 -1 x_r2_g73 <= 0 ;
1 p_r2_g73_h66_t7 -1 x_r2_g66 <= 0 ;
1 p_r2_g73_h66_t7 -1 x_r2_g73 -1 x_r2_g66 >= -1 ;
1 p_r2_g77_h70_t7 -1 x_r2_g77 <= 0 ;
1 p_r2_g77_h70_t7 -1 x_r2_g70 <= 0 ;
1 p_r2_g77_h70_t7 -1 x_r2_g77 -1 x_r2_g70 >= -1 ;
1 p_r2_g80_h73_t7 -1 x_r2_g80 <= 0 ;
1 p_r2_g80_h73_t7 -1 x_r2_g73 <= 0 ;
1 p_r2_g80_h73_t7 -1 x_r2_g80 -1 x_r2_g73 >= -1 ;
1 p_r2_g146_h139_t7 -1 x_r2_g146 <= 0 ;
1 p_r2_g146_h139_t7 -1 x_r2_g139 <= 0 ;
1 p_r2_g146_h139_t7 -1 x_r2_g146 -1 x_r2_g139 >= -1 ;
1 p_r2_g149_h142_t7 -1 x_r2_g149 <= 0 ;
1 p_r2_g149_h142_t7 -1 x_r2_g142 <= 0 ;
1 p_r2_g149_h142_t7 -1 x_r2_g149 -1 x_r2_g142 >= -1 ;
1 p_r2_g159_h152_t7 -1 x_r2_g159 <= 0 ;
1 p_r2_g159_h152_t7 -1 x_r2_g152 <= 0 ;
1 p_r2_g159_h152_t7 -1 x_r2_g159 -1 x_r2_g152 >= -1 ;
1 p_r2_g162_h155_t7 -1 x_r2_g162 <= 0 ;
1 p_r2_g162_h155_t7 -1 x_r2_g155 <= 0 ;
1 p_r2_g162_h155_t7 -1 x_r2_g162 -1 x_r2_g155 >= -1 ;
1 p_r2_g165_h158_t7 -1 x_r2_g165 <= 0 ;
1 p_r2_g165_h158_t7 -1 x_r2_g158 <= 0 ;
1 p_r2_g165_h158_t7 -1 x_r2_g165 -1 x_r2_g158 >= -1 ;
1 p_r3_g15_h8_t7 -1 x_r3_g15 <= 0 ;
1 p_r3_g15_h8_t7 -1 x_r3_g8 <= 0 ;
1 p_r3_g15_h8_t7 -1 x_r3_g15 -1 x_r3_g8 >= -1 ;
1 p_r3_g16_h9_t7 -1 x_r3_g16 <= 0 ;
1 p_r3_g16_h9_t7 -1 x_r3_g9 <= 0 ;
1 p_r3_g16_h9_t7 -1 x_r3_g16 -1 x_r3_g9 >= -1 ;
1 p_r3_g19_h12_t7 -1 x_r3_g19 <= 0 ;
1 p_r3_g19_h12_t7 -1 x_r3_g12 <= 0 ;
1 p_r3_g19_h12_t7 -1 x_r3_g19 -1 x_r3_g12 >= -1 ;
1 p_r3_g34_h27_t7 -1 x_r3_g34 <= 0 ;
1 p_r3_g34_h27_t7 -1 x_r3_g27 <= 0 ;
1 p_r3_g34_h27_t7 -1 x_r3_g34 -1 x_r3_g27 >= -1 ;
1 p_r3_g112_h105_t7 -1 x_r3_g112 <= 0 ;
1 p_r3_g112_h105_t7 -1 x_r3_g105 <= 0 ;
1 p_r3_g112_h105_t7 -1 x_r3_g112 -1 x_r3_g105 >= -1 ;
1 p_r3_g113_h106_t7 -1 x_r3_g113 <= 0 ;
1 p_r3_g113_h106_t7 -1 x_r3_g106 <= 0 ;
1 p_r3_g113_h106_t7 -1 x_r3_g113 -1 x_r3_g106 >= -1 ;
1 p_r3_g118_h111_t7 -1 x_r3_g118 <= 0 ;
1 p_r3_g118_h111_t7 -1 x_r3_g111 <= 0 ;
1 p_r3_g118_h111_t7 -1 x_r3_g118 -1 x_r3_g111 >= -1 ;
1 p_r3_g128_h121_t7 -1 x_r3_g128 <= 0 ;
1 p_r3_g128_h121_t7 -1 x_r3_g121 <= 0 ;
1 p_r3_g128_h121_t7 -1 x_r3_g128 -1 x_r3_g121 >= -1 ;
1 p_r3_g145_h138_t7 -1 x_r3_g145 <= 0 ;
1 p_r3_g145_h138_t7 -1 x_r3_g138 <= 0 ;
1 p_r3_g145_h138_t7 -1 x_r3_g145 -1 x_r3_g138 >= -1 ;
1 d_7 -1 x_r0_g4 -1 x_r0_g7 -1 x_r0_g20 -1 x_r0_g22 -1 x_r0_g26 -1 x_r0_g35 -1 x_r0_g37 -1 x_r0_g47 -1 x_r0_g60 -1 x_r0_g62 -2 x_r0_g70 -1 x_r0_g84 -1 x_r0_g93 -1 x_r0_g97 -1 x_r0_g118 -1 x_r0_g126 -1 x_r0_g129 -1 x_r0_g130 -1 x_r0_g144 -2 x_r0_g153 -1 x_r0_g159 -1 x_r0_g162 -1 x_r1_g8 -1 x_r1_g11 -1 x_r1_g13 -1 x_r1_g17 -1 x_r1_g23 -1 x_r1_g44 -1 x_r1_g56 -1 x_r1_g59 -1 x_r1_g62 -1 x_r1_g64 -1 x_r1_g76 -1 x_r1_g80 -1 x_r1_g93 -2 x_r1_g96 -1 x_r1_g108 -1 x_r1_g110 -1 x_r1_g114 -1 x_r1_g117 -2 x_r1_g123 -2 x_r1_g161 -1 x_r2_g18 -2 x_r2_g21 -1 x_r2_g48 -1 x_r2_g54 -1 x_r2_g70 -1 x_r2_g80 -1 x_r2_g86 -1 x_r2_g91 -2 x_r2_g105 -1 x_r2_g107 -1 x_r2_g120 -2 x_r2_g128 -1 x_r2_g130 -2 x_r2_g133 -1 x_r2_g139 -2 x_r2_g141 -1 x_r2_g142 -2 x_r2_g143 -1 x_r2_g146 -1 x_r2_g155 -1 x_r2_g158 -1 x_r3_g3 -1 x_r3_g8 -1 x_r3_g9 -2 x_r3_g11 -1 x_r3_g12 -2 x_r3_g13 -1 x_r3_g15 -1 x_r3_g19 -1 x_r3_g24 -2 x_r3_g25 -1 x_r3_g27 -2 x_r3_g33 -1 x_r3_g34 -1 x_r3_g36 -1 x_r3_g53 -1 x_r3_g72 -1 x_r3_g103 -1 x_r3_g105 -1 x_r3_g106 -1 x_r3_g112 -2 x_r3_g141 -2 x_r3_g144 -2 x_r3_g147 -2 x_r3_g156 -1 x_r3_g162 -1 x_r3_g165 -1 p_r0_g27_h20_t7 -1 p_r0_g34_h27_t7 -1 p_r0_g35_h28_t7 -1 p_r0_g54_h47_t7 -1 p_r0_g69_h62_t7 -1 p_r0_g136_h129_t7 -1 p_r0_g137_h130_t7 -1 p_r0_g143_h136_t7 -1 p_r0_g144_h137_t7 -1 p_r1_g15_h8_t7 -1 p_r1_g38_h31_t7 -1 p_r1_g51_h44_t7 -1 p_r1_g117_h110_t7 -1 p_r1_g121_h114_t7 -1 p_r1_g128_h121_t7 -1 p_r1_g135_h128_t7 -1 p_r1_g153_h146_t7 -1 p_r1_g160_h153_t7 -1 p_r1_g162_h155_t7 -1 p_r1_g164_h157_t7 -1 p_r2_g2_h162_t7 -1 p_r2_g73_h66_t7 -1 p_r2_g77_h70_t7 -1 p_r2_g80_h73_t7 -1 p_r2_g146_h139_t7 -1 p_r2_g149_h142_t7 -1 p_r2_g159_h152_t7 -1 p_r2_g162_h155_t7 -1 p_r2_g165_h158_t7 -1 p_r3_g15_h8_t7 -1 p_r3_g16_h9_t7 -1 p_r3_g19_h12_t7 -1 p_r3_g34_h27_t7 -1 p_r3_g112_h105_t7 -1 p_r3_g113_h106_t7 -1 p_r3_g118_h111_t7 -1 p_r3_g128_h121_t7 -1 p_r3_g145_h138_t7 = -59 ;
1 d_7 -1 u_7 <= 0 ;
-1 d_7 -1 u_7 <= 0 ;
1 u_7 -1 M <= 0 ;
1 u_7 <= 1 ;
1 p_r0_g4_h153_t18 -1 x_r0_g4 <= 0 ;
1 p_r0_g4_h153_t18 -1 x_r0_g153 <= 0 ;
1 p_r0_g4_h153_t18 -1 x_r0_g4 -1 x_r0_g153 >= -1 ;
1 p_r0_g22_h4_t18 -1 x_r0_g22 <= 0 ;
1 p_r0_g22_h4_t18 -1 x_r0_g4 <= 0 ;
1 p_r0_g22_h4_t18 -1 x_r0_g22 -1 x_r0_g4 >= -1 ;
1 p_r0_g25_h7_t18 -1 x_r0_g25 <= 0 ;
1 p_r0_g25_h7_t18 -1 x_r0_g7 <= 0 ;
1 p_r0_g25_h7_t18 -1 x_r0_g25 -1 x_r0_g7 >= -1 ;
1 p_r0_g27_h9_t18 -1 x_r0_g27 <= 0 ;
1 p_r0_g27_h9_t18 -1 x_r0_g9 <= 0 ;
1 p_r0_g27_h9_t18 -1 x_r0_g27 -1 x_r0_g9 >= -1 ;
1 p_r0_g35_h17_t18 -1 x_r0_g35 <= 0 ;
1 p_r0_g35_h17_t18 -1 x_r0_g17 <= 0 ;
1 p_r0_g35_h17_t18 -1 x_r0_g35 -1 x_r0_g17 >= -1 ;
1 p_r0_g46_h28_t18 -1 x_r0_g46 <= 0 ;
1 p_r0_g46_h28_t18 -1 x_r0_g28 <= 0 ;
1 p_r0_g46_h28_t18 -1 x_r0_g46 -1 x_r0_g28 >= -1 ;
1 p_r0_g87_h69_t18 -1 x_r0_g87 <= 0 ;
1 p_r0_g87_h69_t18 -1 x_r0_g69 <= 0 ;
1 p_r0_g87_h69_t18 -1 x_r0_g87 -1 x_r0_g69 >= -1 ;
1 p_r0_g88_h70_t18 -1 x_r0_g88 <= 0 ;
1 p_r0_g88_h70_t18 -1 x_r0_g70 <= 0 ;
1 p_r0_g88_h70_t18 -1 x_r0_g88 -1 x_r0_g70 >= -1 ;
1 p_r0_g97_h79_t18 -1 x_r0_g97 <= 0 ;
1 p_r0_g97_h79_t18 -1 x_r0_g79 <= 0 ;
1 p_r0_g97_h79_t18 -1 x_r0_g97 -1 x_r0_g79 >= -1 ;
1 p_r0_g102_h84_t18 -1 x_r0_g102 <= 0 ;
1 p_r0_g102_h84_t18 -1 x_r0_g84 <= 0 ;
1 p_r0_g102_h84_t18 -1 x_r0_g102 -1 x_r0_g84 >= -1 ;
1 p_r0_g136_h118_t18 -1 x_r0_g136 <= 0 ;
1 p_r0_g136_h118_t18 -1 x_r0_g118 <= 0 ;
1 p_r0_g136_h118_t18 -1 x_r0_g136 -1 x_r0_g118 >= -1 ;
1 p_r0_g144_h126_t18 -1 x_r0_g144 <= 0 ;
1 p_r0_g144_h126_t18 -1 x_r0_g126 <= 0 ;
1 p_r0_g144_h126_t18 -1 x_r0_g144 -1 x_r0_g126 >= -1 ;
1 p_r0_g162_h144_t18 -1 x_r0_g162 <= 0 ;
1 p_r0_g162_h144_t18 -1 x_r0_g144 <= 0 ;
1 p_r0_g162_h144_t18 -1 x_r0_g162 -1 x_r0_g144 >= -1 ;
1 p_r1_g8_h157_t18 -1 x_r1_g8 <= 0 ;
1 p_r1_g8_h157_t18 -1 x_r1_g157 <= 0 ;
1 p_r1_g8_h157_t18 -1 x_r1_g8 -1 x_r1_g157 >= -1 ;
1 p_r1_g11_h160_t18 -1 x_r1_g11 <= 0 ;
1 p_r1_g11_h160_t18 -1 x_r1_g160 <= 0 ;
1 p_r1_g11_h160_t18 -1 x_r1_g11 -1 x_r1_g160 >= -1 ;
1 p_r1_g13_h162_t18 -1 x_r1_g13 <= 0 ;
1 p_r1_g13_h162_t18 -1 x_r1_g162 <= 0 ;
1 p_r1_g13_h162_t18 -1 x_r1_g13 -1 x_r1_g162 >= -1 ;
1 p_r1_g15_h164_t18 -1 x_r1_g15 <= 0 ;
1 p_r1_g15_h164_t18 -1 x_r1_g164 <= 0 ;
1 p_r1_g15_h164_t18 -1 x_r1_g15 -1 x_r1_g164 >= -1 ;
1 p_r1_g26_h8_t18 -1 x_r1_g26 <= 0 ;
1 p_r1_g26_h8_t18 -1 x_r1_g8 <= 0 ;
1 p_r1_g26_h8_t18 -1 x_r1_g26 -1 x_r1_g8 >= -1 ;
1 p_r1_g31_h13_t18 -1 x_r1_g31 <= 0 ;
1 p_r1_g31_h13_t18 -1 x_r1_g13 <= 0 ;
1 p_r1_g31_h13_t18 -1 x_r1_g31 -1 x_r1_g13 >= -1 ;
1 p_r1_g41_h23_t18 -1 x_r1_g41 <= 0 ;
1 p_r1_g41_h23_t18 -1 x_r1_g23 <= 0 ;
1 p_r1_g41_h23_t18 -1 x_r1_g41 -1 x_r1_g23 >= -1 ;
1 p_r1_g44_h26_t18 -1 x_r1_g44 <= 0 ;
1 p_r1_g44_h26_t18 -1 x_r1_g26 <= 0 ;
1 p_r1_g44_h26_t18 -1 x_r1_g44 -1 x_r1_g26 >= -1 ;
1 p_r1_g56_h38_t18 -1 x_r1_g56 <= 0 ;
1 p_r1_g56_h38_t18 -1 x_r1_g38 <= 0 ;
1 p_r1_g56_h38_t18 -1 x_r1_g56 -1 x_r1_g38 >= -1 ;
1 p_r1_g59_h41_t18 -1 x_r1_g59 <= 0 ;
1 p_r1_g59_h41_t18 -1 x_r1_g41 <= 0 ;
1 p_r1_g59_h41_t18 -1 x_r1_g59 -1 x_r1_g41 >= -1 ;
1 p_r1_g62_h44_t18 -1 x_r1_g62 <= 0 ;
1 p_r1_g62_h44_t18 -1 x_r1_g44 <= 0 ;
1 p_r1_g62_h44_t18 -1 x_r1_g62 -1 x_r1_g44 >= -1 ;
1 p_r1_g80_h62_t18 -1 x_r1_g80 <= 0 ;
1 p_r1_g80_h62_t18 -1 x_r1_g62 <= 0 ;
1 p_r1_g80_h62_t18 -1 x_r1_g80 -1 x_r1_g62 >= -1 ;
1 p_r1_g111_h93_t18 -1 x_r1_g111 <= 0 ;
1 p_r1_g111_h93_t18 -1 x_r1_g93 <= 0 ;
1 p_r1_g111_h93_t18 -1 x_r1_g111 -1 x_r1_g93 >= -1 ;
1 p_r1_g114_h96_t18 -1 x_r1_g114 <= 0 ;
1 p_r1_g114_h96_t18 -1 x_r1_g96 <= 0 ;
1 p_r1_g114_h96_t18 -1 x_r1_g114 -1 x_r1_g96 >= -1 ;
1 p_r1_g128_h110_t18 -1 x_r1_g128 <= 0 ;
1 p_r1_g128_h110_t18 -1 x_r1_g110 <= 0 ;
1 p_r1_g128_h110_t18 -1 x_r1_g128 -1 x_r1_g110 >= -1 ;
1 p_r1_g135_h117_t18 -1 x_r1_g135 <= 0 ;
1 p_r1_g135_h117_t18 -1 x_r1_g117 <= 0 ;
1 p_r1_g135_h117_t18 -1 x_r1_g135 -1 x_r1_g117 >= -1 ;
1 p_r1_g146_h128_t18 -1 x_r1_g146 <= 0 ;
1 p_r1_g146_h128_t18 -1 x_r1_g128 <= 0 ;
1 p_r1_g146_h128_t18 -1 x_r1_g146 -1 x_r1_g128 >= -1 ;
1 p_r1_g153_h135_t18 -1 x_r1_g153 <= 0 ;
1 p_r1_g153_h135_t18 -1 x_r1_g135 <= 0 ;
1 p_r1_g153_h135_t18 -1 x_r1_g153 -1 x_r1_g135 >= -1 ;
1 p_r1_g161_h143_t18 -1 x_r1_g161 <= 0 ;
1 p_r1_g161_h143_t18 -1 x_r1_g143 <= 0 ;
1 p_r1_g161_h143_t18 -1 x_r1_g161 -1 x_r1_g143 >= -1 ;
1 p_r1_g164_h146_t18 -1 x_r1_g164 <= 0 ;
1 p_r1_g164_h146_t18 -1 x_r1_g146 <= 0 ;
1 p_r1_g164_h146_t18 -1 x_r1_g164 -1 x_r1_g146 >= -1 ;
1 p_r2_g48_h30_t18 -1 x_r2_g48 <= 0 ;
1 p_r2_g48_h30_t18 -1 x_r2_g30 <= 0 ;
1 p_r2_g48_h30_t18 -1 x_r2_g48 -1 x_r2_g30 >= -1 ;
1 p_r2_g66_h48_t18 -1 x_r2_g66 <= 0 ;
1 p_r2_g66_h48_t18 -1 x_r2_g48 <= 0 ;
1 p_r2_g66_h48_t18 -1 x_r2_g66 -1 x_r2_g48 >= -1 ;
1 p_r2_g80_h62_t18 -1 x_r2_g80 <= 0 ;
1 p_r2_g80_h62_t18 -1 x_r2_g62 <= 0 ;
1 p_r2_g80_h62_t18 -1 x_r2_g80 -1 x_r2_g62 >= -1 ;
1 p_r2_g91_h73_t18 -1 x_r2_g91 <= 0 ;
1 p_r2_g91_h73_t18 -1 x_r2_g73 <= 0 ;
1 p_r2_g91_h73_t18 -1 x_r2_g91 -1 x_r2_g73 >= -1 ;
1 p_r2_g120_h102_t18 -1 x_r2_g120 <= 0 ;
1 p_r2_g120_h102_t18 -1 x_r2_g102 <= 0 ;
1 p_r2_g120_h102_t18 -1 x_r2_g120 -1 x_r2_g102 >= -1 ;
1 p_r2_g128_h110_t18 -1 x_r2_g128 <= 0 ;
1 p_r2_g128_h110_t18 -1 x_r2_g110 <= 0 ;
1 p_r2_g128_h110_t18 -1 x_r2_g128 -1 x_r2_g110 >= -1 ;
1 p_r2_g146_h128_t18 -1 x_r2_g146 <= 0 ;
1 p_r2_g146_h128_t18 -1 x_r2_g128 <= 0 ;
1 p_r2_g146_h128_t18 -1 x_r2_g146 -1 x_r2_g128 >= -1 ;
1 p_r2_g149_h131_t18 -1 x_r2_g149 <= 0 ;
1 p_r2_g149_h131_t18 -1 x_r2_g131 <= 0 ;
1 p_r2_g149_h131_t18 -1 x_r2_g149 -1 x_r2_g131 >= -1 ;
1 p_r2_g159_h141_t18 -1 x_r2_g159 <= 0 ;
1 p_r2_g159_h141_t18 -1 x_r2_g141 <= 0 ;
1 p_r2_g159_h141_t18 -1 x_r2_g159 -1 x_r2_g141 >= -1 ;
1 p_r3_g7_h156_t18 -1 x_r3_g7 <= 0 ;
1 p_r3_g7_h156_t18 -1 x_r3_g156 <= 0 ;
1 p_r3_g7_h156_t18 -1 x_r3_g7 -1 x_r3_g156 >= -1 ;
1 p_r3_g13_h162_t18 -1 x_r3_g13 <= 0 ;
1 p_r3_g13_h162_t18 -1 x_r3_g162 <= 0 ;
1 p_r3_g13_h162_t18 -1 x_r3_g13 -1 x_r3_g162 >= -1 ;
1 p_r3_g16_h165_t18 -1 x_r3_g16 <= 0 ;
1 p_r3_g16_h165_t18 -1 x_r3_g165 <= 0 ;
1 p_r3_g16_h165_t18 -1 x_r3_g16 -1 x_r3_g165 >= -1 ;
1 p_r3_g25_h7_t18 -1 x_r3_g25 <= 0 ;
1 p_r3_g25_h7_t18 -1 x_r3_g7 <= 0 ;
1 p_r3_g25_h7_t18 -1 x_r3_g25 -1 x_r3_g7 >= -1 ;
1 p_r3_g27_h9_t18 -1 x_r3_g27 <= 0 ;
1 p_r3_g27_h9_t18 -1 x_r3_g9 <= 0 ;
1 p_r3_g27_h9_t18 -1 x_r3_g27 -1 x_r3_g9 >= -1 ;
1 p_r3_g33_h15_t18 -1 x_r3_g33 <= 0 ;
1 p_r3_g33_h15_t18 -1 x_r3_g15 <= 0 ;
1 p_r3_g33_h15_t18 -1 x_r3_g33 -1 x_r3_g15 >= -1 ;
1 p_r3_g34_h16_t18 -1 x_r3_g34 <= 0 ;
1 p_r3_g34_h16_t18 -1 x_r3_g16 <= 0 ;
1 p_r3_g34_h16_t18 -1 x_r3_g34 -1 x_r3_g16 >= -1 ;
1 p_r3_g51_h33_t18 -1 x_r3_g51 <= 0 ;
1 p_r3_g51_h33_t18 -1 x_r3_g33 <= 0 ;
1 p_r3_g51_h33_t18 -1 x_r3_g51 -1 x_r3_g33 >= -1 ;
1 p_r3_g112_h94_t18 -1 x_r3_g112 <= 0 ;
1 p_r3_g112_h94_t18 -1 x_r3_g94 <= 0 ;
1 p_r3_g112_h94_t18 -1 x_r3_g112 -1 x_r3_g94 >= -1 ;
1 p_r3_g121_h103_t18 -1 x_r3_g121 <= 0 ;
1 p_r3_g121_h103_t18 -1 x_r3_g103 <= 0 ;
1 p_r3_g121_h103_t18 -1 x_r3_g121 -1 x_r3_g103 >= -1 ;
1 p_r3_g123_h105_t18 -1 x_r3_g123 <= 0 ;
1 p_r3_g123_h105_t18 -1 x_r3_g105 <= 0 ;
1 p_r3_g123_h105_t18 -1 x_r3_g123 -1 x_r3_g105 >= -1 ;
1 p_r3_g124_h106_t18 -1 x_r3_g124 <= 0 ;
1 p_r3_g124_h106_t18 -1 x_r3_g106 <= 0 ;
1 p_r3_g124_h106_t18 -1 x_r3_g124 -1 x_r3_g106 >= -1 ;
1 p_r3_g141_h123_t18 -1 x_r3_g141 <= 0 ;
1 p_r3_g141_h123_t18 -1 x_r3_g123 <= 0 ;
1 p_r3_g141_h123_t18 -1 x_r3_g141 -1 x_r3_g123 >= -1 ;
1 p_r3_g156_h138_t18 -1 x_r3_g156 <= 0 ;
1 p_r3_g156_h138_t18 -1 x_r3_g138 <= 0 ;
1 p_r3_g156_h138_t18 -1 x_r3_g156 -1 x_r3_g138 >= -1 ;
1 p_r3_g162_h144_t18 -1 x_r3_g162 <= 0 ;
1 p_r3_g162_h144_t18 -1 x_r3_g144 <= 0 ;
1 p_r3_g162_h144_t18 -1 x_r3_g162 -1 x_r3_g144 >= -1 ;
1 p_r3_g165_h147_t18 -1 x_r3_g165 <= 0 ;
1 p_r3_g165_h147_t18 -1 x_r3_g147 <= 0 ;
1 p_r3_g165_h147_t18 -1 x_r3_g165 -1 x_r3_g147 >= -1 ;
1 d_18 -1 x_r0_g9 -1 x_r0_g20 -1 x_r0_g22 -1 x_r0_g25 -1 x_r0_g27 -1 x_r0_g34 -2 x_r0_g37 -1 x_r0_g47 -1 x_r0_g54 -1 x_r0_g60 -1 x_r0_g69 -1 x_r0_g70 -1 x_r0_g88 -1 x_r0_g102 -1 x_r0_g118 -2 x_r0_g131 -2 x_r0_g137 -1 x_r0_g143 -1 x_r0_g162 -1 x_r1_g11 -1 x_r1_g17 -1 x_r1_g31 -1 x_r1_g38 -1 x_r1_g51 -2 x_r1_g64 -1 x_r1_g67 -1 x_r1_g80 -1 x_r1_g96 -1 x_r1_g108 -1 x_r1_g113 -1 x_r1_g114 -1 x_r1_g121 -1 x_r1_g123 -2 x_r2_g2 -1 x_r2_g18 -1 x_r2_g21 -1 x_r2_g60 -2 x_r2_g64 -1 x_r2_g74 -1 x_r2_g80 -2 x_r2_g86 -1 x_r2_g105 -2 x_r2_g130 -1 x_r2_g131 -2 x_r2_g133 -2 x_r2_g139 -1 x_r2_g142 -1 x_r2_g143 -1 x_r2_g149 -1 x_r2_g152 -1 x_r2_g155 -1 x_r2_g158 -1 x_r2_g163 -1 x_r3_g8 -1 x_r3_g11 -1 x_r3_g12 -2 x_r3_g19 -1 x_r3_g24 -1 x_r3_g25 -1 x_r3_g27 -1 x_r3_g36 -2 x_r3_g57 -1 x_r3_g94 -1 x_r3_g111 -1 x_r3_g121 -1 x_r3_g124 -1 x_r3_g128 -2 x_r3_g145 -1 x_r3_g147 -1 p_r0_g4_h153_t18 -1 p_r0_g22_h4_t18 -1 p_r0_g25_h7_t18 -1 p_r0_g27_h9_t18 -1 p_r0_g35_h17_t18 -1 p_r0_g46_h28_t18 -1 p_r0_g87_h69_t18 -1 p_r0_g88_h70_t18 -1 p_r0_g97_h79_t18 -1 p_r0_g102_h84_t18 -1 p_r0_g136_h118_t18 -1 p_r0_g144_h126_t18 -1 p_r0_g162_h144_t18 -1 p_r1_g8_h157_t18 -1 p_r1_g11_h160_t18 -1 p_r1_g13_h162_t18 -1 p_r1_g15_h164_t18 -1 p_r1_g26_h8_t18 -1 p_r1_g31_h13_t18 -1 p_r1_g41_h23_t18 -1 p_r1_g44_h26_t18 -1 p_r1_g56_h38_t18 -1 p_r1_g59_h41_t18 -1 p_r1_g62_h44_t18 -1 p_r1_g80_h62_t18 -1 p_r1_g111_h93_t18 -1 p_r1_g114_h96_t18 -1 p_r1_g128_h110_t18 -1 p_r1_g135_h117_t18 -1 p_r1_g146_h128_t18 -1 p_r1_g153_h135_t18 -1 p_r1_g161_h143_t18 -1 p_r1_g164_h146_t18 -1 p_r2_g48_h30_t18 -1 p_r2_g66_h48_t18 -1 p_r2_g80_h62_t18 -1 p_r2_g91_h73_t18 -1 p_r2_g120_h102_t18 -1 p_r2_g128_h110_t18 -1 p_r2_g146_h128_t18 -1 p_r2_g149_h131_t18 -1 p_r2_g159_h141_t18 -1 p_r3_g7_h156_t18 -1 p_r3_g13_h162_t18 -1 p_r3_g16_h165_t18 -1 p_r3_g25_h7_t18 -1 p_r3_g27_h9_t18 -1 p_r3_g33_h15_t18 -1 p_r3_g34_h16_t18 -1 p_r3_g51_h33_t18 -1 p_r3_g112_h94_t18 -1 p_r3_g121_h103_t18 -1 p_r3_g123_h105_t18 -1 p_r3_g124_h106_t18 -1 p_r3_g141_h123_t18 -1 p_r3_g156_h138_t18 -1 p_r3_g162_h144_t18 -1 p_r3_g165_h147_t18 = -74 ;
1 d_18 -1 u_18 <= 0 ;
-1 d_18 -1 u_18 <= 0 ;
1 u_18 -1 M <= 0 ;
1 u_18 <= 2 ;
1 p_r0_g26_h7_t19 -1 x_r0_g26 <= 0 ;
1 p_r0_g26_h7_t19 -1 x_r0_g7 <= 0 ;
1 p_r0_g26_h7_t19 -1 x_r0_g26 -1 x_r0_g7 >= -1 ;
1 p_r0_g28_h9_t19 -1 x_r0_g28 <= 0 ;
1 p_r0_g28_h9_t19 -1 x_r0_g9 <= 0 ;
1 p_r0_g28_h9_t19 -1 x_r0_g28 -1 x_r0_g9 >= -1 ;
1 p_r0_g46_h27_t19 -1 x_r0_g46 <= 0 ;
1 p_r0_g46_h27_t19 -1 x_r0_g27 <= 0 ;
1 p_r0_g46_h27_t19 -1 x_r0_g46 -1 x_r0_g27 >= -1 ;
1 p_r0_g47_h28_t19 -1 x_r0_g47 <= 0 ;
1 p_r0_g47_h28_t19 -1 x_r0_g28 <= 0 ;
1 p_r0_g47_h28_t19 -1 x_r0_g47 -1 x_r0_g28 >= -1 ;
1 p_r0_g54_h35_t19 -1 x_r0_g54 <= 0 ;
1 p_r0_g54_h35_t19 -1 x_r0_g35 <= 0 ;
1 p_r0_g54_h35_t19 -1 x_r0_g54 -1 x_r0_g35 >= -1 ;
1 p_r0_g79_h60_t19 -1 x_r0_g79 <= 0 ;
1 p_r0_g79_h60_t19 -1 x_r0_g60 <= 0 ;
1 p_r0_g79_h60_t19 -1 x_r0_g79 -1 x_r0_g60 >= -1 ;
1 p_r0_g87_h68_t19 -1 x_r0_g87 <= 0 ;
1 p_r0_g87_h68_t19 -1 x_r0_g68 <= 0 ;
1 p_r0_g87_h68_t19 -1 x_r0_g87 -1 x_r0_g68 >= -1 ;
1 p_r0_g88_h69_t19 -1 x_r0_g88 <= 0 ;
1 p_r0_g88_h69_t19 -1 x_r0_g69 <= 0 ;
1 p_r0_g88_h69_t19 -1 x_r0_g88 -1 x_r0_g69 >= -1 ;
1 p_r0_g137_h118_t19 -1 x_r0_g137 <= 0 ;
1 p_r0_g137_h118_t19 -1 x_r0_g118 <= 0 ;
1 p_r0_g137_h118_t19 -1 x_r0_g137 -1 x_r0_g118 >= -1 ;
1 p_r0_g162_h143_t19 -1 x_r0_g162 <= 0 ;
1 p_r0_g162_h143_t19 -1 x_r0_g143 <= 0 ;
1 p_r0_g162_h143_t19 -1 x_r0_g162 -1 x_r0_g143 >= -1 ;
1 p_r1_g13_h161_t19 -1 x_r1_g13 <= 0 ;
1 p_r1_g13_h161_t19 -1 x_r1_g161 <= 0 ;
1 p_r1_g13_h161_t19 -1 x_r1_g13 -1 x_r1_g161 >= -1 ;
1 p_r1_g162_h143_t19 -1 x_r1_g162 <= 0 ;
1 p_r1_g162_h143_t19 -1 x_r1_g143 <= 0 ;
1 p_r1_g162_h143_t19 -1 x_r1_g162 -1 x_r1_g143 >= -1 ;
1 p_r2_g21_h2_t19 -1 x_r2_g21 <= 0 ;
1 p_r2_g21_h2_t19 -1 x_r2_g2 <= 0 ;
1 p_r2_g21_h2_t19 -1 x_r2_g21 -1 x_r2_g2 >= -1 ;
1 p_r2_g48_h29_t19 -1 x_r2_g48 <= 0 ;
1 p_r2_g48_h29_t19 -1 x_r2_g29 <= 0 ;
1 p_r2_g48_h29_t19 -1 x_r2_g48 -1 x_r2_g29 >= -1 ;
1 p_r2_g73_h54_t19 -1 x_r2_g73 <= 0 ;
1 p_r2_g73_h54_t19 -1 x_r2_g54 <= 0 ;
1 p_r2_g73_h54_t19 -1 x_r2_g73 -1 x_r2_g54 >= -1 ;
1 p_r2_g105_h86_t19 -1 x_r2_g105 <= 0 ;
1 p_r2_g105_h86_t19 -1 x_r2_g86 <= 0 ;
1 p_r2_g105_h86_t19 -1 x_r2_g105 -1 x_r2_g86 >= -1 ;
1 p_r2_g110_h91_t19 -1 x_r2_g110 <= 0 ;
1 p_r2_g110_h91_t19 -1 x_r2_g91 <= 0 ;
1 p_r2_g110_h91_t19 -1 x_r2_g110 -1 x_r2_g91 >= -1 ;
1 p_r2_g139_h120_t19 -1 x_r2_g139 <= 0 ;
1 p_r2_g139_h120_t19 -1 x_r2_g120 <= 0 ;
1 p_r2_g139_h120_t19 -1 x_r2_g139 -1 x_r2_g120 >= -1 ;
1 p_r2_g149_h130_t19 -1 x_r2_g149 <= 0 ;
1 p_r2_g149_h130_t19 -1 x_r2_g130 <= 0 ;
1 p_r2_g149_h130_t19 -1 x_r2_g149 -1 x_r2_g130 >= -1 ;
1 p_r2_g152_h133_t19 -1 x_r2_g152 <= 0 ;
1 p_r2_g152_h133_t19 -1 x_r2_g133 <= 0 ;
1 p_r2_g152_h133_t19 -1 x_r2_g152 -1 x_r2_g133 >= -1 ;
1 p_r2_g158_h139_t19 -1 x_r2_g158 <= 0 ;
1 p_r2_g158_h139_t19 -1 x_r2_g139 <= 0 ;
1 p_r2_g158_h139_t19 -1 x_r2_g158 -1 x_r2_g139 >= -1 ;
1 p_r2_g162_h143_t19 -1 x_r2_g162 <= 0 ;
1 p_r2_g162_h143_t19 -1 x_r2_g143 <= 0 ;
1 p_r2_g162_h143_t19 -1 x_r2_g162 -1 x_r2_g143 >= -1 ;
1 p_r2_g165_h146_t19 -1 x_r2_g165 <= 0 ;
1 p_r2_g165_h146_t19 -1 x_r2_g146 <= 0 ;
1 p_r2_g165_h146_t19 -1 x_r2_g165 -1 x_r2_g146 >= -1 ;
1 p_r3_g8_h156_t19 -1 x_r3_g8 <= 0 ;
1 p_r3_g8_h156_t19 -1 x_r3_g156 <= 0 ;
1 p_r3_g8_h156_t19 -1 x_r3_g8 -1 x_r3_g156 >= -1 ;
1 p_r3_g27_h8_t19 -1 x_r3_g27 <= 0 ;
1 p_r3_g27_h8_t19 -1 x_r3_g8 <= 0 ;
1 p_r3_g27_h8_t19 -1 x_r3_g27 -1 x_r3_g8 >= -1 ;
1 p_r3_g34_h15_t19 -1 x_r3_g34 <= 0 ;
1 p_r3_g34_h15_t19 -1 x_r3_g15 <= 0 ;
1 p_r3_g34_h15_t19 -1 x_r3_g34 -1 x_r3_g15 >= -1 ;
1 p_r3_g53_h34_t19 -1 x_r3_g53 <= 0 ;
1 p_r3_g53_h34_t19 -1 x_r3_g34 <= 0 ;
1 p_r3_g53_h34_t19 -1 x_r3_g53 -1 x_r3_g34 >= -1 ;
1 p_r3_g72_h53_t19 -1 x_r3_g72 <= 0 ;
1 p_r3_g72_h53_t19 -1 x_r3_g53 <= 0 ;
1 p_r3_g72_h53_t19 -1 x_r3_g72 -1 x_r3_g53 >= -1 ;
1 p_r3_g113_h94_t19 -1 x_r3_g113 <= 0 ;
1 p_r3_g113_h94_t19 -1 x_r3_g94 <= 0 ;
1 p_r3_g113_h94_t19 -1 x_r3_g113 -1 x_r3_g94 >= -1 ;
1 p_r3_g124_h105_t19 -1 x_r3_g124 <= 0 ;
1 p_r3_g124_h105_t19 -1 x_r3_g105 <= 0 ;
1 p_r3_g124_h105_t19 -1 x_r3_g124 -1 x_r3_g105 >= -1 ;
1 p_r3_g147_h128_t19 -1 x_r3_g147 <= 0 ;
1 p_r3_g147_h128_t19 -1 x_r3_g128 <= 0 ;
1 p_r3_g147_h128_t19 -1 x_r3_g147 -1 x_r3_g128 >= -1 ;
1 d_19 -1 x_r0_g4 -1 x_r0_g7 -1 x_r0_g9 -2 x_r0_g17 -1 x_r0_g22 -1 x_r0_g25 -1 x_r0_g26 -1 x_r0_g34 -1 x_r0_g46 -1 x_r0_g62 -1 x_r0_g68 -1 x_r0_g70 -1 x_r0_g79 -2 x_r0_g84 -1 x_r0_g87 -1 x_r0_g93 -1 x_r0_g97 -1 x_r0_g130 -1 x_r0_g136 -2 x_r0_g144 -1 x_r0_g153 -1 x_r0_g159 -1 x_r0_g162 -2 x_r1_g8 -1 x_r1_g11 -1 x_r1_g13 -1 x_r1_g15 -1 x_r1_g17 -1 x_r1_g23 -1 x_r1_g38 -2 x_r1_g51 -1 x_r1_g56 -2 x_r1_g59 -1 x_r1_g62 -2 x_r1_g76 -1 x_r1_g93 -1 x_r1_g96 -2 x_r1_g108 -1 x_r1_g110 -1 x_r1_g111 -1 x_r1_g113 -1 x_r1_g114 -1 x_r1_g117 -1 x_r1_g121 -1 x_r1_g128 -2 x_r1_g135 -1 x_r1_g143 -1 x_r1_g146 -1 x_r1_g157 -1 x_r1_g160 -1 x_r1_g164 -1 x_r2_g2 -1 x_r2_g30 -1 x_r2_g60 -1 x_r2_g62 -1 x_r2_g64 -1 x_r2_g66 -1 x_r2_g74 -1 x_r2_g77 -1 x_r2_g80 -2 x_r2_g102 -1 x_r2_g107 -1 x_r2_g110 -1 x_r2_g120 -2 x_r2_g131 -1 x_r2_g133 -2 x_r2_g141 -1 x_r2_g142 -1 x_r2_g149 -1 x_r2_g152 -2 x_r2_g155 -1 x_r2_g159 -1 x_r2_g162 -2 x_r3_g3 -1 x_r3_g7 -1 x_r3_g9 -1 x_r3_g11 -1 x_r3_g12 -1 x_r3_g13 -1 x_r3_g15 -1 x_r3_g19 -2 x_r3_g24 -1 x_r3_g25 -1 x_r3_g27 -2 x_r3_g36 -1 x_r3_g51 -2 x_r3_g57 -1 x_r3_g94 -1 x_r3_g103 -1 x_r3_g105 -1 x_r3_g113 -2 x_r3_g118 -1 x_r3_g121 -1 x_r3_g123 -1 x_r3_g124 -1 x_r3_g138 -2 x_r3_g141 -1 x_r3_g144 -1 x_r3_g147 -1 x_r3_g156 -1 x_r3_g162 -1 x_r3_g165 -1 p_r0_g26_h7_t19 -1 p_r0_g28_h9_t19 -1 p_r0_g46_h27_t19 -1 p_r0_g47_h28_t19 -1 p_r0_g54_h35_t19 -1 p_r0_g79_h60_t19 -1 p_r0_g87_h68_t19 -1 p_r0_g88_h69_t19 -1 p_r0_g137_h118_t19 -1 p_r0_g162_h143_t19 -1 p_r1_g13_h161_t19 -1 p_r1_g162_h143_t19 -1 p_r2_g21_h2_t19 -1 p_r2_g48_h29_t19 -1 p_r2_g73_h54_t19 -1 p_r2_g105_h86_t19 -1 p_r2_g110_h91_t19 -1 p_r2_g139_h120_t19 -1 p_r2_g149_h130_t19 -1 p_r2_g152_h133_t19 -1 p_r2_g158_h139_t19 -1 p_r2_g162_h143_t19 -1 p_r2_g165_h146_t19 -1 p_r3_g8_h156_t19 -1 p_r3_g27_h8_t19 -1 p_r3_g34_h15_t19 -1 p_r3_g53_h34_t19 -1 p_r3_g72_h53_t19 -1 p_r3_g113_h94_t19 -1 p_r3_g124_h105_t19 -1 p_r3_g147_h128_t19 = -53 ;
1 d_19 -1 u_19 <= 0 ;
-1 d_19 -1 u_19 <= 0 ;
1 u_19 -1 M <= 0 ;
1 u_19 <= 2 ;
1 p_r0_g7_h153_t21 -1 x_r0_g7 <= 0 ;
1 p_r0_g7_h153_t21 -1 x_r0_g153 <= 0 ;
1 p_r0_g7_h153_t21 -1 x_r0_g7 -1 x_r0_g153 >= -1 ;
1 p_r0_g25_h4_t21 -1 x_r0_g25 <= 0 ;
1 p_r0_g25_h4_t21 -1 x_r0_g4 <= 0 ;
1 p_r0_g25_h4_t21 -1 x_r0_g25 -1 x_r0_g4 >= -1 ;
1 p_r0_g28_h7_t21 -1 x_r0_g28 <= 0 ;
1 p_r0_g28_h7_t21 -1 x_r0_g7 <= 0 ;
1 p_r0_g28_h7_t21 -1 x_r0_g28 -1 x_r0_g7 >= -1 ;
1 p_r0_g46_h25_t21 -1 x_r0_g46 <= 0 ;
1 p_r0_g46_h25_t21 -1 x_r0_g25 <= 0 ;
1 p_r0_g46_h25_t21 -1 x_r0_g46 -1 x_r0_g25 >= -1 ;
1 p_r0_g47_h26_t21 -1 x_r0_g47 <= 0 ;
1 p_r0_g47_h26_t21 -1 x_r0_g26 <= 0 ;
1 p_r0_g47_h26_t21 -1 x_r0_g47 -1 x_r0_g26 >= -1 ;
1 p_r0_g68_h47_t21 -1 x_r0_g68 <= 0 ;
1 p_r0_g68_h47_t21 -1 x_r0_g47 <= 0 ;
1 p_r0_g68_h47_t21 -1 x_r0_g68 -1 x_r0_g47 >= -1 ;
1 p_r0_g118_h97_t21 -1 x_r0_g118 <= 0 ;
1 p_r0_g118_h97_t21 -1 x_r0_g97 <= 0 ;
1 p_r0_g118_h97_t21 -1 x_r0_g118 -1 x_r0_g97 >= -1 ;
1 p_r1_g11_h157_t21 -1 x_r1_g11 <= 0 ;
1 p_r1_g11_h157_t21 -1 x_r1_g157 <= 0 ;
1 p_r1_g11_h157_t21 -1 x_r1_g11 -1 x_r1_g157 >= -1 ;
1 p_r1_g15_h161_t21 -1 x_r1_g15 <= 0 ;
1 p_r1_g15_h161_t21 -1 x_r1_g161 <= 0 ;
1 p_r1_g15_h161_t21 -1 x_r1_g15 -1 x_r1_g161 >= -1 ;
1 p_r1_g38_h17_t21 -1 x_r1_g38 <= 0 ;
1 p_r1_g38_h17_t21 -1 x_r1_g17 <= 0 ;
1 p_r1_g38_h17_t21 -1 x_r1_g38 -1 x_r1_g17 >= -1 ;
1 p_r1_g44_h23_t21 -1 x_r1_g44 <= 0 ;
1 p_r1_g44_h23_t21 -1 x_r1_g23 <= 0 ;
1 p_r1_g44_h23_t21 -1 x_r1_g44 -1 x_r1_g23 >= -1 ;
1 p_r1_g59_h38_t21 -1 x_r1_g59 <= 0 ;
1 p_r1_g59_h38_t21 -1 x_r1_g38 <= 0 ;
1 p_r1_g59_h38_t21 -1 x_r1_g59 -1 x_r1_g38 >= -1 ;
1 p_r1_g62_h41_t21 -1 x_r1_g62 <= 0 ;
1 p_r1_g62_h41_t21 -1 x_r1_g41 <= 0 ;
1 p_r1_g62_h41_t21 -1 x_r1_g62 -1 x_r1_g41 >= -1 ;
1 p_r1_g80_h59_t21 -1 x_r1_g80 <= 0 ;
1 p_r1_g80_h59_t21 -1 x_r1_g59 <= 0 ;
1 p_r1_g80_h59_t21 -1 x_r1_g80 -1 x_r1_g59 >= -1 ;
1 p_r1_g114_h93_t21 -1 x_r1_g114 <= 0 ;
1 p_r1_g114_h93_t21 -1 x_r1_g93 <= 0 ;
1 p_r1_g114_h93_t21 -1 x_r1_g114 -1 x_r1_g93 >= -1 ;
1 p_r1_g117_h96_t21 -1 x_r1_g117 <= 0 ;
1 p_r1_g117_h96_t21 -1 x_r1_g96 <= 0 ;
1 p_r1_g117_h96_t21 -1 x_r1_g117 -1 x_r1_g96 >= -1 ;
1 p_r1_g135_h114_t21 -1 x_r1_g135 <= 0 ;
1 p_r1_g135_h114_t21 -1 x_r1_g114 <= 0 ;
1 p_r1_g135_h114_t21 -1 x_r1_g135 -1 x_r1_g114 >= -1 ;
1 p_r1_g164_h143_t21 -1 x_r1_g164 <= 0 ;
1 p_r1_g164_h143_t21 -1 x_r1_g143 <= 0 ;
1 p_r1_g164_h143_t21 -1 x_r1_g164 -1 x_r1_g143 >= -1 ;
1 p_r2_g91_h70_t21 -1 x_r2_g91 <= 0 ;
1 p_r2_g91_h70_t21 -1 x_r2_g70 <= 0 ;
1 p_r2_g91_h70_t21 -1 x_r2_g91 -1 x_r2_g70 >= -1 ;
1 p_r2_g107_h86_t21 -1 x_r2_g107 <= 0 ;
1 p_r2_g107_h86_t21 -1 x_r2_g86 <= 0 ;
1 p_r2_g107_h86_t21 -1 x_r2_g107 -1 x_r2_g86 >= -1 ;
1 p_r2_g128_h107_t21 -1 x_r2_g128 <= 0 ;
1 p_r2_g128_h107_t21 -1 x_r2_g107 <= 0 ;
1 p_r2_g128_h107_t21 -1 x_r2_g128 -1 x_r2_g107 >= -1 ;
1 p_r2_g131_h110_t21 -1 x_r2_g131 <= 0 ;
1 p_r2_g131_h110_t21 -1 x_r2_g110 <= 0 ;
1 p_r2_g131_h110_t21 -1 x_r2_g131 -1 x_r2_g110 >= -1 ;
1 p_r2_g141_h120_t21 -1 x_r2_g141 <= 0 ;
1 p_r2_g141_h120_t21 -1 x_r2_g120 <= 0 ;
1 p_r2_g141_h120_t21 -1 x_r2_g141 -1 x_r2_g120 >= -1 ;
1 p_r2_g149_h128_t21 -1 x_r2_g149 <= 0 ;
1 p_r2_g149_h128_t21 -1 x_r2_g128 <= 0 ;
1 p_r2_g149_h128_t21 -1 x_r2_g149 -1 x_r2_g128 >= -1 ;
1 p_r2_g152_h131_t21 -1 x_r2_g152 <= 0 ;
1 p_r2_g152_h131_t21 -1 x_r2_g131 <= 0 ;
1 p_r2_g152_h131_t21 -1 x_r2_g152 -1 x_r2_g131 >= -1 ;
1 p_r2_g162_h141_t21 -1 x_r2_g162 <= 0 ;
1 p_r2_g162_h141_t21 -1 x_r2_g141 <= 0 ;
1 p_r2_g162_h141_t21 -1 x_r2_g162 -1 x_r2_g141 >= -1 ;
1 p_r2_g163_h142_t21 -1 x_r2_g163 <= 0 ;
1 p_r2_g163_h142_t21 -1 x_r2_g142 <= 0 ;
1 p_r2_g163_h142_t21 -1 x_r2_g163 -1 x_r2_g142 >= -1 ;
1 p_r3_g16_h162_t21 -1 x_r3_g16 <= 0 ;
1 p_r3_g16_h162_t21 -1 x_r3_g162 <= 0 ;
1 p_r3_g16_h162_t21 -1 x_r3_g16 -1 x_r3_g162 >= -1 ;
1 p_r3_g19_h165_t21 -1 x_r3_g19 <= 0 ;
1 p_r3_g19_h165_t21 -1 x_r3_g165 <= 0 ;
1 p_r3_g19_h165_t21 -1 x_r3_g19 -1 x_r3_g165 >= -1 ;
1 p_r3_g24_h3_t21 -1 x_r3_g24 <= 0 ;
1 p_r3_g24_h3_t21 -1 x_r3_g3 <= 0 ;
1 p_r3_g24_h3_t21 -1 x_r3_g24 -1 x_r3_g3 >= -1 ;
1 p_r3_g33_h12_t21 -1 x_r3_g33 <= 0 ;
1 p_r3_g33_h12_t21 -1 x_r3_g12 <= 0 ;
1 p_r3_g33_h12_t21 -1 x_r3_g33 -1 x_r3_g12 >= -1 ;
1 p_r3_g34_h13_t21 -1 x_r3_g34 <= 0 ;
1 p_r3_g34_h13_t21 -1 x_r3_g13 <= 0 ;
1 p_r3_g34_h13_t21 -1 x_r3_g34 -1 x_r3_g13 >= -1 ;
1 p_r3_g36_h15_t21 -1 x_r3_g36 <= 0 ;
1 p_r3_g36_h15_t21 -1 x_r3_g15 <= 0 ;
1 p_r3_g36_h15_t21 -1 x_r3_g36 -1 x_r3_g15 >= -1 ;
1 p_r3_g57_h36_t21 -1 x_r3_g57 <= 0 ;
1 p_r3_g57_h36_t21 -1 x_r3_g36 <= 0 ;
1 p_r3_g57_h36_t21 -1 x_r3_g57 -1 x_r3_g36 >= -1 ;
1 p_r3_g72_h51_t21 -1 x_r3_g72 <= 0 ;
1 p_r3_g72_h51_t21 -1 x_r3_g51 <= 0 ;
1 p_r3_g72_h51_t21 -1 x_r3_g72 -1 x_r3_g51 >= -1 ;
1 p_r3_g124_h103_t21 -1 x_r3_g124 <= 0 ;
1 p_r3_g124_h103_t21 -1 x_r3_g103 <= 0 ;
1 p_r3_g124_h103_t21 -1 x_r3_g124 -1 x_r3_g103 >= -1 ;
1 p_r3_g144_h123_t21 -1 x_r3_g144 <= 0 ;
1 p_r3_g144_h123_t21 -1 x_r3_g123 <= 0 ;
1 p_r3_g144_h123_t21 -1 x_r3_g144 -1 x_r3_g123 >= -1 ;
1 p_r3_g145_h124_t21 -1 x_r3_g145 <= 0 ;
1 p_r3_g145_h124_t21 -1 x_r3_g124 <= 0 ;
1 p_r3_g145_h124_t21 -1 x_r3_g145 -1 x_r3_g124 >= -1 ;
1 p_r3_g162_h141_t21 -1 x_r3_g162 <= 0 ;
1 p_r3_g162_h141_t21 -1 x_r3_g141 <= 0 ;
1 p_r3_g162_h141_t21 -1 x_r3_g162 -1 x_r3_g141 >= -1 ;
1 p_r3_g165_h144_t21 -1 x_r3_g165 <= 0 ;
1 p_r3_g165_h144_t21 -1 x_r3_g144 <= 0 ;
1 p_r3_g165_h144_t21 -1 x_r3_g165 -1 x_r3_g144 >= -1 ;
1 d_21 -2 x_r0_g9 -2 x_r0_g17 -1 x_r0_g22 -1 x_r0_g26 -2 x_r0_g27 -1 x_r0_g28 -2 x_r0_g34 -1 x_r0_g35 -1 x_r0_g37 -1 x_r0_g46 -2 x_r0_g69 -1 x_r0_g70 -2 x_r0_g79 -1 x_r0_g84 -1 x_r0_g88 -1 x_r0_g102 -1 x_r0_g118 -1 x_r0_g130 -1 x_r0_g131 -1 x_r0_g136 -2 x_r0_g137 -1 x_r0_g143 -2 x_r0_g144 -1 x_r0_g153 -1 x_r0_g159 -2 x_r1_g8 -1 x_r1_g11 -1 x_r1_g13 -1 x_r1_g15 -1 x_r1_g17 -1 x_r1_g31 -1 x_r1_g41 -1 x_r1_g44 -2 x_r1_g67 -1 x_r1_g108 -1 x_r1_g110 -2 x_r1_g111 -1 x_r1_g117 -1 x_r1_g121 -1 x_r1_g128 -1 x_r1_g135 -1 x_r1_g153 -1 x_r1_g161 -2 x_r1_g162 -1 x_r1_g164 -1 x_r2_g2 -1 x_r2_g18 -1 x_r2_g21 -1 x_r2_g48 -2 x_r2_g54 -1 x_r2_g60 -2 x_r2_g62 -2 x_r2_g64 -1 x_r2_g66 -1 x_r2_g70 -1 x_r2_g73 -2 x_r2_g77 -1 x_r2_g80 -1 x_r2_g86 -1 x_r2_g91 -1 x_r2_g105 -1 x_r2_g130 -1 x_r2_g133 -1 x_r2_g139 -1 x_r2_g142 -1 x_r2_g143 -1 x_r2_g146 -1 x_r2_g155 -1 x_r2_g158 -1 x_r3_g3 -1 x_r3_g7 -1 x_r3_g8 -1 x_r3_g9 -1 x_r3_g11 -1 x_r3_g16 -1 x_r3_g19 -1 x_r3_g24 -2 x_r3_g25 -1 x_r3_g27 -1 x_r3_g34 -1 x_r3_g51 -2 x_r3_g53 -1 x_r3_g57 -1 x_r3_g106 -1 x_r3_g111 -1 x_r3_g113 -1 x_r3_g118 -1 x_r3_g121 -1 x_r3_g128 -1 x_r3_g145 -1 x_r3_g147 -1 p_r0_g7_h153_t21 -1 p_r0_g25_h4_t21 -1 p_r0_g28_h7_t21 -1 p_r0_g46_h25_t21 -1 p_r0_g47_h26_t21 -1 p_r0_g68_h47_t21 -1 p_r0_g118_h97_t21 -1 p_r1_g11_h157_t21 -1 p_r1_g15_h161_t21 -1 p_r1_g38_h17_t21 -1 p_r1_g44_h23_t21 -1 p_r1_g59_h38_t21 -1 p_r1_g62_h41_t21 -1 p_r1_g80_h59_t21 -1 p_r1_g114_h93_t21 -1 p_r1_g117_h96_t21 -1 p_r1_g135_h114_t21 -1 p_r1_g164_h143_t21 -1 p_r2_g91_h70_t21 -1 p_r2_g107_h86_t21 -1 p_r2_g128_h107_t21 -1 p_r2_g131_h110_t21 -1 p_r2_g141_h120_t21 -1 p_r2_g149_h128_t21 -1 p_r2_g152_h131_t21 -1 p_r2_g162_h141_t21 -1 p_r2_g163_h142_t21 -1 p_r3_g16_h162_t21 -1 p_r3_g19_h165_t21 -1 p_r3_g24_h3_t21 -1 p_r3_g33_h12_t21 -1 p_r3_g34_h13_t21 -1 p_r3_g36_h15_t21 -1 p_r3_g57_h36_t21 -1 p_r3_g72_h51_t21 -1 p_r3_g124_h103_t21 -1 p_r3_g144_h123_t21 -1 p_r3_g145_h124_t21 -1 p_r3_g162_h141_t21 -1 p_r3_g165_h144_t21 = -48 ;
1 d_21 -1 u_21 <= 0 ;
-1 d_21 -1 u_21 <= 0 ;
1 u_21 -1 M <= 0 ;
1 u_21 <= 2 ;
1 p_r0_g46_h17_t29 -1 x_r0_g46 <= 0 ;
1 p_r0_g46_h17_t29 -1 x_r0_g17 <= 0 ;
1 p_r0_g46_h17_t29 -1 x_r0_g46 -1 x_r0_g17 >= -1 ;
1 p_r0_g54_h25_t29 -1 x_r0_g54 <= 0 ;
1 p_r0_g54_h25_t29 -1 x_r0_g25 <= 0 ;
1 p_r0_g54_h25_t29 -1 x_r0_g54 -1 x_r0_g25 >= -1 ;
1 p_r0_g97_h68_t29 -1 x_r0_g97 <= 0 ;
1 p_r0_g97_h68_t29 -1 x_r0_g68 <= 0 ;
1 p_r0_g97_h68_t29 -1 x_r0_g97 -1 x_r0_g68 >= -1 ;
1 p_r0_g126_h97_t29 -1 x_r0_g126 <= 0 ;
1 p_r0_g126_h97_t29 -1 x_r0_g97 <= 0 ;
1 p_r0_g126_h97_t29 -1 x_r0_g126 -1 x_r0_g97 >= -1 ;
1 p_r0_g131_h102_t29 -1 x_r0_g131 <= 0 ;
1 p_r0_g131_h102_t29 -1 x_r0_g102 <= 0 ;
1 p_r0_g131_h102_t29 -1 x_r0_g131 -1 x_r0_g102 >= -1 ;
1 p_r0_g159_h130_t29 -1 x_r0_g159 <= 0 ;
1 p_r0_g159_h130_t29 -1 x_r0_g130 <= 0 ;
1 p_r0_g159_h130_t29 -1 x_r0_g159 -1 x_r0_g130 >= -1 ;
1 p_r1_g8_h146_t29 -1 x_r1_g8 <= 0 ;
1 p_r1_g8_h146_t29 -1 x_r1_g146 <= 0 ;
1 p_r1_g8_h146_t29 -1 x_r1_g8 -1 x_r1_g146 >= -1 ;
1 p_r1_g15_h153_t29 -1 x_r1_g15 <= 0 ;
1 p_r1_g15_h153_t29 -1 x_r1_g153 <= 0 ;
1 p_r1_g15_h153_t29 -1 x_r1_g15 -1 x_r1_g153 >= -1 ;
1 p_r1_g17_h155_t29 -1 x_r1_g17 <= 0 ;
1 p_r1_g17_h155_t29 -1 x_r1_g155 <= 0 ;
1 p_r1_g17_h155_t29 -1 x_r1_g17 -1 x_r1_g155 >= -1 ;
1 p_r1_g23_h161_t29 -1 x_r1_g23 <= 0 ;
1 p_r1_g23_h161_t29 -1 x_r1_g161 <= 0 ;
1 p_r1_g23_h161_t29 -1 x_r1_g23 -1 x_r1_g161 >= -1 ;
1 p_r1_g26_h164_t29 -1 x_r1_g26 <= 0 ;
1 p_r1_g26_h164_t29 -1 x_r1_g164 <= 0 ;
1 p_r1_g26_h164_t29 -1 x_r1_g26 -1 x_r1_g164 >= -1 ;
1 p_r1_g44_h15_t29 -1 x_r1_g44 <= 0 ;
1 p_r1_g44_h15_t29 -1 x_r1_g15 <= 0 ;
1 p_r1_g44_h15_t29 -1 x_r1_g44 -1 x_r1_g15 >= -1 ;
1 p_r1_g67_h38_t29 -1 x_r1_g67 <= 0 ;
1 p_r1_g67_h38_t29 -1 x_r1_g38 <= 0 ;
1 p_r1_g67_h38_t29 -1 x_r1_g67 -1 x_r1_g38 >= -1 ;
1 p_r1_g80_h51_t29 -1 x_r1_g80 <= 0 ;
1 p_r1_g80_h51_t29 -1 x_r1_g51 <= 0 ;
1 p_r1_g80_h51_t29 -1 x_r1_g80 -1 x_r1_g51 >= -1 ;
1 p_r1_g93_h64_t29 -1 x_r1_g93 <= 0 ;
1 p_r1_g93_h64_t29 -1 x_r1_g64 <= 0 ;
1 p_r1_g93_h64_t29 -1 x_r1_g93 -1 x_r1_g64 >= -1 ;
1 p_r1_g96_h67_t29 -1 x_r1_g96 <= 0 ;
1 p_r1_g96_h67_t29 -1 x_r1_g67 <= 0 ;
1 p_r1_g96_h67_t29 -1 x_r1_g96 -1 x_r1_g67 >= -1 ;
1 p_r1_g143_h114_t29 -1 x_r1_g143 <= 0 ;
1 p_r1_g143_h114_t29 -1 x_r1_g114 <= 0 ;
1 p_r1_g143_h114_t29 -1 x_r1_g143 -1 x_r1_g114 >= -1 ;
1 p_r1_g146_h117_t29 -1 x_r1_g146 <= 0 ;
1 p_r1_g146_h117_t29 -1 x_r1_g117 <= 0 ;
1 p_r1_g146_h117_t29 -1 x_r1_g146 -1 x_r1_g117 >= -1 ;
1 p_r1_g157_h128_t29 -1 x_r1_g157 <= 0 ;
1 p_r1_g157_h128_t29 -1 x_r1_g128 <= 0 ;
1 p_r1_g157_h128_t29 -1 x_r1_g157 -1 x_r1_g128 >= -1 ;
1 p_r1_g164_h135_t29 -1 x_r1_g164 <= 0 ;
1 p_r1_g164_h135_t29 -1 x_r1_g135 <= 0 ;
1 p_r1_g164_h135_t29 -1 x_r1_g164 -1 x_r1_g135 >= -1 ;
1 p_r2_g21_h159_t29 -1 x_r2_g21 <= 0 ;
1 p_r2_g21_h159_t29 -1 x_r2_g159 <= 0 ;
1 p_r2_g21_h159_t29 -1 x_r2_g21 -1 x_r2_g159 >= -1 ;
1 p_r2_g77_h48_t29 -1 x_r2_g77 <= 0 ;
1 p_r2_g77_h48_t29 -1 x_r2_g48 <= 0 ;
1 p_r2_g77_h48_t29 -1 x_r2_g77 -1 x_r2_g48 >= -1 ;
1 p_r2_g91_h62_t29 -1 x_r2_g91 <= 0 ;
1 p_r2_g91_h62_t29 -1 x_r2_g62 <= 0 ;
1 p_r2_g91_h62_t29 -1 x_r2_g91 -1 x_r2_g62 >= -1 ;
1 p_r2_g102_h73_t29 -1 x_r2_g102 <= 0 ;
1 p_r2_g102_h73_t29 -1 x_r2_g73 <= 0 ;
1 p_r2_g102_h73_t29 -1 x_r2_g102 -1 x_r2_g73 >= -1 ;
1 p_r2_g120_h91_t29 -1 x_r2_g120 <= 0 ;
1 p_r2_g120_h91_t29 -1 x_r2_g91 <= 0 ;
1 p_r2_g120_h91_t29 -1 x_r2_g120 -1 x_r2_g91 >= -1 ;
1 p_r2_g131_h102_t29 -1 x_r2_g131 <= 0 ;
1 p_r2_g131_h102_t29 -1 x_r2_g102 <= 0 ;
1 p_r2_g131_h102_t29 -1 x_r2_g131 -1 x_r2_g102 >= -1 ;
1 p_r2_g139_h110_t29 -1 x_r2_g139 <= 0 ;
1 p_r2_g139_h110_t29 -1 x_r2_g110 <= 0 ;
1 p_r2_g139_h110_t29 -1 x_r2_g139 -1 x_r2_g110 >= -1 ;
1 p_r2_g149_h120_t29 -1 x_r2_g149 <= 0 ;
1 p_r2_g149_h120_t29 -1 x_r2_g120 <= 0 ;
1 p_r2_g149_h120_t29 -1 x_r2_g149 -1 x_r2_g120 >= -1 ;
1 p_r2_g159_h130_t29 -1 x_r2_g159 <= 0 ;
1 p_r2_g159_h130_t29 -1 x_r2_g130 <= 0 ;
1 p_r2_g159_h130_t29 -1 x_r2_g159 -1 x_r2_g130 >= -1 ;
1 p_r2_g162_h133_t29 -1 x_r2_g162 <= 0 ;
1 p_r2_g162_h133_t29 -1 x_r2_g133 <= 0 ;
1 p_r2_g162_h133_t29 -1 x_r2_g162 -1 x_r2_g133 >= -1 ;
1 p_r3_g3_h141_t29 -1 x_r3_g3 <= 0 ;
1 p_r3_g3_h141_t29 -1 x_r3_g141 <= 0 ;
1 p_r3_g3_h141_t29 -1 x_r3_g3 -1 x_r3_g141 >= -1 ;
1 p_r3_g7_h145_t29 -1 x_r3_g7 <= 0 ;
1 p_r3_g7_h145_t29 -1 x_r3_g145 <= 0 ;
1 p_r3_g7_h145_t29 -1 x_r3_g7 -1 x_r3_g145 >= -1 ;
1 p_r3_g9_h147_t29 -1 x_r3_g9 <= 0 ;
1 p_r3_g9_h147_t29 -1 x_r3_g147 <= 0 ;
1 p_r3_g9_h147_t29 -1 x_r3_g9 -1 x_r3_g147 >= -1 ;
1 p_r3_g24_h162_t29 -1 x_r3_g24 <= 0 ;
1 p_r3_g24_h162_t29 -1 x_r3_g162 <= 0 ;
1 p_r3_g24_h162_t29 -1 x_r3_g24 -1 x_r3_g162 >= -1 ;
1 p_r3_g27_h165_t29 -1 x_r3_g27 <= 0 ;
1 p_r3_g27_h165_t29 -1 x_r3_g165 <= 0 ;
1 p_r3_g27_h165_t29 -1 x_r3_g27 -1 x_r3_g165 >= -1 ;
1 p_r3_g36_h7_t29 -1 x_r3_g36 <= 0 ;
1 p_r3_g36_h7_t29 -1 x_r3_g7 <= 0 ;
1 p_r3_g36_h7_t29 -1 x_r3_g36 -1 x_r3_g7 >= -1 ;
1 p_r3_g53_h24_t29 -1 x_r3_g53 <= 0 ;
1 p_r3_g53_h24_t29 -1 x_r3_g24 <= 0 ;
1 p_r3_g53_h24_t29 -1 x_r3_g53 -1 x_r3_g24 >= -1 ;
1 p_r3_g123_h94_t29 -1 x_r3_g123 <= 0 ;
1 p_r3_g123_h94_t29 -1 x_r3_g94 <= 0 ;
1 p_r3_g123_h94_t29 -1 x_r3_g123 -1 x_r3_g94 >= -1 ;
1 p_r3_g141_h112_t29 -1 x_r3_g141 <= 0 ;
1 p_r3_g141_h112_t29 -1 x_r3_g112 <= 0 ;
1 p_r3_g141_h112_t29 -1 x_r3_g141 -1 x_r3_g112 >= -1 ;
1 p_r3_g147_h118_t29 -1 x_r3_g147 <= 0 ;
1 p_r3_g147_h118_t29 -1 x_r3_g118 <= 0 ;
1 p_r3_g147_h118_t29 -1 x_r3_g147 -1 x_r3_g118 >= -1 ;
1 d_29 -1 x_r0_g4 -1 x_r0_g7 -1 x_r0_g9 -1 x_r0_g17 -2 x_r0_g20 -2 x_r0_g22 -1 x_r0_g25 -1 x_r0_g26 -1 x_r0_g27 -2 x_r0_g34 -1 x_r0_g35 -2 x_r0_g69 -2 x_r0_g84 -2 x_r0_g87 -1 x_r0_g88 -1 x_r0_g93 -1 x_r0_g126 -2 x_r0_g129 -1 x_r0_g130 -1 x_r0_g131 -1 x_r0_g136 -1 x_r0_g143 -1 x_r0_g144 -1 x_r0_g153 -1 x_r1_g8 -1 x_r1_g11 -1 x_r1_g13 -1 x_r1_g17 -1 x_r1_g41 -1 x_r1_g56 -1 x_r1_g59 -1 x_r1_g62 -1 x_r1_g80 -1 x_r1_g108 -1 x_r1_g110 -2 x_r1_g111 -1 x_r1_g113 -1 x_r1_g117 -1 x_r1_g153 -1 x_r1_g161 -2 x_r2_g2 -2 x_r2_g29 -1 x_r2_g30 -2 x_r2_g54 -1 x_r2_g60 -1 x_r2_g62 -1 x_r2_g64 -1 x_r2_g70 -1 x_r2_g86 -1 x_r2_g105 -2 x_r2_g107 -1 x_r2_g128 -1 x_r2_g130 -1 x_r2_g131 -1 x_r2_g133 -1 x_r2_g139 -1 x_r2_g141 -2 x_r2_g142 -1 x_r2_g143 -1 x_r2_g152 -1 x_r2_g155 -2 x_r2_g158 -2 x_r2_g163 -2 x_r2_g165 -1 x_r3_g3 -1 x_r3_g8 -1 x_r3_g9 -2 x_r3_g11 -1 x_r3_g12 -1 x_r3_g13 -2 x_r3_g16 -1 x_r3_g25 -2 x_r3_g33 -1 x_r3_g34 -1 x_r3_g36 -2 x_r3_g51 -2 x_r3_g57 -1 x_r3_g72 -1 x_r3_g94 -2 x_r3_g103 -2 x_r3_g105 -1 x_r3_g106 -1 x_r3_g111 -1 x_r3_g112 -1 x_r3_g113 -1 x_r3_g118 -1 x_r3_g128 -1 x_r3_g144 -2 x_r3_g156 -1 p_r0_g46_h17_t29 -1 p_r0_g54_h25_t29 -1 p_r0_g97_h68_t29 -1 p_r0_g126_h97_t29 -1 p_r0_g131_h102_t29 -1 p_r0_g159_h130_t29 -1 p_r1_g8_h146_t29 -1 p_r1_g15_h153_t29 -1 p_r1_g17_h155_t29 -1 p_r1_g23_h161_t29 -1 p_r1_g26_h164_t29 -1 p_r1_g44_h15_t29 -1 p_r1_g67_h38_t29 -1 p_r1_g80_h51_t29 -1 p_r1_g93_h64_t29 -1 p_r1_g96_h67_t29 -1 p_r1_g143_h114_t29 -1 p_r1_g146_h117_t29 -1 p_r1_g157_h128_t29 -1 p_r1_g164_h135_t29 -1 p_r2_g21_h159_t29 -1 p_r2_g77_h48_t29 -1 p_r2_g91_h62_t29 -1 p_r2_g102_h73_t29 -1 p_r2_g120_h91_t29 -1 p_r2_g131_h102_t29 -1 p_r2_g139_h110_t29 -1 p_r2_g149_h120_t29 -1 p_r2_g159_h130_t29 -1 p_r2_g162_h133_t29 -1 p_r3_g3_h141_t29 -1 p_r3_g7_h145_t29 -1 p_r3_g9_h147_t29 -1 p_r3_g24_h162_t29 -1 p_r3_g27_h165_t29 -1 p_r3_g36_h7_t29 -1 p_r3_g53_h24_t29 -1 p_r3_g123_h94_t29 -1 p_r3_g141_h112_t29 -1 p_r3_g147_h118_t29 = -49 ;
1 d_29 -1 u_29 <= 0 ;
-1 d_29 -1 u_29 <= 0 ;
1 u_29 -1 M <= 0 ;
1 u_29 <= 2 ;
1 p_r0_g9_h137_t39 -1 x_r0_g9 <= 0 ;
1 p_r0_g9_h137_t39 -1 x_r0_g137 <= 0 ;
1 p_r0_g9_h137_t39 -1 x_r0_g9 -1 x_r0_g137 >= -1 ;
1 p_r0_g25_h153_t39 -1 x_r0_g25 <= 0 ;
1 p_r0_g25_h153_t39 -1 x_r0_g153 <= 0 ;
1 p_r0_g25_h153_t39 -1 x_r0_g25 -1 x_r0_g153 >= -1 ;
1 p_r0_g34_h162_t39 -1 x_r0_g34 <= 0 ;
1 p_r0_g34_h162_t39 -1 x_r0_g162 <= 0 ;
1 p_r0_g34_h162_t39 -1 x_r0_g34 -1 x_r0_g162 >= -1 ;
1 p_r0_g46_h7_t39 -1 x_r0_g46 <= 0 ;
1 p_r0_g46_h7_t39 -1 x_r0_g7 <= 0 ;
1 p_r0_g46_h7_t39 -1 x_r0_g46 -1 x_r0_g7 >= -1 ;
1 p_r0_g93_h54_t39 -1 x_r0_g93 <= 0 ;
1 p_r0_g93_h54_t39 -1 x_r0_g54 <= 0 ;
1 p_r0_g93_h54_t39 -1 x_r0_g93 -1 x_r0_g54 >= -1 ;
1 p_r0_g118_h79_t39 -1 x_r0_g118 <= 0 ;
1 p_r0_g118_h79_t39 -1 x_r0_g79 <= 0 ;
1 p_r0_g118_h79_t39 -1 x_r0_g118 -1 x_r0_g79 >= -1 ;
1 p_r0_g126_h87_t39 -1 x_r0_g126 <= 0 ;
1 p_r0_g126_h87_t39 -1 x_r0_g87 <= 0 ;
1 p_r0_g126_h87_t39 -1 x_r0_g126 -1 x_r0_g87 >= -1 ;
1 p_r0_g136_h97_t39 -1 x_r0_g136 <= 0 ;
1 p_r0_g136_h97_t39 -1 x_r0_g97 <= 0 ;
1 p_r0_g136_h97_t39 -1 x_r0_g136 -1 x_r0_g97 >= -1 ;
1 p_r1_g15_h143_t39 -1 x_r1_g15 <= 0 ;
1 p_r1_g15_h143_t39 -1 x_r1_g143 <= 0 ;
1 p_r1_g15_h143_t39 -1 x_r1_g15 -1 x_r1_g143 >= -1 ;
1 p_r1_g56_h17_t39 -1 x_r1_g56 <= 0 ;
1 p_r1_g56_h17_t39 -1 x_r1_g17 <= 0 ;
1 p_r1_g56_h17_t39 -1 x_r1_g56 -1 x_r1_g17 >= -1 ;
1 p_r1_g62_h23_t39 -1 x_r1_g62 <= 0 ;
1 p_r1_g62_h23_t39 -1 x_r1_g23 <= 0 ;
1 p_r1_g62_h23_t39 -1 x_r1_g62 -1 x_r1_g23 >= -1 ;
1 p_r1_g80_h41_t39 -1 x_r1_g80 <= 0 ;
1 p_r1_g80_h41_t39 -1 x_r1_g41 <= 0 ;
1 p_r1_g80_h41_t39 -1 x_r1_g80 -1 x_r1_g41 >= -1 ;
1 p_r1_g135_h96_t39 -1 x_r1_g135 <= 0 ;
1 p_r1_g135_h96_t39 -1 x_r1_g96 <= 0 ;
1 p_r1_g135_h96_t39 -1 x_r1_g135 -1 x_r1_g96 >= -1 ;
1 p_r1_g153_h114_t39 -1 x_r1_g153 <= 0 ;
1 p_r1_g153_h114_t39 -1 x_r1_g114 <= 0 ;
1 p_r1_g153_h114_t39 -1 x_r1_g153 -1 x_r1_g114 >= -1 ;
1 p_r1_g160_h121_t39 -1 x_r1_g160 <= 0 ;
1 p_r1_g160_h121_t39 -1 x_r1_g121 <= 0 ;
1 p_r1_g160_h121_t39 -1 x_r1_g160 -1 x_r1_g121 >= -1 ;
1 p_r1_g162_h123_t39 -1 x_r1_g162 <= 0 ;
1 p_r1_g162_h123_t39 -1 x_r1_g123 <= 0 ;
1 p_r1_g162_h123_t39 -1 x_r1_g162 -1 x_r1_g123 >= -1 ;
1 p_r2_g2_h130_t39 -1 x_r2_g2 <= 0 ;
1 p_r2_g2_h130_t39 -1 x_r2_g130 <= 0 ;
1 p_r2_g2_h130_t39 -1 x_r2_g2 -1 x_r2_g130 >= -1 ;
1 p_r2_g18_h146_t39 -1 x_r2_g18 <= 0 ;
1 p_r2_g18_h146_t39 -1 x_r2_g146 <= 0 ;
1 p_r2_g18_h146_t39 -1 x_r2_g18 -1 x_r2_g146 >= -1 ;
1 p_r2_g21_h149_t39 -1 x_r2_g21 <= 0 ;
1 p_r2_g21_h149_t39 -1 x_r2_g149 <= 0 ;
1 p_r2_g21_h149_t39 -1 x_r2_g21 -1 x_r2_g149 >= -1 ;
1 p_r2_g30_h158_t39 -1 x_r2_g30 <= 0 ;
1 p_r2_g30_h158_t39 -1 x_r2_g158 <= 0 ;
1 p_r2_g30_h158_t39 -1 x_r2_g30 -1 x_r2_g158 >= -1 ;
1 p_r2_g60_h21_t39 -1 x_r2_g60 <= 0 ;
1 p_r2_g60_h21_t39 -1 x_r2_g21 <= 0 ;
1 p_r2_g60_h21_t39 -1 x_r2_g60 -1 x_r2_g21 >= -1 ;
1 p_r2_g105_h66_t39 -1 x_r2_g105 <= 0 ;
1 p_r2_g105_h66_t39 -1 x_r2_g66 <= 0 ;
1 p_r2_g105_h66_t39 -1 x_r2_g105 -1 x_r2_g66 >= -1 ;
1 p_r2_g130_h91_t39 -1 x_r2_g130 <= 0 ;
1 p_r2_g130_h91_t39 -1 x_r2_g91 <= 0 ;
1 p_r2_g130_h91_t39 -1 x_r2_g130 -1 x_r2_g91 >= -1 ;
1 p_r2_g141_h102_t39 -1 x_r2_g141 <= 0 ;
1 p_r2_g141_h102_t39 -1 x_r2_g102 <= 0 ;
1 p_r2_g141_h102_t39 -1 x_r2_g141 -1 x_r2_g102 >= -1 ;
1 p_r2_g146_h107_t39 -1 x_r2_g146 <= 0 ;
1 p_r2_g146_h107_t39 -1 x_r2_g107 <= 0 ;
1 p_r2_g146_h107_t39 -1 x_r2_g146 -1 x_r2_g107 >= -1 ;
1 p_r2_g149_h110_t39 -1 x_r2_g149 <= 0 ;
1 p_r2_g149_h110_t39 -1 x_r2_g110 <= 0 ;
1 p_r2_g149_h110_t39 -1 x_r2_g149 -1 x_r2_g110 >= -1 ;
1 p_r2_g159_h120_t39 -1 x_r2_g159 <= 0 ;
1 p_r2_g159_h120_t39 -1 x_r2_g120 <= 0 ;
1 p_r2_g159_h120_t39 -1 x_r2_g159 -1 x_r2_g120 >= -1 ;
1 p_r3_g13_h141_t39 -1 x_r3_g13 <= 0 ;
1 p_r3_g13_h141_t39 -1 x_r3_g141 <= 0 ;
1 p_r3_g13_h141_t39 -1 x_r3_g13 -1 x_r3_g141 >= -1 ;
1 p_r3_g16_h144_t39 -1 x_r3_g16 <= 0 ;
1 p_r3_g16_h144_t39 -1 x_r3_g144 <= 0 ;
1 p_r3_g16_h144_t39 -1 x_r3_g16 -1 x_r3_g144 >= -1 ;
1 p_r3_g19_h147_t39 -1 x_r3_g19 <= 0 ;
1 p_r3_g19_h147_t39 -1 x_r3_g147 <= 0 ;
1 p_r3_g19_h147_t39 -1 x_r3_g19 -1 x_r3_g147 >= -1 ;
1 p_r3_g34_h162_t39 -1 x_r3_g34 <= 0 ;
1 p_r3_g34_h162_t39 -1 x_r3_g162 <= 0 ;
1 p_r3_g34_h162_t39 -1 x_r3_g34 -1 x_r3_g162 >= -1 ;
1 p_r3_g51_h12_t39 -1 x_r3_g51 <= 0 ;
1 p_r3_g51_h12_t39 -1 x_r3_g12 <= 0 ;
1 p_r3_g51_h12_t39 -1 x_r3_g51 -1 x_r3_g12 >= -1 ;
1 p_r3_g72_h33_t39 -1 x_r3_g72 <= 0 ;
1 p_r3_g72_h33_t39 -1 x_r3_g33 <= 0 ;
1 p_r3_g72_h33_t39 -1 x_r3_g72 -1 x_r3_g33 >= -1 ;
1 p_r3_g111_h72_t39 -1 x_r3_g111 <= 0 ;
1 p_r3_g111_h72_t39 -1 x_r3_g72 <= 0 ;
1 p_r3_g111_h72_t39 -1 x_r3_g111 -1 x_r3_g72 >= -1 ;
1 p_r3_g144_h105_t39 -1 x_r3_g144 <= 0 ;
1 p_r3_g144_h105_t39 -1 x_r3_g105 <= 0 ;
1 p_r3_g144_h105_t39 -1 x_r3_g144 -1 x_r3_g105 >= -1 ;
1 p_r3_g145_h106_t39 -1 x_r3_g145 <= 0 ;
1 p_r3_g145_h106_t39 -1 x_r3_g106 <= 0 ;
1 p_r3_g145_h106_t39 -1 x_r3_g145 -1 x_r3_g106 >= -1 ;
1 p_r3_g162_h123_t39 -1 x_r3_g162 <= 0 ;
1 p_r3_g162_h123_t39 -1 x_r3_g123 <= 0 ;
1 p_r3_g162_h123_t39 -1 x_r3_g162 -1 x_r3_g123 >= -1 ;
1 d_39 -2 x_r0_g4 -1 x_r0_g9 -1 x_r0_g20 -1 x_r0_g26 -1 x_r0_g27 -1 x_r0_g28 -2 x_r0_g35 -1 x_r0_g37 -1 x_r0_g54 -1 x_r0_g62 -1 x_r0_g69 -1 x_r0_g79 -2 x_r0_g84 -1 x_r0_g87 -2 x_r0_g88 -1 x_r0_g93 -1 x_r0_g97 -1 x_r0_g102 -1 x_r0_g118 -1 x_r0_g126 -1 x_r0_g129 -1 x_r0_g131 -1 x_r0_g137 -1 x_r0_g143 -1 x_r0_g159 -1 x_r0_g162 -1 x_r1_g13 -2 x_r1_g26 -2 x_r1_g31 -1 x_r1_g38 -1 x_r1_g51 -1 x_r1_g56 -2 x_r1_g59 -1 x_r1_g64 -2 x_r1_g76 -1 x_r1_g80 -1 x_r1_g93 -1 x_r1_g96 -1 x_r1_g108 -2 x_r1_g117 -1 x_r1_g121 -1 x_r1_g123 -1 x_r1_g128 -2 x_r1_g146 -2 x_r1_g155 -1 x_r1_g157 -1 x_r1_g160 -1 x_r1_g164 -1 x_r2_g2 -2 x_r2_g29 -1 x_r2_g48 -1 x_r2_g54 -1 x_r2_g62 -1 x_r2_g64 -1 x_r2_g66 -1 x_r2_g70 -2 x_r2_g73 -1 x_r2_g74 -1 x_r2_g77 -2 x_r2_g80 -1 x_r2_g102 -1 x_r2_g107 -1 x_r2_g128 -1 x_r2_g133 -1 x_r2_g142 -1 x_r2_g143 -1 x_r2_g152 -2 x_r2_g155 -1 x_r2_g158 -1 x_r2_g159 -1 x_r2_g162 -1 x_r2_g165 -1 x_r3_g7 -1 x_r3_g8 -1 x_r3_g9 -1 x_r3_g11 -1 x_r3_g12 -1 x_r3_g15 -1 x_r3_g16 -1 x_r3_g27 -1 x_r3_g36 -1 x_r3_g57 -1 x_r3_g94 -1 x_r3_g103 -1 x_r3_g105 -1 x_r3_g112 -1 x_r3_g113 -1 x_r3_g121 -1 x_r3_g124 -1 x_r3_g128 -1 x_r3_g138 -1 x_r3_g145 -1 x_r3_g147 -1 x_r3_g156 -1 x_r3_g165 -1 p_r0_g9_h137_t39 -1 p_r0_g25_h153_t39 -1 p_r0_g34_h162_t39 -1 p_r0_g46_h7_t39 -1 p_r0_g93_h54_t39 -1 p_r0_g118_h79_t39 -1 p_r0_g126_h87_t39 -1 p_r0_g136_h97_t39 -1 p_r1_g15_h143_t39 -1 p_r1_g56_h17_t39 -1 p_r1_g62_h23_t39 -1 p_r1_g80_h41_t39 -1 p_r1_g135_h96_t39 -1 p_r1_g153_h114_t39 -1 p_r1_g160_h121_t39 -1 p_r1_g162_h123_t39 -1 p_r2_g2_h130_t39 -1 p_r2_g18_h146_t39 -1 p_r2_g21_h149_t39 -1 p_r2_g30_h158_t39 -1 p_r2_g60_h21_t39 -1 p_r2_g105_h66_t39 -1 p_r2_g130_h91_t39 -1 p_r2_g141_h102_t39 -1 p_r2_g146_h107_t39 -1 p_r2_g149_h110_t39 -1 p_r2_g159_h120_t39 -1 p_r3_g13_h141_t39 -1 p_r3_g16_h144_t39 -1 p_r3_g19_h147_t39 -1 p_r3_g34_h162_t39 -1 p_r3_g51_h12_t39 -1 p_r3_g72_h33_t39 -1 p_r3_g111_h72_t39 -1 p_r3_g144_h105_t39 -1 p_r3_g145_h106_t39 -1 p_r3_g162_h123_t39 = -56 ;
1 d_39 -1 u_39 <= 0 ;
-1 d_39 -1 u_39 <= 0 ;
1 u_39 -1 M <= 0 ;
1 u_39 <= 2 ;
1 p_r0_g4_h102_t69 -1 x_r0_g4 <= 0 ;
1 p_r0_g4_h102_t69 -1 x_r0_g102 <= 0 ;
1 p_r0_g4_h102_t69 -1 x_r0_g4 -1 x_r0_g102 >= -1 ;
1 p_r0_g20_h118_t69 -1 x_r0_g20 <= 0 ;
1 p_r0_g20_h118_t69 -1 x_r0_g118 <= 0 ;
1 p_r0_g20_h118_t69 -1 x_r0_g20 -1 x_r0_g118 >= -1 ;
1 p_r0_g28_h126_t69 -1 x_r0_g28 <= 0 ;
1 p_r0_g28_h126_t69 -1 x_r0_g126 <= 0 ;
1 p_r0_g28_h126_t69 -1 x_r0_g28 -1 x_r0_g126 >= -1 ;
1 p_r0_g46_h144_t69 -1 x_r0_g46 <= 0 ;
1 p_r0_g46_h144_t69 -1 x_r0_g144 <= 0 ;
1 p_r0_g46_h144_t69 -1 x_r0_g46 -1 x_r0_g144 >= -1 ;
1 p_r0_g97_h28_t69 -1 x_r0_g97 <= 0 ;
1 p_r0_g97_h28_t69 -1 x_r0_g28 <= 0 ;
1 p_r0_g97_h28_t69 -1 x_r0_g97 -1 x_r0_g28 >= -1 ;
1 p_r0_g129_h60_t69 -1 x_r0_g129 <= 0 ;
1 p_r0_g129_h60_t69 -1 x_r0_g60 <= 0 ;
1 p_r0_g129_h60_t69 -1 x_r0_g129 -1 x_r0_g60 >= -1 ;
1 p_r0_g131_h62_t69 -1 x_r0_g131 <= 0 ;
1 p_r0_g131_h62_t69 -1 x_r0_g62 <= 0 ;
1 p_r0_g131_h62_t69 -1 x_r0_g131 -1 x_r0_g62 >= -1 ;
1 p_r0_g137_h68_t69 -1 x_r0_g137 <= 0 ;
1 p_r0_g137_h68_t69 -1 x_r0_g68 <= 0 ;
1 p_r0_g137_h68_t69 -1 x_r0_g137 -1 x_r0_g68 >= -1 ;
1 p_r0_g153_h84_t69 -1 x_r0_g153 <= 0 ;
1 p_r0_g153_h84_t69 -1 x_r0_g84 <= 0 ;
1 p_r0_g153_h84_t69 -1 x_r0_g153 -1 x_r0_g84 >= -1 ;
1 p_r0_g162_h93_t69 -1 x_r0_g162 <= 0 ;
1 p_r0_g162_h93_t69 -1 x_r0_g93 <= 0 ;
1 p_r0_g162_h93_t69 -1 x_r0_g162 -1 x_r0_g93 >= -1 ;
1 p_r1_g13_h111_t69 -1 x_r1_g13 <= 0 ;
1 p_r1_g13_h111_t69 -1 x_r1_g111 <= 0 ;
1 p_r1_g13_h111_t69 -1 x_r1_g13 -1 x_r1_g111 >= -1 ;
1 p_r1_g15_h113_t69 -1 x_r1_g15 <= 0 ;
1 p_r1_g15_h113_t69 -1 x_r1_g113 <= 0 ;
1 p_r1_g15_h113_t69 -1 x_r1_g15 -1 x_r1_g113 >= -1 ;
1 p_r1_g23_h121_t69 -1 x_r1_g23 <= 0 ;
1 p_r1_g23_h121_t69 -1 x_r1_g121 <= 0 ;
1 p_r1_g23_h121_t69 -1 x_r1_g23 -1 x_r1_g121 >= -1 ;
1 p_r1_g59_h157_t69 -1 x_r1_g59 <= 0 ;
1 p_r1_g59_h157_t69 -1 x_r1_g157 <= 0 ;
1 p_r1_g59_h157_t69 -1 x_r1_g59 -1 x_r1_g157 >= -1 ;
1 p_r1_g62_h160_t69 -1 x_r1_g62 <= 0 ;
1 p_r1_g62_h160_t69 -1 x_r1_g160 <= 0 ;
1 p_r1_g62_h160_t69 -1 x_r1_g62 -1 x_r1_g160 >= -1 ;
1 p_r1_g64_h162_t69 -1 x_r1_g64 <= 0 ;
1 p_r1_g64_h162_t69 -1 x_r1_g162 <= 0 ;
1 p_r1_g64_h162_t69 -1 x_r1_g64 -1 x_r1_g162 >= -1 ;
1 p_r1_g80_h11_t69 -1 x_r1_g80 <= 0 ;
1 p_r1_g80_h11_t69 -1 x_r1_g11 <= 0 ;
1 p_r1_g80_h11_t69 -1 x_r1_g80 -1 x_r1_g11 >= -1 ;
1 p_r1_g110_h41_t69 -1 x_r1_g110 <= 0 ;
1 p_r1_g110_h41_t69 -1 x_r1_g41 <= 0 ;
1 p_r1_g110_h41_t69 -1 x_r1_g110 -1 x_r1_g41 >= -1 ;
1 p_r1_g113_h44_t69 -1 x_r1_g113 <= 0 ;
1 p_r1_g113_h44_t69 -1 x_r1_g44 <= 0 ;
1 p_r1_g113_h44_t69 -1 x_r1_g113 -1 x_r1_g44 >= -1 ;
1 p_r1_g128_h59_t69 -1 x_r1_g128 <= 0 ;
1 p_r1_g128_h59_t69 -1 x_r1_g59 <= 0 ;
1 p_r1_g128_h59_t69 -1 x_r1_g128 -1 x_r1_g59 >= -1 ;
1 p_r1_g162_h93_t69 -1 x_r1_g162 <= 0 ;
1 p_r1_g162_h93_t69 -1 x_r1_g93 <= 0 ;
1 p_r1_g162_h93_t69 -1 x_r1_g162 -1 x_r1_g93 >= -1 ;
1 p_r2_g30_h128_t69 -1 x_r2_g30 <= 0 ;
1 p_r2_g30_h128_t69 -1 x_r2_g128 <= 0 ;
1 p_r2_g30_h128_t69 -1 x_r2_g30 -1 x_r2_g128 >= -1 ;
1 p_r2_g48_h146_t69 -1 x_r2_g48 <= 0 ;
1 p_r2_g48_h146_t69 -1 x_r2_g146 <= 0 ;
1 p_r2_g48_h146_t69 -1 x_r2_g48 -1 x_r2_g146 >= -1 ;
1 p_r2_g54_h152_t69 -1 x_r2_g54 <= 0 ;
1 p_r2_g54_h152_t69 -1 x_r2_g152 <= 0 ;
1 p_r2_g54_h152_t69 -1 x_r2_g54 -1 x_r2_g152 >= -1 ;
1 p_r2_g60_h158_t69 -1 x_r2_g60 <= 0 ;
1 p_r2_g60_h158_t69 -1 x_r2_g158 <= 0 ;
1 p_r2_g60_h158_t69 -1 x_r2_g60 -1 x_r2_g158 >= -1 ;
1 p_r2_g64_h162_t69 -1 x_r2_g64 <= 0 ;
1 p_r2_g64_h162_t69 -1 x_r2_g162 <= 0 ;
1 p_r2_g64_h162_t69 -1 x_r2_g64 -1 x_r2_g162 >= -1 ;
1 p_r2_g131_h62_t69 -1 x_r2_g131 <= 0 ;
1 p_r2_g131_h62_t69 -1 x_r2_g62 <= 0 ;
1 p_r2_g131_h62_t69 -1 x_r2_g131 -1 x_r2_g62 >= -1 ;
1 p_r2_g133_h64_t69 -1 x_r2_g133 <= 0 ;
1 p_r2_g133_h64_t69 -1 x_r2_g64 <= 0 ;
1 p_r2_g133_h64_t69 -1 x_r2_g133 -1 x_r2_g64 >= -1 ;
1 p_r2_g139_h70_t69 -1 x_r2_g139 <= 0 ;
1 p_r2_g139_h70_t69 -1 x_r2_g70 <= 0 ;
1 p_r2_g139_h70_t69 -1 x_r2_g139 -1 x_r2_g70 >= -1 ;
1 p_r2_g142_h73_t69 -1 x_r2_g142 <= 0 ;
1 p_r2_g142_h73_t69 -1 x_r2_g73 <= 0 ;
1 p_r2_g142_h73_t69 -1 x_r2_g142 -1 x_r2_g73 >= -1 ;
1 p_r2_g143_h74_t69 -1 x_r2_g143 <= 0 ;
1 p_r2_g143_h74_t69 -1 x_r2_g74 <= 0 ;
1 p_r2_g143_h74_t69 -1 x_r2_g143 -1 x_r2_g74 >= -1 ;
1 p_r2_g146_h77_t69 -1 x_r2_g146 <= 0 ;
1 p_r2_g146_h77_t69 -1 x_r2_g77 <= 0 ;
1 p_r2_g146_h77_t69 -1 x_r2_g146 -1 x_r2_g77 >= -1 ;
1 p_r2_g149_h80_t69 -1 x_r2_g149 <= 0 ;
1 p_r2_g149_h80_t69 -1 x_r2_g80 <= 0 ;
1 p_r2_g149_h80_t69 -1 x_r2_g149 -1 x_r2_g80 >= -1 ;
1 p_r2_g155_h86_t69 -1 x_r2_g155 <= 0 ;
1 p_r2_g155_h86_t69 -1 x_r2_g86 <= 0 ;
1 p_r2_g155_h86_t69 -1 x_r2_g155 -1 x_r2_g86 >= -1 ;
1 p_r3_g7_h105_t69 -1 x_r3_g7 <= 0 ;
1 p_r3_g7_h105_t69 -1 x_r3_g105 <= 0 ;
1 p_r3_g7_h105_t69 -1 x_r3_g7 -1 x_r3_g105 >= -1 ;
1 p_r3_g8_h106_t69 -1 x_r3_g8 <= 0 ;
1 p_r3_g8_h106_t69 -1 x_r3_g106 <= 0 ;
1 p_r3_g8_h106_t69 -1 x_r3_g8 -1 x_r3_g106 >= -1 ;
1 p_r3_g13_h111_t69 -1 x_r3_g13 <= 0 ;
1 p_r3_g13_h111_t69 -1 x_r3_g111 <= 0 ;
1 p_r3_g13_h111_t69 -1 x_r3_g13 -1 x_r3_g111 >= -1 ;
1 p_r3_g15_h113_t69 -1 x_r3_g15 <= 0 ;
1 p_r3_g15_h113_t69 -1 x_r3_g113 <= 0 ;
1 p_r3_g15_h113_t69 -1 x_r3_g15 -1 x_r3_g113 >= -1 ;
1 p_r3_g25_h123_t69 -1 x_r3_g25 <= 0 ;
1 p_r3_g25_h123_t69 -1 x_r3_g123 <= 0 ;
1 p_r3_g25_h123_t69 -1 x_r3_g25 -1 x_r3_g123 >= -1 ;
1 p_r3_g72_h3_t69 -1 x_r3_g72 <= 0 ;
1 p_r3_g72_h3_t69 -1 x_r3_g3 <= 0 ;
1 p_r3_g72_h3_t69 -1 x_r3_g72 -1 x_r3_g3 >= -1 ;
1 p_r3_g94_h25_t69 -1 x_r3_g94 <= 0 ;
1 p_r3_g94_h25_t69 -1 x_r3_g25 <= 0 ;
1 p_r3_g94_h25_t69 -1 x_r3_g94 -1 x_r3_g25 >= -1 ;
1 p_r3_g103_h34_t69 -1 x_r3_g103 <= 0 ;
1 p_r3_g103_h34_t69 -1 x_r3_g34 <= 0 ;
1 p_r3_g103_h34_t69 -1 x_r3_g103 -1 x_r3_g34 >= -1 ;
1 p_r3_g105_h36_t69 -1 x_r3_g105 <= 0 ;
1 p_r3_g105_h36_t69 -1 x_r3_g36 <= 0 ;
1 p_r3_g105_h36_t69 -1 x_r3_g105 -1 x_r3_g36 >= -1 ;
1 p_r3_g141_h72_t69 -1 x_r3_g141 <= 0 ;
1 p_r3_g141_h72_t69 -1 x_r3_g72 <= 0 ;
1 p_r3_g141_h72_t69 -1 x_r3_g141 -1 x_r3_g72 >= -1 ;
1 d_69 -1 x_r0_g22 -1 x_r0_g25 -1 x_r0_g27 -2 x_r0_g34 -1 x_r0_g37 -1 x_r0_g47 -2 x_r0_g54 -1 x_r0_g60 -1 x_r0_g62 -1 x_r0_g70 -1 x_r0_g84 -2 x_r0_g88 -1 x_r0_g118 -2 x_r0_g136 -2 x_r0_g143 -1 x_r0_g153 -1 x_r0_g159 -1 x_r1_g11 -1 x_r1_g13 -1 x_r1_g15 -1 x_r1_g17 -2 x_r1_g26 -1 x_r1_g31 -1 x_r1_g38 -1 x_r1_g56 -1 x_r1_g96 -2 x_r1_g108 -1 x_r1_g111 -1 x_r1_g114 -2 x_r1_g135 -1 x_r1_g153 -1 x_r1_g155 -1 x_r1_g157 -1 x_r1_g160 -2 x_r1_g164 -2 x_r2_g18 -2 x_r2_g21 -1 x_r2_g29 -1 x_r2_g60 -1 x_r2_g62 -1 x_r2_g66 -1 x_r2_g70 -1 x_r2_g73 -1 x_r2_g91 -2 x_r2_g102 -1 x_r2_g105 -1 x_r2_g110 -1 x_r2_g130 -1 x_r2_g131 -1 x_r2_g139 -1 x_r2_g141 -1 x_r2_g152 -2 x_r2_g159 -1 x_r2_g162 -2 x_r2_g163 -1 x_r3_g7 -1 x_r3_g8 -1 x_r3_g9 -1 x_r3_g11 -2 x_r3_g12 -1 x_r3_g24 -1 x_r3_g34 -1 x_r3_g36 -1 x_r3_g51 -2 x_r3_g53 -1 x_r3_g94 -1 x_r3_g103 -1 x_r3_g106 -1 x_r3_g112 -2 x_r3_g118 -2 x_r3_g124 -2 x_r3_g128 -1 x_r3_g138 -1 x_r3_g141 -2 x_r3_g144 -2 x_r3_g145 -2 x_r3_g147 -1 p_r0_g4_h102_t69 -1 p_r0_g20_h118_t69 -1 p_r0_g28_h126_t69 -1 p_r0_g46_h144_t69 -1 p_r0_g97_h28_t69 -1 p_r0_g129_h60_t69 -1 p_r0_g131_h62_t69 -1 p_r0_g137_h68_t69 -1 p_r0_g153_h84_t69 -1 p_r0_g162_h93_t69 -1 p_r1_g13_h111_t69 -1 p_r1_g15_h113_t69 -1 p_r1_g23_h121_t69 -1 p_r1_g59_h157_t69 -1 p_r1_g62_h160_t69 -1 p_r1_g64_h162_t69 -1 p_r1_g80_h11_t69 -1 p_r1_g110_h41_t69 -1 p_r1_g113_h44_t69 -1 p_r1_g128_h59_t69 -1 p_r1_g162_h93_t69 -1 p_r2_g30_h128_t69 -1 p_r2_g48_h146_t69 -1 p_r2_g54_h152_t69 -1 p_r2_g60_h158_t69 -1 p_r2_g64_h162_t69 -1 p_r2_g131_h62_t69 -1 p_r2_g133_h64_t69 -1 p_r2_g139_h70_t69 -1 p_r2_g142_h73_t69 -1 p_r2_g143_h74_t69 -1 p_r2_g146_h77_t69 -1 p_r2_g149_h80_t69 -1 p_r2_g155_h86_t69 -1 p_r3_g7_h105_t69 -1 p_r3_g8_h106_t69 -1 p_r3_g13_h111_t69 -1 p_r3_g15_h113_t69 -1 p_r3_g25_h123_t69 -1 p_r3_g72_h3_t69 -1 p_r3_g94_h25_t69 -1 p_r3_g103_h34_t69 -1 p_r3_g105_h36_t69 -1 p_r3_g141_h72_t69 = -81 ;
1 d_69 -1 u_69 <= 0 ;
-1 d_69 -1 u_69 <= 0 ;
1 u_69 -1 M <= 0 ;
1 u_69 <= 2 ;
1 p_r0_g35_h129_t73 -1 x_r0_g35 <= 0 ;
1 p_r0_g35_h129_t73 -1 x_r0_g129 <= 0 ;
1 p_r0_g35_h129_t73 -1 x_r0_g35 -1 x_r0_g129 >= -1 ;
1 p_r0_g37_h131_t73 -1 x_r0_g37 <= 0 ;
1 p_r0_g37_h131_t73 -1 x_r0_g131 <= 0 ;
1 p_r0_g37_h131_t73 -1 x_r0_g37 -1 x_r0_g131 >= -1 ;
1 p_r0_g68_h162_t73 -1 x_r0_g68 <= 0 ;
1 p_r0_g68_h162_t73 -1 x_r0_g162 <= 0 ;
1 p_r0_g68_h162_t73 -1 x_r0_g68 -1 x_r0_g162 >= -1 ;
1 p_r0_g93_h20_t73 -1 x_r0_g93 <= 0 ;
1 p_r0_g93_h20_t73 -1 x_r0_g20 <= 0 ;
1 p_r0_g93_h20_t73 -1 x_r0_g93 -1 x_r0_g20 >= -1 ;
1 p_r0_g143_h70_t73 -1 x_r0_g143 <= 0 ;
1 p_r0_g143_h70_t73 -1 x_r0_g70 <= 0 ;
1 p_r0_g143_h70_t73 -1 x_r0_g143 -1 x_r0_g70 >= -1 ;
1 p_r1_g17_h111_t73 -1 x_r1_g17 <= 0 ;
1 p_r1_g17_h111_t73 -1 x_r1_g111 <= 0 ;
1 p_r1_g17_h111_t73 -1 x_r1_g17 -1 x_r1_g111 >= -1 ;
1 p_r1_g23_h117_t73 -1 x_r1_g23 <= 0 ;
1 p_r1_g23_h117_t73 -1 x_r1_g117 <= 0 ;
1 p_r1_g23_h117_t73 -1 x_r1_g23 -1 x_r1_g117 >= -1 ;
1 p_r1_g41_h135_t73 -1 x_r1_g41 <= 0 ;
1 p_r1_g41_h135_t73 -1 x_r1_g135 <= 0 ;
1 p_r1_g41_h135_t73 -1 x_r1_g41 -1 x_r1_g135 >= -1 ;
1 p_r1_g59_h153_t73 -1 x_r1_g59 <= 0 ;
1 p_r1_g59_h153_t73 -1 x_r1_g153 <= 0 ;
1 p_r1_g59_h153_t73 -1 x_r1_g59 -1 x_r1_g153 >= -1 ;
1 p_r1_g67_h161_t73 -1 x_r1_g67 <= 0 ;
1 p_r1_g67_h161_t73 -1 x_r1_g161 <= 0 ;
1 p_r1_g67_h161_t73 -1 x_r1_g67 -1 x_r1_g161 >= -1 ;
1 p_r1_g96_h23_t73 -1 x_r1_g96 <= 0 ;
1 p_r1_g96_h23_t73 -1 x_r1_g23 <= 0 ;
1 p_r1_g96_h23_t73 -1 x_r1_g96 -1 x_r1_g23 >= -1 ;
1 p_r1_g111_h38_t73 -1 x_r1_g111 <= 0 ;
1 p_r1_g111_h38_t73 -1 x_r1_g38 <= 0 ;
1 p_r1_g111_h38_t73 -1 x_r1_g111 -1 x_r1_g38 >= -1 ;
1 p_r1_g114_h41_t73 -1 x_r1_g114 <= 0 ;
1 p_r1_g114_h41_t73 -1 x_r1_g41 <= 0 ;
1 p_r1_g114_h41_t73 -1 x_r1_g114 -1 x_r1_g41 >= -1 ;
1 p_r1_g117_h44_t73 -1 x_r1_g117 <= 0 ;
1 p_r1_g117_h44_t73 -1 x_r1_g44 <= 0 ;
1 p_r1_g117_h44_t73 -1 x_r1_g117 -1 x_r1_g44 >= -1 ;
1 p_r1_g135_h62_t73 -1 x_r1_g135 <= 0 ;
1 p_r1_g135_h62_t73 -1 x_r1_g62 <= 0 ;
1 p_r1_g135_h62_t73 -1 x_r1_g135 -1 x_r1_g62 >= -1 ;
1 p_r1_g153_h80_t73 -1 x_r1_g153 <= 0 ;
1 p_r1_g153_h80_t73 -1 x_r1_g80 <= 0 ;
1 p_r1_g153_h80_t73 -1 x_r1_g153 -1 x_r1_g80 >= -1 ;
1 p_r2_g48_h142_t73 -1 x_r2_g48 <= 0 ;
1 p_r2_g48_h142_t73 -1 x_r2_g142 <= 0 ;
1 p_r2_g48_h142_t73 -1 x_r2_g48 -1 x_r2_g142 >= -1 ;
1 p_r2_g64_h158_t73 -1 x_r2_g64 <= 0 ;
1 p_r2_g64_h158_t73 -1 x_r2_g158 <= 0 ;
1 p_r2_g64_h158_t73 -1 x_r2_g64 -1 x_r2_g158 >= -1 ;
1 p_r2_g91_h18_t73 -1 x_r2_g91 <= 0 ;
1 p_r2_g91_h18_t73 -1 x_r2_g18 <= 0 ;
1 p_r2_g91_h18_t73 -1 x_r2_g91 -1 x_r2_g18 >= -1 ;
1 p_r2_g102_h29_t73 -1 x_r2_g102 <= 0 ;
1 p_r2_g102_h29_t73 -1 x_r2_g29 <= 0 ;
1 p_r2_g102_h29_t73 -1 x_r2_g102 -1 x_r2_g29 >= -1 ;
1 p_r2_g133_h60_t73 -1 x_r2_g133 <= 0 ;
1 p_r2_g133_h60_t73 -1 x_r2_g60 <= 0 ;
1 p_r2_g133_h60_t73 -1 x_r2_g133 -1 x_r2_g60 >= -1 ;
1 p_r2_g139_h66_t73 -1 x_r2_g139 <= 0 ;
1 p_r2_g139_h66_t73 -1 x_r2_g66 <= 0 ;
1 p_r2_g139_h66_t73 -1 x_r2_g139 -1 x_r2_g66 >= -1 ;
1 p_r2_g143_h70_t73 -1 x_r2_g143 <= 0 ;
1 p_r2_g143_h70_t73 -1 x_r2_g70 <= 0 ;
1 p_r2_g143_h70_t73 -1 x_r2_g143 -1 x_r2_g70 >= -1 ;
1 p_r2_g146_h73_t73 -1 x_r2_g146 <= 0 ;
1 p_r2_g146_h73_t73 -1 x_r2_g73 <= 0 ;
1 p_r2_g146_h73_t73 -1 x_r2_g146 -1 x_r2_g73 >= -1 ;
1 p_r2_g159_h86_t73 -1 x_r2_g159 <= 0 ;
1 p_r2_g159_h86_t73 -1 x_r2_g86 <= 0 ;
1 p_r2_g159_h86_t73 -1 x_r2_g159 -1 x_r2_g86 >= -1 ;
1 p_r3_g9_h103_t73 -1 x_r3_g9 <= 0 ;
1 p_r3_g9_h103_t73 -1 x_r3_g103 <= 0 ;
1 p_r3_g9_h103_t73 -1 x_r3_g9 -1 x_r3_g103 >= -1 ;
1 p_r3_g11_h105_t73 -1 x_r3_g11 <= 0 ;
1 p_r3_g11_h105_t73 -1 x_r3_g105 <= 0 ;
1 p_r3_g11_h105_t73 -1 x_r3_g11 -1 x_r3_g105 >= -1 ;
1 p_r3_g12_h106_t73 -1 x_r3_g12 <= 0 ;
1 p_r3_g12_h106_t73 -1 x_r3_g106 <= 0 ;
1 p_r3_g12_h106_t73 -1 x_r3_g12 -1 x_r3_g106 >= -1 ;
1 p_r3_g19_h113_t73 -1 x_r3_g19 <= 0 ;
1 p_r3_g19_h113_t73 -1 x_r3_g113 <= 0 ;
1 p_r3_g19_h113_t73 -1 x_r3_g19 -1 x_r3_g113 >= -1 ;
1 p_r3_g24_h118_t73 -1 x_r3_g24 <= 0 ;
1 p_r3_g24_h118_t73 -1 x_r3_g118 <= 0 ;
1 p_r3_g24_h118_t73 -1 x_r3_g24 -1 x_r3_g118 >= -1 ;
1 p_r3_g27_h121_t73 -1 x_r3_g27 <= 0 ;
1 p_r3_g27_h121_t73 -1 x_r3_g121 <= 0 ;
1 p_r3_g27_h121_t73 -1 x_r3_g27 -1 x_r3_g121 >= -1 ;
1 p_r3_g34_h128_t73 -1 x_r3_g34 <= 0 ;
1 p_r3_g34_h128_t73 -1 x_r3_g128 <= 0 ;
1 p_r3_g34_h128_t73 -1 x_r3_g34 -1 x_r3_g128 >= -1 ;
1 p_r3_g51_h145_t73 -1 x_r3_g51 <= 0 ;
1 p_r3_g51_h145_t73 -1 x_r3_g145 <= 0 ;
1 p_r3_g51_h145_t73 -1 x_r3_g51 -1 x_r3_g145 >= -1 ;
1 p_r3_g53_h147_t73 -1 x_r3_g53 <= 0 ;
1 p_r3_g53_h147_t73 -1 x_r3_g147 <= 0 ;
1 p_r3_g53_h147_t73 -1 x_r3_g53 -1 x_r3_g147 >= -1 ;
1 p_r3_g106_h33_t73 -1 x_r3_g106 <= 0 ;
1 p_r3_g106_h33_t73 -1 x_r3_g33 <= 0 ;
1 p_r3_g106_h33_t73 -1 x_r3_g106 -1 x_r3_g33 >= -1 ;
1 p_r3_g124_h51_t73 -1 x_r3_g124 <= 0 ;
1 p_r3_g124_h51_t73 -1 x_r3_g51 <= 0 ;
1 p_r3_g124_h51_t73 -1 x_r3_g124 -1 x_r3_g51 >= -1 ;
1 p_r3_g145_h72_t73 -1 x_r3_g145 <= 0 ;
1 p_r3_g145_h72_t73 -1 x_r3_g72 <= 0 ;
1 p_r3_g145_h72_t73 -1 x_r3_g145 -1 x_r3_g72 >= -1 ;
1 d_73 -2 x_r0_g4 -1 x_r0_g7 -1 x_r0_g9 -1 x_r0_g17 -1 x_r0_g22 -2 x_r0_g25 -1 x_r0_g26 -1 x_r0_g27 -2 x_r0_g28 -1 x_r0_g46 -1 x_r0_g47 -1 x_r0_g54 -2 x_r0_g69 -2 x_r0_g79 -2 x_r0_g84 -2 x_r0_g87 -1 x_r0_g88 -1 x_r0_g97 -1 x_r0_g118 -1 x_r0_g130 -1 x_r0_g131 -2 x_r0_g136 -1 x_r0_g137 -1 x_r0_g143 -1 x_r0_g153 -1 x_r0_g159 -1 x_r1_g8 -1 x_r1_g11 -1 x_r1_g13 -2 x_r1_g15 -1 x_r1_g17 -1 x_r1_g38 -1 x_r1_g44 -1 x_r1_g51 -1 x_r1_g59 -1 x_r1_g62 -1 x_r1_g67 -1 x_r1_g76 -2 x_r1_g93 -2 x_r1_g110 -1 x_r1_g113 -1 x_r1_g114 -1 x_r1_g121 -1 x_r1_g123 -2 x_r1_g143 -1 x_r1_g155 -1 x_r1_g157 -2 x_r1_g160 -1 x_r1_g161 -2 x_r1_g162 -2 x_r1_g164 -1 x_r2_g2 -1 x_r2_g18 -2 x_r2_g21 -1 x_r2_g48 -1 x_r2_g54 -1 x_r2_g62 -1 x_r2_g64 -1 x_r2_g66 -1 x_r2_g73 -1 x_r2_g74 -2 x_r2_g77 -2 x_r2_g80 -1 x_r2_g107 -1 x_r2_g120 -1 x_r2_g128 -1 x_r2_g131 -1 x_r2_g133 -1 x_r2_g141 -1 x_r2_g143 -1 x_r2_g152 -2 x_r2_g155 -1 x_r2_g158 -1 x_r2_g159 -1 x_r2_g162 -1 x_r2_g163 -1 x_r3_g3 -1 x_r3_g7 -1 x_r3_g8 -1 x_r3_g13 -2 x_r3_g16 -2 x_r3_g25 -1 x_r3_g33 -1 x_r3_g57 -1 x_r3_g72 -1 x_r3_g103 -1 x_r3_g105 -2 x_r3_g111 -2 x_r3_g112 -1 x_r3_g113 -1 x_r3_g118 -1 x_r3_g124 -1 x_r3_g128 -1 x_r3_g138 -2 x_r3_g141 -1 x_r3_g147 -2 x_r3_g156 -2 x_r3_g162 -1 p_r0_g35_h129_t73 -1 p_r0_g37_h131_t73 -1 p_r0_g68_h162_t73 -1 p_r0_g93_h20_t73 -1 p_r0_g143_h70_t73 -1 p_r1_g17_h111_t73 -1 p_r1_g23_h117_t73 -1 p_r1_g41_h135_t73 -1 p_r1_g59_h153_t73 -1 p_r1_g67_h161_t73 -1 p_r1_g96_h23_t73 -1 p_r1_g111_h38_t73 -1 p_r1_g114_h41_t73 -1 p_r1_g117_h44_t73 -1 p_r1_g135_h62_t73 -1 p_r1_g153_h80_t73 -1 p_r2_g48_h142_t73 -1 p_r2_g64_h158_t73 -1 p_r2_g91_h18_t73 -1 p_r2_g102_h29_t73 -1 p_r2_g133_h60_t73 -1 p_r2_g139_h66_t73 -1 p_r2_g143_h70_t73 -1 p_r2_g146_h73_t73 -1 p_r2_g159_h86_t73 -1 p_r3_g9_h103_t73 -1 p_r3_g11_h105_t73 -1 p_r3_g12_h106_t73 -1 p_r3_g19_h113_t73 -1 p_r3_g24_h118_t73 -1 p_r3_g27_h121_t73 -1 p_r3_g34_h128_t73 -1 p_r3_g51_h145_t73 -1 p_r3_g53_h147_t73 -1 p_r3_g106_h33_t73 -1 p_r3_g124_h51_t73 -1 p_r3_g145_h72_t73 = -55 ;
1 d_73 -1 u_73 <= 0 ;
-1 d_73 -1 u_73 <= 0 ;
1 u_73 -1 M <= 0 ;
1 u_73 <= 2 ;
1 M <= 2 ;
1 F -1 x_r0_g4 -1 x_r0_g9 -1 x_r0_g17 -1 x_r0_g22 -1 x_r0_g26 -1 x_r0_g27 -1 x_r0_g28 -1 x_r0_g35 -1 x_r0_g46 -1 x_r0_g69 -1 x_r0_g79 -1 x_r0_g84 -1 x_r0_g87 -1 x_r0_g93 -1 x_r0_g97 -1 x_r0_g129 -1 x_r0_g130 -1 x_r0_g144 -1 x_r0_g153 -1 x_r0_g162 -1 x_r1_g8 -1 x_r1_g13 -1 x_r1_g17 -1 x_r1_g23 -1 x_r1_g41 -1 x_r1_g51 -1 x_r1_g59 -1 x_r1_g67 -1 x_r1_g76 -1 x_r1_g93 -1 x_r1_g110 -1 x_r1_g111 -1 x_r1_g117 -1 x_r1_g121 -1 x_r1_g135 -1 x_r1_g143 -1 x_r1_g153 -1 x_r1_g157 -1 x_r1_g161 -1 x_r1_g162 -1 x_r2_g2 -1 x_r2_g29 -1 x_r2_g54 -1 x_r2_g62 -1 x_r2_g66 -1 x_r2_g73 -1 x_r2_g77 -1 x_r2_g80 -1 x_r2_g91 -1 x_r2_g107 -1 x_r2_g131 -1 x_r2_g133 -1 x_r2_g141 -1 x_r2_g142 -1 x_r2_g143 -1 x_r2_g149 -1 x_r2_g155 -1 x_r2_g158 -1 x_r2_g159 -1 x_r2_g165 -1 x_r3_g3 -1 x_r3_g7 -1 x_r3_g11 -1 x_r3_g15 -1 x_r3_g16 -1 x_r3_g24 -1 x_r3_g25 -1 x_r3_g33 -1 x_r3_g34 -1 x_r3_g51 -1 x_r3_g57 -1 x_r3_g72 -1 x_r3_g103 -1 x_r3_g105 -1 x_r3_g113 -1 x_r3_g121 -1 x_r3_g141 -1 x_r3_g147 -1 x_r3_g156 -1 x_r3_g165 1 x_r0_g7 1 x_r0_g20 1 x_r0_g25 1 x_r0_g34 1 x_r0_g37 1 x_r0_g47 1 x_r0_g54 1 x_r0_g60 1 x_r0_g62 1 x_r0_g68 1 x_r0_g70 1 x_r0_g88 1 x_r0_g102 1 x_r0_g118 1 x_r0_g126 1 x_r0_g131 1 x_r0_g136 1 x_r0_g137 1 x_r0_g143 1 x_r0_g159 1 x_r1_g11 1 x_r1_g15 1 x_r1_g26 1 x_r1_g31 1 x_r1_g38 1 x_r1_g44 1 x_r1_g56 1 x_r1_g62 1 x_r1_g64 1 x_r1_g80 1 x_r1_g96 1 x_r1_g108 1 x_r1_g113 1 x_r1_g114 1 x_r1_g123 1 x_r1_g128 1 x_r1_g146 1 x_r1_g155 1 x_r1_g160 1 x_r1_g164 1 x_r2_g18 1 x_r2_g21 1 x_r2_g30 1 x_r2_g48 1 x_r2_g60 1 x_r2_g64 1 x_r2_g70 1 x_r2_g74 1 x_r2_g86 1 x_r2_g102 1 x_r2_g105 1 x_r2_g110 1 x_r2_g120 1 x_r2_g128 1 x_r2_g130 1 x_r2_g139 1 x_r2_g146 1 x_r2_g152 1 x_r2_g162 1 x_r2_g163 1 x_r3_g8 1 x_r3_g9 1 x_r3_g12 1 x_r3_g13 1 x_r3_g19 1 x_r3_g27 1 x_r3_g36 1 x_r3_g53 1 x_r3_g94 1 x_r3_g106 1 x_r3_g111 1 x_r3_g112 1 x_r3_g118 1 x_r3_g123 1 x_r3_g124 1 x_r3_g128 1 x_r3_g138 1 x_r3_g144 1 x_r3_g145 1 x_r3_g162 = 80 ;
1 F <= 4 ;
