Minimize
 obj: M
Subject To
 block_size_0: 1 x_r0_g5 + 1 x_r0_g6 + 1 x_r0_g13 + 1 x_r0_g16 + 1 x_r0_g23 + 1 x_r0_g25 + 1 x_r0_g35 + 1 x_r0_g39 + 1 x_r0_g40 + 1 x_r0_g44 + 1 x_r0_g46 + 1 x_r0_g47 + 1 x_r0_g49 + 1 x_r0_g50 + 1 x_r0_g54 + 1 x_r0_g66 + 1 x_r0_g73 + 1 x_r0_g74 + 1 x_r0_g77 + 1 x_r0_g88 + 1 x_r0_g95 + 1 x_r0_g101 + 1 x_r0_g110 + 1 x_r0_g111 + 1 x_r0_g112 + 1 x_r0_g115 + 1 x_r0_g116 + 1 x_r0_g117 + 1 x_r0_g125 + 1 x_r0_g128 + 1 x_r0_g132 + 1 x_r0_g135 + 1 x_r0_g136 + 1 x_r0_g137 + 1 x_r0_g139 + 1 x_r0_g140 + 1 x_r0_g144 + 1 x_r0_g156 + 1 x_r0_g162 + 1 x_r0_g163 = 20
 block_size_1: 1 x_r1_g0 + 1 x_r1_g16 + 1 x_r1_g19 + 1 x_r1_g20 + 1 x_r1_g27 + 1 x_r1_g28 + 1 x_r1_g29 + 1 x_r1_g35 + 1 x_r1_g36 + 1 x_r1_g38 + 1 x_r1_g42 + 1 x_r1_g43 + 1 x_r1_g44 + 1 x_r1_g45 + 1 x_r1_g46 + 1 x_r1_g58 + 1 x_r1_g64 + 1 x_r1_g71 + 1 x_r1_g76 + 1 x_r1_g77 + 1 x_r1_g78 + 1 x_r1_g89 + 1 x_r1_g91 + 1 x_r1_g92 + 1 x_r1_g94 + 1 x_r1_g98 + 1 x_r1_g99 + 1 x_r1_g101 + 1 x_r1_g104 + 1 x_r1_g114 + 1 x_r1_g116 + 1 x_r1_g126 + 1 x_r1_g128 + 1 x_r1_g130 + 1 x_r1_g131 + 1 x_r1_g135 + 1 x_r1_g157 + 1 x_r1_g160 + 1 x_r1_g164 + 1 x_r1_g165 = 20
 block_size_2: 1 x_r2_g7 + 1 x_r2_g13 + 1 x_r2_g14 + 1 x_r2_g17 + 1 x_r2_g27 + 1 x_r2_g29 + 1 x_r2_g33 + 1 x_r2_g34 + 1 x_r2_g35 + 1 x_r2_g41 + 1 x_r2_g47 + 1 x_r2_g51 + 1 x_r2_g57 + 1 x_r2_g61 + 1 x_r2_g63 + 1 x_r2_g75 + 1 x_r2_g76 + 1 x_r2_g80 + 1 x_r2_g84 + 1 x_r2_g85 + 1 x_r2_g87 + 1 x_r2_g91 + 1 x_r2_g93 + 1 x_r2_g106 + 1 x_r2_g111 + 1 x_r2_g112 + 1 x_r2_g114 + 1 x_r2_g116 + 1 x_r2_g118 + 1 x_r2_g119 + 1 x_r2_g125 + 1 x_r2_g133 + 1 x_r2_g138 + 1 x_r2_g139 + 1 x_r2_g141 + 1 x_r2_g146 + 1 x_r2_g149 + 1 x_r2_g151 + 1 x_r2_g161 + 1 x_r2_g166 = 20
 block_size_3: 1 x_r3_g4 + 1 x_r3_g6 + 1 x_r3_g12 + 1 x_r3_g21 + 1 x_r3_g23 + 1 x_r3_g27 + 1 x_r3_g29 + 1 x_r3_g31 + 1 x_r3_g35 + 1 x_r3_g44 + 1 x_r3_g49 + 1 x_r3_g53 + 1 x_r3_g54 + 1 x_r3_g55 + 1 x_r3_g61 + 1 x_r3_g63 + 1 x_r3_g77 + 1 x_r3_g80 + 1 x_r3_g82 + 1 x_r3_g83 + 1 x_r3_g84 + 1 x_r3_g89 + 1 x_r3_g97 + 1 x_r3_g99 + 1 x_r3_g107 + 1 x_r3_g108 + 1 x_r3_g115 + 1 x_r3_g122 + 1 x_r3_g124 + 1 x_r3_g125 + 1 x_r3_g131 + 1 x_r3_g132 + 1 x_r3_g136 + 1 x_r3_g139 + 1 x_r3_g141 + 1 x_r3_g146 + 1 x_r3_g149 + 1 x_r3_g150 + 1 x_r3_g152 + 1 x_r3_g160 = 20
 lin1_1_0_6: p_r0_g6_h5_t1 - x_r0_g6 <= 0
 lin2_1_0_6: p_r0_g6_h5_t1 - x_r0_g5 <= 0
 lin3_1_0_6: p_r0_g6_h5_t1 - x_r0_g6 - x_r0_g5 >= -1
 lin1_1_0_40: p_r0_g40_h39_t1 - x_r0_g40 <= 0
 lin2_1_0_40: p_r0_g40_h39_t1 - x_r0_g39 <= 0
 lin3_1_0_40: p_r0_g40_h39_t1 - x_r0_g40 - x_r0_g39 >= -1
 lin1_1_0_47: p_r0_g47_h46_t1 - x_r0_g47 <= 0
 lin2_1_0_47: p_r0_g47_h46_t1 - x_r0_g46 <= 0
 lin3_1_0_47: p_r0_g47_h46_t1 - x_r0_g47 - x_r0_g46 >= -1
 lin1_1_0_50: p_r0_g50_h49_t1 - x_r0_g50 <= 0
 lin2_1_0_50: p_r0_g50_h49_t1 - x_r0_g49 <= 0
 lin3_1_0_50: p_r0_g50_h49_t1 - x_r0_g50 - x_r0_g49 >= -1
 lin1_1_0_74: p_r0_g74_h73_t1 - x_r0_g74 <= 0
 lin2_1_0_74: p_r0_g74_h73_t1 - x_r0_g73 <= 0
 lin3_1_0_74: p_r0_g74_h73_t1 - x_r0_g74 - x_r0_g73 >= -1
 lin1_1_0_111: p_r0_g111_h110_t1 - x_r0_g111 <= 0
 lin2_1_0_111: p_r0_g111_h110_t1 - x_r0_g110 <= 0
 lin3_1_0_111: p_r0_g111_h110_t1 - x_r0_g111 - x_r0_g110 >= -1
 lin1_1_0_112: p_r0_g112_h111_t1 - x_r0_g112 <= 0
 lin2_1_0_112: p_r0_g112_h111_t1 - x_r0_g111 <= 0
 lin3_1_0_112: p_r0_g112_h111_t1 - x_r0_g112 - x_r0_g111 >= -1
 lin1_1_0_116: p_r0_g116_h115_t1 - x_r0_g116 <= 0
 lin2_1_0_116: p_r0_g116_h115_t1 - x_r0_g115 <= 0
 lin3_1_0_116: p_r0_g116_h115_t1 - x_r0_g116 - x_r0_g115 >= -1
 lin1_1_0_117: p_r0_g117_h116_t1 - x_r0_g117 <= 0
 lin2_1_0_117: p_r0_g117_h116_t1 - x_r0_g116 <= 0
 lin3_1_0_117: p_r0_g117_h116_t1 - x_r0_g117 - x_r0_g116 >= -1
 lin1_1_0_136: p_r0_g136_h135_t1 - x_r0_g136 <= 0
 lin2_1_0_136: p_r0_g136_h135_t1 - x_r0_g135 <= 0
 lin3_1_0_136: p_r0_g136_h135_t1 - x_r0_g136 - x_r0_g135 >= -1
 lin1_1_0_137: p_r0_g137_h136_t1 - x_r0_g137 <= 0
 lin2_1_0_137: p_r0_g137_h136_t1 - x_r0_g136 <= 0
 lin3_1_0_137: p_r0_g137_h136_t1 - x_r0_g137 - x_r0_g136 >= -1
 lin1_1_0_140: p_r0_g140_h139_t1 - x_r0_g140 <= 0
 lin2_1_0_140: p_r0_g140_h139_t1 - x_r0_g139 <= 0
 lin3_1_0_140: p_r0_g140_h139_t1 - x_r0_g140 - x_r0_g139 >= -1
 lin1_1_0_163: p_r0_g163_h162_t1 - x_r0_g163 <= 0
 lin2_1_0_163: p_r0_g163_h162_t1 - x_r0_g162 <= 0
 lin3_1_0_163: p_r0_g163_h162_t1 - x_r0_g163 - x_r0_g162 >= -1
 lin1_1_1_20: p_r1_g20_h19_t1 - x_r1_g20 <= 0
 lin2_1_1_20: p_r1_g20_h19_t1 - x_r1_g19 <= 0
 lin3_1_1_20: p_r1_g20_h19_t1 - x_r1_g20 - x_r1_g19 >= -1
 lin1_1_1_28: p_r1_g28_h27_t1 - x_r1_g28 <= 0
 lin2_1_1_28: p_r1_g28_h27_t1 - x_r1_g27 <= 0
 lin3_1_1_28: p_r1_g28_h27_t1 - x_r1_g28 - x_r1_g27 >= -1
 lin1_1_1_29: p_r1_g29_h28_t1 - x_r1_g29 <= 0
 lin2_1_1_29: p_r1_g29_h28_t1 - x_r1_g28 <= 0
 lin3_1_1_29: p_r1_g29_h28_t1 - x_r1_g29 - x_r1_g28 >= -1
 lin1_1_1_36: p_r1_g36_h35_t1 - x_r1_g36 <= 0
 lin2_1_1_36: p_r1_g36_h35_t1 - x_r1_g35 <= 0
 lin3_1_1_36: p_r1_g36_h35_t1 - x_r1_g36 - x_r1_g35 >= -1
 lin1_1_1_43: p_r1_g43_h42_t1 - x_r1_g43 <= 0
 lin2_1_1_43: p_r1_g43_h42_t1 - x_r1_g42 <= 0
 lin3_1_1_43: p_r1_g43_h42_t1 - x_r1_g43 - x_r1_g42 >= -1
 lin1_1_1_44: p_r1_g44_h43_t1 - x_r1_g44 <= 0
 lin2_1_1_44: p_r1_g44_h43_t1 - x_r1_g43 <= 0
 lin3_1_1_44: p_r1_g44_h43_t1 - x_r1_g44 - x_r1_g43 >= -1
 lin1_1_1_45: p_r1_g45_h44_t1 - x_r1_g45 <= 0
 lin2_1_1_45: p_r1_g45_h44_t1 - x_r1_g44 <= 0
 lin3_1_1_45: p_r1_g45_h44_t1 - x_r1_g45 - x_r1_g44 >= -1
 lin1_1_1_46: p_r1_g46_h45_t1 - x_r1_g46 <= 0
 lin2_1_1_46: p_r1_g46_h45_t1 - x_r1_g45 <= 0
 lin3_1_1_46: p_r1_g46_h45_t1 - x_r1_g46 - x_r1_g45 >= -1
 lin1_1_1_77: p_r1_g77_h76_t1 - x_r1_g77 <= 0
 lin2_1_1_77: p_r1_g77_h76_t1 - x_r1_g76 <= 0
 lin3_1_1_77: p_r1_g77_h76_t1 - x_r1_g77 - x_r1_g76 >= -1
 lin1_1_1_78: p_r1_g78_h77_t1 - x_r1_g78 <= 0
 lin2_1_1_78: p_r1_g78_h77_t1 - x_r1_g77 <= 0
 lin3_1_1_78: p_r1_g78_h77_t1 - x_r1_g78 - x_r1_g77 >= -1
 lin1_1_1_92: p_r1_g92_h91_t1 - x_r1_g92 <= 0
 lin2_1_1_92: p_r1_g92_h91_t1 - x_r1_g91 <= 0
 lin3_1_1_92: p_r1_g92_h91_t1 - x_r1_g92 - x_r1_g91 >= -1
 lin1_1_1_99: p_r1_g99_h98_t1 - x_r1_g99 <= 0
 lin2_1_1_99: p_r1_g99_h98_t1 - x_r1_g98 <= 0
 lin3_1_1_99: p_r1_g99_h98_t1 - x_r1_g99 - x_r1_g98 >= -1
 lin1_1_1_131: p_r1_g131_h130_t1 - x_r1_g131 <= 0
 lin2_1_1_131: p_r1_g131_h130_t1 - x_r1_g130 <= 0
 lin3_1_1_131: p_r1_g131_h130_t1 - x_r1_g131 - x_r1_g130 >= -1
 lin1_1_1_165: p_r1_g165_h164_t1 - x_r1_g165 <= 0
 lin2_1_1_165: p_r1_g165_h164_t1 - x_r1_g164 <= 0
 lin3_1_1_165: p_r1_g165_h164_t1 - x_r1_g165 - x_r1_g164 >= -1
 lin1_1_2_14: p_r2_g14_h13_t1 - x_r2_g14 <= 0
 lin2_1_2_14: p_r2_g14_h13_t1 - x_r2_g13 <= 0
 lin3_1_2_14: p_r2_g14_h13_t1 - x_r2_g14 - x_r2_g13 >= -1
 lin1_1_2_34: p_r2_g34_h33_t1 - x_r2_g34 <= 0
 lin2_1_2_34: p_r2_g34_h33_t1 - x_r2_g33 <= 0
 lin3_1_2_34: p_r2_g34_h33_t1 - x_r2_g34 - x_r2_g33 >= -1
 lin1_1_2_35: p_r2_g35_h34_t1 - x_r2_g35 <= 0
 lin2_1_2_35: p_r2_g35_h34_t1 - x_r2_g34 <= 0
 lin3_1_2_35: p_r2_g35_h34_t1 - x_r2_g35 - x_r2_g34 >= -1
 lin1_1_2_76: p_r2_g76_h75_t1 - x_r2_g76 <= 0
 lin2_1_2_76: p_r2_g76_h75_t1 - x_r2_g75 <= 0
 lin3_1_2_76: p_r2_g76_h75_t1 - x_r2_g76 - x_r2_g75 >= -1
 lin1_1_2_85: p_r2_g85_h84_t1 - x_r2_g85 <= 0
 lin2_1_2_85: p_r2_g85_h84_t1 - x_r2_g84 <= 0
 lin3_1_2_85: p_r2_g85_h84_t1 - x_r2_g85 - x_r2_g84 >= -1
 lin1_1_2_112: p_r2_g112_h111_t1 - x_r2_g112 <= 0
 lin2_1_2_112: p_r2_g112_h111_t1 - x_r2_g111 <= 0
 lin3_1_2_112: p_r2_g112_h111_t1 - x_r2_g112 - x_r2_g111 >= -1
 lin1_1_2_119: p_r2_g119_h118_t1 - x_r2_g119 <= 0
 lin2_1_2_119: p_r2_g119_h118_t1 - x_r2_g118 <= 0
 lin3_1_2_119: p_r2_g119_h118_t1 - x_r2_g119 - x_r2_g118 >= -1
 lin1_1_2_139: p_r2_g139_h138_t1 - x_r2_g139 <= 0
 lin2_1_2_139: p_r2_g139_h138_t1 - x_r2_g138 <= 0
 lin3_1_2_139: p_r2_g139_h138_t1 - x_r2_g139 - x_r2_g138 >= -1
 lin1_1_3_54: p_r3_g54_h53_t1 - x_r3_g54 <= 0
 lin2_1_3_54: p_r3_g54_h53_t1 - x_r3_g53 <= 0
 lin3_1_3_54: p_r3_g54_h53_t1 - x_r3_g54 - x_r3_g53 >= -1
 lin1_1_3_55: p_r3_g55_h54_t1 - x_r3_g55 <= 0
 lin2_1_3_55: p_r3_g55_h54_t1 - x_r3_g54 <= 0
 lin3_1_3_55: p_r3_g55_h54_t1 - x_r3_g55 - x_r3_g54 >= -1
 lin1_1_3_83: p_r3_g83_h82_t1 - x_r3_g83 <= 0
 lin2_1_3_83: p_r3_g83_h82_t1 - x_r3_g82 <= 0
 lin3_1_3_83: p_r3_g83_h82_t1 - x_r3_g83 - x_r3_g82 >= -1
 lin1_1_3_84: p_r3_g84_h83_t1 - x_r3_g84 <= 0
 lin2_1_3_84: p_r3_g84_h83_t1 - x_r3_g83 <= 0
 lin3_1_3_84: p_r3_g84_h83_t1 - x_r3_g84 - x_r3_g83 >= -1
 lin1_1_3_108: p_r3_g108_h107_t1 - x_r3_g108 <= 0
 lin2_1_3_108: p_r3_g108_h107_t1 - x_r3_g107 <= 0
 lin3_1_3_108: p_r3_g108_h107_t1 - x_r3_g108 - x_r3_g107 >= -1
 lin1_1_3_125: p_r3_g125_h124_t1 - x_r3_g125 <= 0
 lin2_1_3_125: p_r3_g125_h124_t1 - x_r3_g124 <= 0
 lin3_1_3_125: p_r3_g125_h124_t1 - x_r3_g125 - x_r3_g124 >= -1
 lin1_1_3_132: p_r3_g132_h131_t1 - x_r3_g132 <= 0
 lin2_1_3_132: p_r3_g132_h131_t1 - x_r3_g131 <= 0
 lin3_1_3_132: p_r3_g132_h131_t1 - x_r3_g132 - x_r3_g131 >= -1
 lin1_1_3_150: p_r3_g150_h149_t1 - x_r3_g150 <= 0
 lin2_1_3_150: p_r3_g150_h149_t1 - x_r3_g149 <= 0
 lin3_1_3_150: p_r3_g150_h149_t1 - x_r3_g150 - x_r3_g149 >= -1
 defect_1: 1 d_1 - 1 x_r0_g6 - 2 x_r0_g13 - 1 x_r0_g16 - 2 x_r0_g35 - 1 x_r0_g39 - 2 x_r0_g44 - 1 x_r0_g46 - 1 x_r0_g47 - 1 x_r0_g49 - 1 x_r0_g50 - 1 x_r0_g54 - 2 x_r0_g66 - 2 x_r0_g101 - 1 x_r0_g112 - 1 x_r0_g117 - 1 x_r0_g125 - 1 x_r0_g128 - 1 x_r0_g132 - 1 x_r0_g144 - 2 x_r0_g156 - 2 x_r1_g0 - 1 x_r1_g16 - 1 x_r1_g19 - 1 x_r1_g27 - 1 x_r1_g36 - 2 x_r1_g38 - 1 x_r1_g58 - 1 x_r1_g64 - 1 x_r1_g71 - 1 x_r1_g78 - 2 x_r1_g89 - 1 x_r1_g91 - 1 x_r1_g94 - 1 x_r1_g99 - 1 x_r1_g101 - 1 x_r1_g104 - 2 x_r1_g114 - 1 x_r1_g116 - 1 x_r1_g126 - 1 x_r1_g128 - 1 x_r1_g131 - 1 x_r1_g157 - 1 x_r1_g160 - 1 x_r1_g164 - 1 x_r1_g165 - 1 x_r2_g17 - 2 x_r2_g27 - 2 x_r2_g29 - 2 x_r2_g47 - 2 x_r2_g57 - 1 x_r2_g61 - 1 x_r2_g63 - 1 x_r2_g75 - 1 x_r2_g84 - 1 x_r2_g85 - 1 x_r2_g87 - 1 x_r2_g91 - 1 x_r2_g93 - 1 x_r2_g106 - 1 x_r2_g111 - 1 x_r2_g112 - 2 x_r2_g114 - 1 x_r2_g116 - 1 x_r2_g119 - 1 x_r2_g125 - 2 x_r2_g133 - 1 x_r2_g138 - 1 x_r2_g139 - 1 x_r2_g141 - 2 x_r2_g149 - 2 x_r2_g151 - 1 x_r2_g161 - 2 x_r2_g166 - 1 x_r3_g4 - 1 x_r3_g6 - 1 x_r3_g12 - 2 x_r3_g21 - 1 x_r3_g23 - 2 x_r3_g27 - 2 x_r3_g29 - 2 x_r3_g31 - 1 x_r3_g35 - 2 x_r3_g44 - 1 x_r3_g61 - 1 x_r3_g63 - 2 x_r3_g77 - 1 x_r3_g80 - 1 x_r3_g82 - 1 x_r3_g97 - 1 x_r3_g99 - 1 x_r3_g107 - 1 x_r3_g122 - 1 x_r3_g124 - 1 x_r3_g136 - 2 x_r3_g139 - 2 x_r3_g141 - 1 x_r3_g146 - 1 x_r3_g149 - 1 x_r3_g150 - 1 x_r3_g152 - 1 p_r0_g6_h5_t1 - 1 p_r0_g40_h39_t1 - 1 p_r0_g47_h46_t1 - 1 p_r0_g50_h49_t1 - 1 p_r0_g74_h73_t1 - 1 p_r0_g111_h110_t1 - 1 p_r0_g112_h111_t1 - 1 p_r0_g116_h115_t1 - 1 p_r0_g117_h116_t1 - 1 p_r0_g136_h135_t1 - 1 p_r0_g137_h136_t1 - 1 p_r0_g140_h139_t1 - 1 p_r0_g163_h162_t1 - 1 p_r1_g20_h19_t1 - 1 p_r1_g28_h27_t1 - 1 p_r1_g29_h28_t1 - 1 p_r1_g36_h35_t1 - 1 p_r1_g43_h42_t1 - 1 p_r1_g44_h43_t1 - 1 p_r1_g45_h44_t1 - 1 p_r1_g46_h45_t1 - 1 p_r1_g77_h76_t1 - 1 p_r1_g78_h77_t1 - 1 p_r1_g92_h91_t1 - 1 p_r1_g99_h98_t1 - 1 p_r1_g131_h130_t1 - 1 p_r1_g165_h164_t1 - 1 p_r2_g14_h13_t1 - 1 p_r2_g34_h33_t1 - 1 p_r2_g35_h34_t1 - 1 p_r2_g76_h75_t1 - 1 p_r2_g85_h84_t1 - 1 p_r2_g112_h111_t1 - 1 p_r2_g119_h118_t1 - 1 p_r2_g139_h138_t1 - 1 p_r3_g54_h53_t1 - 1 p_r3_g55_h54_t1 - 1 p_r3_g83_h82_t1 - 1 p_r3_g84_h83_t1 - 1 p_r3_g108_h107_t1 - 1 p_r3_g125_h124_t1 - 1 p_r3_g132_h131_t1 - 1 p_r3_g150_h149_t1 = -62
 abs_pos_1: d_1 - u_1 <= 0
 abs_neg_1: - d_1 - u_1 <= 0
 max_def_1: u_1 - M <= 0
 cap_1: u_1 <= 2
 lin1_2_0_25: p_r0_g25_h23_t2 - x_r0_g25 <= 0
 lin2_2_0_25: p_r0_g25_h23_t2 - x_r0_g23 <= 0
 lin3_2_0_25: p_r0_g25_h23_t2 - x_r0_g25 - x_r0_g23 >= -1
 lin1_2_0_46: p_r0_g46_h44_t2 - x_r0_g46 <= 0
 lin2_2_0_46: p_r0_g46_h44_t2 - x_r0_g44 <= 0
 lin3_2_0_46: p_r0_g46_h44_t2 - x_r0_g46 - x_r0_g44 >= -1
 lin1_2_0_49: p_r0_g49_h47_t2 - x_r0_g49 <= 0
 lin2_2_0_49: p_r0_g49_h47_t2 - x_r0_g47 <= 0
 lin3_2_0_49: p_r0_g49_h47_t2 - x_r0_g49 - x_r0_g47 >= -1
 lin1_2_0_112: p_r0_g112_h110_t2 - x_r0_g112 <= 0
 lin2_2_0_112: p_r0_g112_h110_t2 - x_r0_g110 <= 0
 lin3_2_0_112: p_r0_g112_h110_t2 - x_r0_g112 - x_r0_g110 >= -1
 lin1_2_0_117: p_r0_g117_h115_t2 - x_r0_g117 <= 0
 lin2_2_0_117: p_r0_g117_h115_t2 - x_r0_g115 <= 0
 lin3_2_0_117: p_r0_g117_h115_t2 - x_r0_g117 - x_r0_g115 >= -1
 lin1_2_0_137: p_r0_g137_h135_t2 - x_r0_g137 <= 0
 lin2_2_0_137: p_r0_g137_h135_t2 - x_r0_g135 <= 0
 lin3_2_0_137: p_r0_g137_h135_t2 - x_r0_g137 - x_r0_g135 >= -1
 lin1_2_0_139: p_r0_g139_h137_t2 - x_r0_g139 <= 0
 lin2_2_0_139: p_r0_g139_h137_t2 - x_r0_g137 <= 0
 lin3_2_0_139: p_r0_g139_h137_t2 - x_r0_g139 - x_r0_g137 >= -1
 lin1_2_1_0: p_r1_g0_h165_t2 - x_r1_g0 <= 0
 lin2_2_1_0: p_r1_g0_h165_t2 - x_r1_g165 <= 0
 lin3_2_1_0: p_r1_g0_h165_t2 - x_r1_g0 - x_r1_g165 >= -1
 lin1_2_1_29: p_r1_g29_h27_t2 - x_r1_g29 <= 0
 lin2_2_1_29: p_r1_g29_h27_t2 - x_r1_g27 <= 0
 lin3_2_1_29: p_r1_g29_h27_t2 - x_r1_g29 - x_r1_g27 >= -1
 lin1_2_1_38: p_r1_g38_h36_t2 - x_r1_g38 <= 0
 lin2_2_1_38: p_r1_g38_h36_t2 - x_r1_g36 <= 0
 lin3_2_1_38: p_r1_g38_h36_t2 - x_r1_g38 - x_r1_g36 >= -1
 lin1_2_1_44: p_r1_g44_h42_t2 - x_r1_g44 <= 0
 lin2_2_1_44: p_r1_g44_h42_t2 - x_r1_g42 <= 0
 lin3_2_1_44: p_r1_g44_h42_t2 - x_r1_g44 - x_r1_g42 >= -1
 lin1_2_1_45: p_r1_g45_h43_t2 - x_r1_g45 <= 0
 lin2_2_1_45: p_r1_g45_h43_t2 - x_r1_g43 <= 0
 lin3_2_1_45: p_r1_g45_h43_t2 - x_r1_g45 - x_r1_g43 >= -1
 lin1_2_1_46: p_r1_g46_h44_t2 - x_r1_g46 <= 0
 lin2_2_1_46: p_r1_g46_h44_t2 - x_r1_g44 <= 0
 lin3_2_1_46: p_r1_g46_h44_t2 - x_r1_g46 - x_r1_g44 >= -1
 lin1_2_1_78: p_r1_g78_h76_t2 - x_r1_g78 <= 0
 lin2_2_1_78: p_r1_g78_h76_t2 - x_r1_g76 <= 0
 lin3_2_1_78: p_r1_g78_h76_t2 - x_r1_g78 - x_r1_g76 >= -1
 lin1_2_1_91: p_r1_g91_h89_t2 - x_r1_g91 <= 0
 lin2_2_1_91: p_r1_g91_h89_t2 - x_r1_g89 <= 0
 lin3_2_1_91: p_r1_g91_h89_t2 - x_r1_g91 - x_r1_g89 >= -1
 lin1_2_1_94: p_r1_g94_h92_t2 - x_r1_g94 <= 0
 lin2_2_1_94: p_r1_g94_h92_t2 - x_r1_g92 <= 0
 lin3_2_1_94: p_r1_g94_h92_t2 - x_r1_g94 - x_r1_g92 >= -1
 lin1_2_1_101: p_r1_g101_h99_t2 - x_r1_g101 <= 0
 lin2_2_1_101: p_r1_g101_h99_t2 - x_r1_g99 <= 0
 lin3_2_1_101: p_r1_g101_h99_t2 - x_r1_g101 - x_r1_g99 >= -1
 lin1_2_1_116: p_r1_g116_h114_t2 - x_r1_g116 <= 0
 lin2_2_1_116: p_r1_g116_h114_t2 - x_r1_g114 <= 0
 lin3_2_1_116: p_r1_g116_h114_t2 - x_r1_g116 - x_r1_g114 >= -1
 lin1_2_1_128: p_r1_g128_h126_t2 - x_r1_g128 <= 0
 lin2_2_1_128: p_r1_g128_h126_t2 - x_r1_g126 <= 0
 lin3_2_1_128: p_r1_g128_h126_t2 - x_r1_g128 - x_r1_g126 >= -1
 lin1_2_1_130: p_r1_g130_h128_t2 - x_r1_g130 <= 0
 lin2_2_1_130: p_r1_g130_h128_t2 - x_r1_g128 <= 0
 lin3_2_1_130: p_r1_g130_h128_t2 - x_r1_g130 - x_r1_g128 >= -1
 lin1_2_2_29: p_r2_g29_h27_t2 - x_r2_g29 <= 0
 lin2_2_2_29: p_r2_g29_h27_t2 - x_r2_g27 <= 0
 lin3_2_2_29: p_r2_g29_h27_t2 - x_r2_g29 - x_r2_g27 >= -1
 lin1_2_2_35: p_r2_g35_h33_t2 - x_r2_g35 <= 0
 lin2_2_2_35: p_r2_g35_h33_t2 - x_r2_g33 <= 0
 lin3_2_2_35: p_r2_g35_h33_t2 - x_r2_g35 - x_r2_g33 >= -1
 lin1_2_2_63: p_r2_g63_h61_t2 - x_r2_g63 <= 0
 lin2_2_2_63: p_r2_g63_h61_t2 - x_r2_g61 <= 0
 lin3_2_2_63: p_r2_g63_h61_t2 - x_r2_g63 - x_r2_g61 >= -1
 lin1_2_2_87: p_r2_g87_h85_t2 - x_r2_g87 <= 0
 lin2_2_2_87: p_r2_g87_h85_t2 - x_r2_g85 <= 0
 lin3_2_2_87: p_r2_g87_h85_t2 - x_r2_g87 - x_r2_g85 >= -1
 lin1_2_2_93: p_r2_g93_h91_t2 - x_r2_g93 <= 0
 lin2_2_2_93: p_r2_g93_h91_t2 - x_r2_g91 <= 0
 lin3_2_2_93: p_r2_g93_h91_t2 - x_r2_g93 - x_r2_g91 >= -1
 lin1_2_2_114: p_r2_g114_h112_t2 - x_r2_g114 <= 0
 lin2_2_2_114: p_r2_g114_h112_t2 - x_r2_g112 <= 0
 lin3_2_2_114: p_r2_g114_h112_t2 - x_r2_g114 - x_r2_g112 >= -1
 lin1_2_2_116: p_r2_g116_h114_t2 - x_r2_g116 <= 0
 lin2_2_2_116: p_r2_g116_h114_t2 - x_r2_g114 <= 0
 lin3_2_2_116: p_r2_g116_h114_t2 - x_r2_g116 - x_r2_g114 >= -1
 lin1_2_2_118: p_r2_g118_h116_t2 - x_r2_g118 <= 0
 lin2_2_2_118: p_r2_g118_h116_t2 - x_r2_g116 <= 0
 lin3_2_2_118: p_r2_g118_h116_t2 - x_r2_g118 - x_r2_g116 >= -1
 lin1_2_2_141: p_r2_g141_h139_t2 - x_r2_g141 <= 0
 lin2_2_2_141: p_r2_g141_h139_t2 - x_r2_g139 <= 0
 lin3_2_2_141: p_r2_g141_h139_t2 - x_r2_g141 - x_r2_g139 >= -1
 lin1_2_2_151: p_r2_g151_h149_t2 - x_r2_g151 <= 0
 lin2_2_2_151: p_r2_g151_h149_t2 - x_r2_g149 <= 0
 lin3_2_2_151: p_r2_g151_h149_t2 - x_r2_g151 - x_r2_g149 >= -1
 lin1_2_3_6: p_r3_g6_h4_t2 - x_r3_g6 <= 0
 lin2_2_3_6: p_r3_g6_h4_t2 - x_r3_g4 <= 0
 lin3_2_3_6: p_r3_g6_h4_t2 - x_r3_g6 - x_r3_g4 >= -1
 lin1_2_3_23: p_r3_g23_h21_t2 - x_r3_g23 <= 0
 lin2_2_3_23: p_r3_g23_h21_t2 - x_r3_g21 <= 0
 lin3_2_3_23: p_r3_g23_h21_t2 - x_r3_g23 - x_r3_g21 >= -1
 lin1_2_3_29: p_r3_g29_h27_t2 - x_r3_g29 <= 0
 lin2_2_3_29: p_r3_g29_h27_t2 - x_r3_g27 <= 0
 lin3_2_3_29: p_r3_g29_h27_t2 - x_r3_g29 - x_r3_g27 >= -1
 lin1_2_3_31: p_r3_g31_h29_t2 - x_r3_g31 <= 0
 lin2_2_3_31: p_r3_g31_h29_t2 - x_r3_g29 <= 0
 lin3_2_3_31: p_r3_g31_h29_t2 - x_r3_g31 - x_r3_g29 >= -1
 lin1_2_3_55: p_r3_g55_h53_t2 - x_r3_g55 <= 0
 lin2_2_3_55: p_r3_g55_h53_t2 - x_r3_g53 <= 0
 lin3_2_3_55: p_r3_g55_h53_t2 - x_r3_g55 - x_r3_g53 >= -1
 lin1_2_3_63: p_r3_g63_h61_t2 - x_r3_g63 <= 0
 lin2_2_3_63: p_r3_g63_h61_t2 - x_r3_g61 <= 0
 lin3_2_3_63: p_r3_g63_h61_t2 - x_r3_g63 - x_r3_g61 >= -1
 lin1_2_3_82: p_r3_g82_h80_t2 - x_r3_g82 <= 0
 lin2_2_3_82: p_r3_g82_h80_t2 - x_r3_g80 <= 0
 lin3_2_3_82: p_r3_g82_h80_t2 - x_r3_g82 - x_r3_g80 >= -1
 lin1_2_3_84: p_r3_g84_h82_t2 - x_r3_g84 <= 0
 lin2_2_3_84: p_r3_g84_h82_t2 - x_r3_g82 <= 0
 lin3_2_3_84: p_r3_g84_h82_t2 - x_r3_g84 - x_r3_g82 >= -1
 lin1_2_3_99: p_r3_g99_h97_t2 - x_r3_g99 <= 0
 lin2_2_3_99: p_r3_g99_h97_t2 - x_r3_g97 <= 0
 lin3_2_3_99: p_r3_g99_h97_t2 - x_r3_g99 - x_r3_g97 >= -1
 lin1_2_3_124: p_r3_g124_h122_t2 - x_r3_g124 <= 0
 lin2_2_3_124: p_r3_g124_h122_t2 - x_r3_g122 <= 0
 lin3_2_3_124: p_r3_g124_h122_t2 - x_r3_g124 - x_r3_g122 >= -1
 lin1_2_3_141: p_r3_g141_h139_t2 - x_r3_g141 <= 0
 lin2_2_3_141: p_r3_g141_h139_t2 - x_r3_g139 <= 0
 lin3_2_3_141: p_r3_g141_h139_t2 - x_r3_g141 - x_r3_g139 >= -1
 lin1_2_3_152: p_r3_g152_h150_t2 - x_r3_g152 <= 0
 lin2_2_3_152: p_r3_g152_h150_t2 - x_r3_g150 <= 0
 lin3_2_3_152: p_r3_g152_h150_t2 - x_r3_g152 - x_r3_g150 >= -1
 defect_2: 1 d_2 - 2 x_r0_g5 - 2 x_r0_g13 - 1 x_r0_g16 - 1 x_r0_g35 - 1 x_r0_g39 - 2 x_r0_g40 - 1 x_r0_g44 - 1 x_r0_g46 - 1 x_r0_g47 - 1 x_r0_g49 - 2 x_r0_g50 - 1 x_r0_g54 - 1 x_r0_g66 - 1 x_r0_g88 - 1 x_r0_g101 - 1 x_r0_g111 - 1 x_r0_g115 - 1 x_r0_g116 - 1 x_r0_g117 - 2 x_r0_g125 - 1 x_r0_g128 - 1 x_r0_g140 - 2 x_r0_g144 - 1 x_r0_g156 - 1 x_r0_g162 - 1 x_r0_g163 - 1 x_r1_g16 - 1 x_r1_g20 - 1 x_r1_g28 - 1 x_r1_g29 - 1 x_r1_g35 - 1 x_r1_g38 - 1 x_r1_g42 - 1 x_r1_g58 - 2 x_r1_g64 - 1 x_r1_g71 - 1 x_r1_g77 - 1 x_r1_g78 - 1 x_r1_g89 - 1 x_r1_g92 - 1 x_r1_g94 - 2 x_r1_g98 - 1 x_r1_g101 - 1 x_r1_g114 - 1 x_r1_g126 - 1 x_r1_g130 - 2 x_r1_g157 - 1 x_r1_g164 - 1 x_r1_g165 - 1 x_r2_g27 - 1 x_r2_g29 - 1 x_r2_g33 - 2 x_r2_g41 - 1 x_r2_g47 - 1 x_r2_g51 - 1 x_r2_g63 - 2 x_r2_g76 - 2 x_r2_g80 - 2 x_r2_g84 - 1 x_r2_g85 - 1 x_r2_g106 - 1 x_r2_g111 - 1 x_r2_g112 - 1 x_r2_g118 - 1 x_r2_g119 - 1 x_r2_g125 - 2 x_r2_g138 - 1 x_r2_g139 - 1 x_r2_g146 - 1 x_r2_g151 - 1 x_r2_g161 - 1 x_r2_g166 - 1 x_r3_g4 - 1 x_r3_g6 - 1 x_r3_g21 - 1 x_r3_g35 - 1 x_r3_g44 - 1 x_r3_g49 - 1 x_r3_g61 - 1 x_r3_g63 - 1 x_r3_g77 - 1 x_r3_g80 - 1 x_r3_g83 - 1 x_r3_g84 - 2 x_r3_g108 - 2 x_r3_g125 - 1 x_r3_g131 - 1 x_r3_g132 - 2 x_r3_g136 - 1 x_r3_g139 - 1 x_r3_g141 - 2 x_r3_g146 - 1 x_r3_g149 - 1 x_r3_g150 - 1 x_r3_g152 - 1 x_r3_g160 - 1 p_r0_g25_h23_t2 - 1 p_r0_g46_h44_t2 - 1 p_r0_g49_h47_t2 - 1 p_r0_g112_h110_t2 - 1 p_r0_g117_h115_t2 - 1 p_r0_g137_h135_t2 - 1 p_r0_g139_h137_t2 - 1 p_r1_g0_h165_t2 - 1 p_r1_g29_h27_t2 - 1 p_r1_g38_h36_t2 - 1 p_r1_g44_h42_t2 - 1 p_r1_g45_h43_t2 - 1 p_r1_g46_h44_t2 - 1 p_r1_g78_h76_t2 - 1 p_r1_g91_h89_t2 - 1 p_r1_g94_h92_t2 - 1 p_r1_g101_h99_t2 - 1 p_r1_g116_h114_t2 - 1 p_r1_g128_h126_t2 - 1 p_r1_g130_h128_t2 - 1 p_r2_g29_h27_t2 - 1 p_r2_g35_h33_t2 - 1 p_r2_g63_h61_t2 - 1 p_r2_g87_h85_t2 - 1 p_r2_g93_h91_t2 - 1 p_r2_g114_h112_t2 - 1 p_r2_g116_h114_t2 - 1 p_r2_g118_h116_t2 - 1 p_r2_g141_h139_t2 - 1 p_r2_g151_h149_t2 - 1 p_r3_g6_h4_t2 - 1 p_r3_g23_h21_t2 - 1 p_r3_g29_h27_t2 - 1 p_r3_g31_h29_t2 - 1 p_r3_g55_h53_t2 - 1 p_r3_g63_h61_t2 - 1 p_r3_g82_h80_t2 - 1 p_r3_g84_h82_t2 - 1 p_r3_g99_h97_t2 - 1 p_r3_g124_h122_t2 - 1 p_r3_g141_h139_t2 - 1 p_r3_g152_h150_t2 = -73
 abs_pos_2: d_2 - u_2 <= 0
 abs_neg_2: - d_2 - u_2 <= 0
 max_def_2: u_2 - M <= 0
 cap_2: u_2 <= 1
 lin1_3_0_16: p_r0_g16_h13_t3 - x_r0_g16 <= 0
 lin2_3_0_16: p_r0_g16_h13_t3 - x_r0_g13 <= 0
 lin3_3_0_16: p_r0_g16_h13_t3 - x_r0_g16 - x_r0_g13 >= -1
 lin1_3_0_47: p_r0_g47_h44_t3 - x_r0_g47 <= 0
 lin2_3_0_47: p_r0_g47_h44_t3 - x_r0_g44 <= 0
 lin3_3_0_47: p_r0_g47_h44_t3 - x_r0_g47 - x_r0_g44 >= -1
 lin1_3_0_49: p_r0_g49_h46_t3 - x_r0_g49 <= 0
 lin2_3_0_49: p_r0_g49_h46_t3 - x_r0_g46 <= 0
 lin3_3_0_49: p_r0_g49_h46_t3 - x_r0_g49 - x_r0_g46 >= -1
 lin1_3_0_50: p_r0_g50_h47_t3 - x_r0_g50 <= 0
 lin2_3_0_50: p_r0_g50_h47_t3 - x_r0_g47 <= 0
 lin3_3_0_50: p_r0_g50_h47_t3 - x_r0_g50 - x_r0_g47 >= -1
 lin1_3_0_77: p_r0_g77_h74_t3 - x_r0_g77 <= 0
 lin2_3_0_77: p_r0_g77_h74_t3 - x_r0_g74 <= 0
 lin3_3_0_77: p_r0_g77_h74_t3 - x_r0_g77 - x_r0_g74 >= -1
 lin1_3_0_115: p_r0_g115_h112_t3 - x_r0_g115 <= 0
 lin2_3_0_115: p_r0_g115_h112_t3 - x_r0_g112 <= 0
 lin3_3_0_115: p_r0_g115_h112_t3 - x_r0_g115 - x_r0_g112 >= -1
 lin1_3_0_128: p_r0_g128_h125_t3 - x_r0_g128 <= 0
 lin2_3_0_128: p_r0_g128_h125_t3 - x_r0_g125 <= 0
 lin3_3_0_128: p_r0_g128_h125_t3 - x_r0_g128 - x_r0_g125 >= -1
 lin1_3_0_135: p_r0_g135_h132_t3 - x_r0_g135 <= 0
 lin2_3_0_135: p_r0_g135_h132_t3 - x_r0_g132 <= 0
 lin3_3_0_135: p_r0_g135_h132_t3 - x_r0_g135 - x_r0_g132 >= -1
 lin1_3_0_139: p_r0_g139_h136_t3 - x_r0_g139 <= 0
 lin2_3_0_139: p_r0_g139_h136_t3 - x_r0_g136 <= 0
 lin3_3_0_139: p_r0_g139_h136_t3 - x_r0_g139 - x_r0_g136 >= -1
 lin1_3_0_140: p_r0_g140_h137_t3 - x_r0_g140 <= 0
 lin2_3_0_140: p_r0_g140_h137_t3 - x_r0_g137 <= 0
 lin3_3_0_140: p_r0_g140_h137_t3 - x_r0_g140 - x_r0_g137 >= -1
 lin1_3_1_0: p_r1_g0_h164_t3 - x_r1_g0 <= 0
 lin2_3_1_0: p_r1_g0_h164_t3 - x_r1_g164 <= 0
 lin3_3_1_0: p_r1_g0_h164_t3 - x_r1_g0 - x_r1_g164 >= -1
 lin1_3_1_19: p_r1_g19_h16_t3 - x_r1_g19 <= 0
 lin2_3_1_19: p_r1_g19_h16_t3 - x_r1_g16 <= 0
 lin3_3_1_19: p_r1_g19_h16_t3 - x_r1_g19 - x_r1_g16 >= -1
 lin1_3_1_38: p_r1_g38_h35_t3 - x_r1_g38 <= 0
 lin2_3_1_38: p_r1_g38_h35_t3 - x_r1_g35 <= 0
 lin3_3_1_38: p_r1_g38_h35_t3 - x_r1_g38 - x_r1_g35 >= -1
 lin1_3_1_45: p_r1_g45_h42_t3 - x_r1_g45 <= 0
 lin2_3_1_45: p_r1_g45_h42_t3 - x_r1_g42 <= 0
 lin3_3_1_45: p_r1_g45_h42_t3 - x_r1_g45 - x_r1_g42 >= -1
 lin1_3_1_46: p_r1_g46_h43_t3 - x_r1_g46 <= 0
 lin2_3_1_46: p_r1_g46_h43_t3 - x_r1_g43 <= 0
 lin3_3_1_46: p_r1_g46_h43_t3 - x_r1_g46 - x_r1_g43 >= -1
 lin1_3_1_92: p_r1_g92_h89_t3 - x_r1_g92 <= 0
 lin2_3_1_92: p_r1_g92_h89_t3 - x_r1_g89 <= 0
 lin3_3_1_92: p_r1_g92_h89_t3 - x_r1_g92 - x_r1_g89 >= -1
 lin1_3_1_94: p_r1_g94_h91_t3 - x_r1_g94 <= 0
 lin2_3_1_94: p_r1_g94_h91_t3 - x_r1_g91 <= 0
 lin3_3_1_94: p_r1_g94_h91_t3 - x_r1_g94 - x_r1_g91 >= -1
 lin1_3_1_101: p_r1_g101_h98_t3 - x_r1_g101 <= 0
 lin2_3_1_101: p_r1_g101_h98_t3 - x_r1_g98 <= 0
 lin3_3_1_101: p_r1_g101_h98_t3 - x_r1_g101 - x_r1_g98 >= -1
 lin1_3_1_104: p_r1_g104_h101_t3 - x_r1_g104 <= 0
 lin2_3_1_104: p_r1_g104_h101_t3 - x_r1_g101 <= 0
 lin3_3_1_104: p_r1_g104_h101_t3 - x_r1_g104 - x_r1_g101 >= -1
 lin1_3_1_131: p_r1_g131_h128_t3 - x_r1_g131 <= 0
 lin2_3_1_131: p_r1_g131_h128_t3 - x_r1_g128 <= 0
 lin3_3_1_131: p_r1_g131_h128_t3 - x_r1_g131 - x_r1_g128 >= -1
 lin1_3_1_160: p_r1_g160_h157_t3 - x_r1_g160 <= 0
 lin2_3_1_160: p_r1_g160_h157_t3 - x_r1_g157 <= 0
 lin3_3_1_160: p_r1_g160_h157_t3 - x_r1_g160 - x_r1_g157 >= -1
 lin1_3_2_17: p_r2_g17_h14_t3 - x_r2_g17 <= 0
 lin2_3_2_17: p_r2_g17_h14_t3 - x_r2_g14 <= 0
 lin3_3_2_17: p_r2_g17_h14_t3 - x_r2_g17 - x_r2_g14 >= -1
 lin1_3_2_87: p_r2_g87_h84_t3 - x_r2_g87 <= 0
 lin2_3_2_87: p_r2_g87_h84_t3 - x_r2_g84 <= 0
 lin3_3_2_87: p_r2_g87_h84_t3 - x_r2_g87 - x_r2_g84 >= -1
 lin1_3_2_114: p_r2_g114_h111_t3 - x_r2_g114 <= 0
 lin2_3_2_114: p_r2_g114_h111_t3 - x_r2_g111 <= 0
 lin3_3_2_114: p_r2_g114_h111_t3 - x_r2_g114 - x_r2_g111 >= -1
 lin1_3_2_119: p_r2_g119_h116_t3 - x_r2_g119 <= 0
 lin2_3_2_119: p_r2_g119_h116_t3 - x_r2_g116 <= 0
 lin3_3_2_119: p_r2_g119_h116_t3 - x_r2_g119 - x_r2_g116 >= -1
 lin1_3_2_141: p_r2_g141_h138_t3 - x_r2_g141 <= 0
 lin2_3_2_141: p_r2_g141_h138_t3 - x_r2_g138 <= 0
 lin3_3_2_141: p_r2_g141_h138_t3 - x_r2_g141 - x_r2_g138 >= -1
 lin1_3_2_149: p_r2_g149_h146_t3 - x_r2_g149 <= 0
 lin2_3_2_149: p_r2_g149_h146_t3 - x_r2_g146 <= 0
 lin3_3_2_149: p_r2_g149_h146_t3 - x_r2_g149 - x_r2_g146 >= -1
 lin1_3_3_80: p_r3_g80_h77_t3 - x_r3_g80 <= 0
 lin2_3_3_80: p_r3_g80_h77_t3 - x_r3_g77 <= 0
 lin3_3_3_80: p_r3_g80_h77_t3 - x_r3_g80 - x_r3_g77 >= -1
 lin1_3_3_83: p_r3_g83_h80_t3 - x_r3_g83 <= 0
 lin2_3_3_83: p_r3_g83_h80_t3 - x_r3_g80 <= 0
 lin3_3_3_83: p_r3_g83_h80_t3 - x_r3_g83 - x_r3_g80 >= -1
 lin1_3_3_125: p_r3_g125_h122_t3 - x_r3_g125 <= 0
 lin2_3_3_125: p_r3_g125_h122_t3 - x_r3_g122 <= 0
 lin3_3_3_125: p_r3_g125_h122_t3 - x_r3_g125 - x_r3_g122 >= -1
 lin1_3_3_139: p_r3_g139_h136_t3 - x_r3_g139 <= 0
 lin2_3_3_139: p_r3_g139_h136_t3 - x_r3_g136 <= 0
 lin3_3_3_139: p_r3_g139_h136_t3 - x_r3_g139 - x_r3_g136 >= -1
 lin1_3_3_149: p_r3_g149_h146_t3 - x_r3_g149 <= 0
 lin2_3_3_149: p_r3_g149_h146_t3 - x_r3_g146 <= 0
 lin3_3_3_149: p_r3_g149_h146_t3 - x_r3_g149 - x_r3_g146 >= -1
 lin1_3_3_152: p_r3_g152_h149_t3 - x_r3_g152 <= 0
 lin2_3_3_152: p_r3_g152_h149_t3 - x_r3_g149 <= 0
 lin3_3_3_152: p_r3_g152_h149_t3 - x_r3_g152 - x_r3_g149 >= -1
 defect_3: 1 d_3 - 1 x_r0_g6 - 1 x_r0_g16 - 1 x_r0_g23 - 1 x_r0_g35 - 2 x_r0_g39 - 2 x_r0_g40 - 1 x_r0_g46 - 1 x_r0_g49 - 1 x_r0_g54 - 1 x_r0_g66 - 1 x_r0_g73 - 1 x_r0_g95 - 1 x_r0_g101 - 1 x_r0_g110 - 1 x_r0_g115 - 2 x_r0_g116 - 1 x_r0_g117 - 1 x_r0_g125 - 1 x_r0_g128 - 1 x_r0_g139 - 1 x_r0_g140 - 1 x_r0_g156 - 2 x_r0_g162 - 1 x_r0_g163 - 1 x_r1_g0 - 1 x_r1_g28 - 2 x_r1_g29 - 1 x_r1_g35 - 1 x_r1_g36 - 1 x_r1_g42 - 1 x_r1_g43 - 1 x_r1_g46 - 1 x_r1_g71 - 1 x_r1_g76 - 1 x_r1_g77 - 1 x_r1_g78 - 1 x_r1_g91 - 1 x_r1_g92 - 1 x_r1_g98 - 1 x_r1_g99 - 1 x_r1_g104 - 2 x_r1_g116 - 1 x_r1_g126 - 1 x_r1_g130 - 2 x_r1_g135 - 1 x_r1_g157 - 1 x_r1_g160 - 1 x_r1_g165 - 1 x_r2_g7 - 1 x_r2_g17 - 1 x_r2_g27 - 1 x_r2_g29 - 1 x_r2_g33 - 1 x_r2_g34 - 1 x_r2_g51 - 1 x_r2_g57 - 2 x_r2_g61 - 1 x_r2_g63 - 1 x_r2_g75 - 1 x_r2_g80 - 1 x_r2_g85 - 1 x_r2_g87 - 1 x_r2_g91 - 1 x_r2_g93 - 1 x_r2_g112 - 1 x_r2_g116 - 2 x_r2_g118 - 1 x_r2_g119 - 2 x_r2_g125 - 2 x_r2_g133 - 1 x_r2_g139 - 1 x_r2_g149 - 1 x_r2_g151 - 1 x_r2_g161 - 1 x_r2_g166 - 1 x_r3_g4 - 1 x_r3_g6 - 1 x_r3_g12 - 1 x_r3_g21 - 2 x_r3_g23 - 1 x_r3_g27 - 2 x_r3_g29 - 1 x_r3_g31 - 2 x_r3_g35 - 2 x_r3_g44 - 1 x_r3_g49 - 1 x_r3_g63 - 1 x_r3_g77 - 1 x_r3_g83 - 1 x_r3_g84 - 1 x_r3_g89 - 1 x_r3_g97 - 1 x_r3_g107 - 1 x_r3_g108 - 2 x_r3_g115 - 1 x_r3_g122 - 1 x_r3_g124 - 1 x_r3_g125 - 2 x_r3_g131 - 1 x_r3_g132 - 1 x_r3_g139 - 2 x_r3_g141 - 1 x_r3_g146 - 1 x_r3_g160 - 1 p_r0_g16_h13_t3 - 1 p_r0_g47_h44_t3 - 1 p_r0_g49_h46_t3 - 1 p_r0_g50_h47_t3 - 1 p_r0_g77_h74_t3 - 1 p_r0_g115_h112_t3 - 1 p_r0_g128_h125_t3 - 1 p_r0_g135_h132_t3 - 1 p_r0_g139_h136_t3 - 1 p_r0_g140_h137_t3 - 1 p_r1_g0_h164_t3 - 1 p_r1_g19_h16_t3 - 1 p_r1_g38_h35_t3 - 1 p_r1_g45_h42_t3 - 1 p_r1_g46_h43_t3 - 1 p_r1_g92_h89_t3 - 1 p_r1_g94_h91_t3 - 1 p_r1_g101_h98_t3 - 1 p_r1_g104_h101_t3 - 1 p_r1_g131_h128_t3 - 1 p_r1_g160_h157_t3 - 1 p_r2_g17_h14_t3 - 1 p_r2_g87_h84_t3 - 1 p_r2_g114_h111_t3 - 1 p_r2_g119_h116_t3 - 1 p_r2_g141_h138_t3 - 1 p_r2_g149_h146_t3 - 1 p_r3_g80_h77_t3 - 1 p_r3_g83_h80_t3 - 1 p_r3_g125_h122_t3 - 1 p_r3_g139_h136_t3 - 1 p_r3_g149_h146_t3 - 1 p_r3_g152_h149_t3 = -60
 abs_pos_3: d_3 - u_3 <= 0
 abs_neg_3: - d_3 - u_3 <= 0
 max_def_3: u_3 - M <= 0
 cap_3: u_3 <= 1
 lin1_4_0_39: p_r0_g39_h35_t4 - x_r0_g39 <= 0
 lin2_4_0_39: p_r0_g39_h35_t4 - x_r0_g35 <= 0
 lin3_4_0_39: p_r0_g39_h35_t4 - x_r0_g39 - x_r0_g35 >= -1
 lin1_4_0_44: p_r0_g44_h40_t4 - x_r0_g44 <= 0
 lin2_4_0_44: p_r0_g44_h40_t4 - x_r0_g40 <= 0
 lin3_4_0_44: p_r0_g44_h40_t4 - x_r0_g44 - x_r0_g40 >= -1
 lin1_4_0_50: p_r0_g50_h46_t4 - x_r0_g50 <= 0
 lin2_4_0_50: p_r0_g50_h46_t4 - x_r0_g46 <= 0
 lin3_4_0_50: p_r0_g50_h46_t4 - x_r0_g50 - x_r0_g46 >= -1
 lin1_4_0_54: p_r0_g54_h50_t4 - x_r0_g54 <= 0
 lin2_4_0_54: p_r0_g54_h50_t4 - x_r0_g50 <= 0
 lin3_4_0_54: p_r0_g54_h50_t4 - x_r0_g54 - x_r0_g50 >= -1
 lin1_4_0_77: p_r0_g77_h73_t4 - x_r0_g77 <= 0
 lin2_4_0_77: p_r0_g77_h73_t4 - x_r0_g73 <= 0
 lin3_4_0_77: p_r0_g77_h73_t4 - x_r0_g77 - x_r0_g73 >= -1
 lin1_4_0_115: p_r0_g115_h111_t4 - x_r0_g115 <= 0
 lin2_4_0_115: p_r0_g115_h111_t4 - x_r0_g111 <= 0
 lin3_4_0_115: p_r0_g115_h111_t4 - x_r0_g115 - x_r0_g111 >= -1
 lin1_4_0_116: p_r0_g116_h112_t4 - x_r0_g116 <= 0
 lin2_4_0_116: p_r0_g116_h112_t4 - x_r0_g112 <= 0
 lin3_4_0_116: p_r0_g116_h112_t4 - x_r0_g116 - x_r0_g112 >= -1
 lin1_4_0_132: p_r0_g132_h128_t4 - x_r0_g132 <= 0
 lin2_4_0_132: p_r0_g132_h128_t4 - x_r0_g128 <= 0
 lin3_4_0_132: p_r0_g132_h128_t4 - x_r0_g132 - x_r0_g128 >= -1
 lin1_4_0_136: p_r0_g136_h132_t4 - x_r0_g136 <= 0
 lin2_4_0_136: p_r0_g136_h132_t4 - x_r0_g132 <= 0
 lin3_4_0_136: p_r0_g136_h132_t4 - x_r0_g136 - x_r0_g132 >= -1
 lin1_4_0_139: p_r0_g139_h135_t4 - x_r0_g139 <= 0
 lin2_4_0_139: p_r0_g139_h135_t4 - x_r0_g135 <= 0
 lin3_4_0_139: p_r0_g139_h135_t4 - x_r0_g139 - x_r0_g135 >= -1
 lin1_4_0_140: p_r0_g140_h136_t4 - x_r0_g140 <= 0
 lin2_4_0_140: p_r0_g140_h136_t4 - x_r0_g136 <= 0
 lin3_4_0_140: p_r0_g140_h136_t4 - x_r0_g140 - x_r0_g136 >= -1
 lin1_4_0_144: p_r0_g144_h140_t4 - x_r0_g144 <= 0
 lin2_4_0_144: p_r0_g144_h140_t4 - x_r0_g140 <= 0
 lin3_4_0_144: p_r0_g144_h140_t4 - x_r0_g144 - x_r0_g140 >= -1
 lin1_4_1_20: p_r1_g20_h16_t4 - x_r1_g20 <= 0
 lin2_4_1_20: p_r1_g20_h16_t4 - x_r1_g16 <= 0
 lin3_4_1_20: p_r1_g20_h16_t4 - x_r1_g20 - x_r1_g16 >= -1
 lin1_4_1_42: p_r1_g42_h38_t4 - x_r1_g42 <= 0
 lin2_4_1_42: p_r1_g42_h38_t4 - x_r1_g38 <= 0
 lin3_4_1_42: p_r1_g42_h38_t4 - x_r1_g42 - x_r1_g38 >= -1
 lin1_4_1_46: p_r1_g46_h42_t4 - x_r1_g46 <= 0
 lin2_4_1_46: p_r1_g46_h42_t4 - x_r1_g42 <= 0
 lin3_4_1_46: p_r1_g46_h42_t4 - x_r1_g46 - x_r1_g42 >= -1
 lin1_4_1_98: p_r1_g98_h94_t4 - x_r1_g98 <= 0
 lin2_4_1_98: p_r1_g98_h94_t4 - x_r1_g94 <= 0
 lin3_4_1_98: p_r1_g98_h94_t4 - x_r1_g98 - x_r1_g94 >= -1
 lin1_4_1_130: p_r1_g130_h126_t4 - x_r1_g130 <= 0
 lin2_4_1_130: p_r1_g130_h126_t4 - x_r1_g126 <= 0
 lin3_4_1_130: p_r1_g130_h126_t4 - x_r1_g130 - x_r1_g126 >= -1
 lin1_4_1_135: p_r1_g135_h131_t4 - x_r1_g135 <= 0
 lin2_4_1_135: p_r1_g135_h131_t4 - x_r1_g131 <= 0
 lin3_4_1_135: p_r1_g135_h131_t4 - x_r1_g135 - x_r1_g131 >= -1
 lin1_4_1_164: p_r1_g164_h160_t4 - x_r1_g164 <= 0
 lin2_4_1_164: p_r1_g164_h160_t4 - x_r1_g160 <= 0
 lin3_4_1_164: p_r1_g164_h160_t4 - x_r1_g164 - x_r1_g160 >= -1
 lin1_4_2_17: p_r2_g17_h13_t4 - x_r2_g17 <= 0
 lin2_4_2_17: p_r2_g17_h13_t4 - x_r2_g13 <= 0
 lin3_4_2_17: p_r2_g17_h13_t4 - x_r2_g17 - x_r2_g13 >= -1
 lin1_4_2_33: p_r2_g33_h29_t4 - x_r2_g33 <= 0
 lin2_4_2_33: p_r2_g33_h29_t4 - x_r2_g29 <= 0
 lin3_4_2_33: p_r2_g33_h29_t4 - x_r2_g33 - x_r2_g29 >= -1
 lin1_4_2_51: p_r2_g51_h47_t4 - x_r2_g51 <= 0
 lin2_4_2_51: p_r2_g51_h47_t4 - x_r2_g47 <= 0
 lin3_4_2_51: p_r2_g51_h47_t4 - x_r2_g51 - x_r2_g47 >= -1
 lin1_4_2_61: p_r2_g61_h57_t4 - x_r2_g61 <= 0
 lin2_4_2_61: p_r2_g61_h57_t4 - x_r2_g57 <= 0
 lin3_4_2_61: p_r2_g61_h57_t4 - x_r2_g61 - x_r2_g57 >= -1
 lin1_4_2_80: p_r2_g80_h76_t4 - x_r2_g80 <= 0
 lin2_4_2_80: p_r2_g80_h76_t4 - x_r2_g76 <= 0
 lin3_4_2_80: p_r2_g80_h76_t4 - x_r2_g80 - x_r2_g76 >= -1
 lin1_4_2_84: p_r2_g84_h80_t4 - x_r2_g84 <= 0
 lin2_4_2_84: p_r2_g84_h80_t4 - x_r2_g80 <= 0
 lin3_4_2_84: p_r2_g84_h80_t4 - x_r2_g84 - x_r2_g80 >= -1
 lin1_4_2_91: p_r2_g91_h87_t4 - x_r2_g91 <= 0
 lin2_4_2_91: p_r2_g91_h87_t4 - x_r2_g87 <= 0
 lin3_4_2_91: p_r2_g91_h87_t4 - x_r2_g91 - x_r2_g87 >= -1
 lin1_4_2_116: p_r2_g116_h112_t4 - x_r2_g116 <= 0
 lin2_4_2_116: p_r2_g116_h112_t4 - x_r2_g112 <= 0
 lin3_4_2_116: p_r2_g116_h112_t4 - x_r2_g116 - x_r2_g112 >= -1
 lin1_4_2_118: p_r2_g118_h114_t4 - x_r2_g118 <= 0
 lin2_4_2_118: p_r2_g118_h114_t4 - x_r2_g114 <= 0
 lin3_4_2_118: p_r2_g118_h114_t4 - x_r2_g118 - x_r2_g114 >= -1
 lin1_4_3_27: p_r3_g27_h23_t4 - x_r3_g27 <= 0
 lin2_4_3_27: p_r3_g27_h23_t4 - x_r3_g23 <= 0
 lin3_4_3_27: p_r3_g27_h23_t4 - x_r3_g27 - x_r3_g23 >= -1
 lin1_4_3_31: p_r3_g31_h27_t4 - x_r3_g31 <= 0
 lin2_4_3_31: p_r3_g31_h27_t4 - x_r3_g27 <= 0
 lin3_4_3_31: p_r3_g31_h27_t4 - x_r3_g31 - x_r3_g27 >= -1
 lin1_4_3_35: p_r3_g35_h31_t4 - x_r3_g35 <= 0
 lin2_4_3_35: p_r3_g35_h31_t4 - x_r3_g31 <= 0
 lin3_4_3_35: p_r3_g35_h31_t4 - x_r3_g35 - x_r3_g31 >= -1
 lin1_4_3_53: p_r3_g53_h49_t4 - x_r3_g53 <= 0
 lin2_4_3_53: p_r3_g53_h49_t4 - x_r3_g49 <= 0
 lin3_4_3_53: p_r3_g53_h49_t4 - x_r3_g53 - x_r3_g49 >= -1
 lin1_4_3_84: p_r3_g84_h80_t4 - x_r3_g84 <= 0
 lin2_4_3_84: p_r3_g84_h80_t4 - x_r3_g80 <= 0
 lin3_4_3_84: p_r3_g84_h80_t4 - x_r3_g84 - x_r3_g80 >= -1
 lin1_4_3_136: p_r3_g136_h132_t4 - x_r3_g136 <= 0
 lin2_4_3_136: p_r3_g136_h132_t4 - x_r3_g132 <= 0
 lin3_4_3_136: p_r3_g136_h132_t4 - x_r3_g136 - x_r3_g132 >= -1
 lin1_4_3_150: p_r3_g150_h146_t4 - x_r3_g150 <= 0
 lin2_4_3_150: p_r3_g150_h146_t4 - x_r3_g146 <= 0
 lin3_4_3_150: p_r3_g150_h146_t4 - x_r3_g150 - x_r3_g146 >= -1
 defect_4: 1 d_4 - 2 x_r0_g16 - 1 x_r0_g23 - 1 x_r0_g39 - 1 x_r0_g40 - 1 x_r0_g44 - 1 x_r0_g46 - 2 x_r0_g47 - 1 x_r0_g49 - 1 x_r0_g54 - 2 x_r0_g66 - 1 x_r0_g74 - 1 x_r0_g110 - 1 x_r0_g115 - 1 x_r0_g116 - 1 x_r0_g117 - 1 x_r0_g135 - 1 x_r0_g139 - 2 x_r0_g156 - 1 x_r0_g162 - 1 x_r0_g163 - 1 x_r1_g0 - 1 x_r1_g19 - 1 x_r1_g27 - 1 x_r1_g28 - 2 x_r1_g35 - 2 x_r1_g36 - 1 x_r1_g43 - 1 x_r1_g44 - 1 x_r1_g45 - 1 x_r1_g58 - 1 x_r1_g64 - 1 x_r1_g76 - 1 x_r1_g77 - 1 x_r1_g78 - 2 x_r1_g91 - 2 x_r1_g92 - 1 x_r1_g94 - 2 x_r1_g99 - 2 x_r1_g104 - 1 x_r1_g116 - 2 x_r1_g128 - 1 x_r1_g131 - 1 x_r1_g160 - 1 x_r1_g164 - 1 x_r2_g14 - 1 x_r2_g17 - 1 x_r2_g27 - 1 x_r2_g29 - 1 x_r2_g34 - 2 x_r2_g35 - 1 x_r2_g47 - 1 x_r2_g61 - 1 x_r2_g87 - 2 x_r2_g106 - 1 x_r2_g111 - 1 x_r2_g114 - 1 x_r2_g116 - 1 x_r2_g118 - 1 x_r2_g119 - 2 x_r2_g125 - 2 x_r2_g133 - 1 x_r2_g138 - 1 x_r2_g141 - 1 x_r2_g146 - 1 x_r2_g149 - 2 x_r2_g161 - 1 x_r3_g4 - 1 x_r3_g6 - 1 x_r3_g12 - 1 x_r3_g21 - 1 x_r3_g23 - 1 x_r3_g35 - 1 x_r3_g44 - 1 x_r3_g49 - 1 x_r3_g55 - 1 x_r3_g61 - 1 x_r3_g63 - 1 x_r3_g77 - 1 x_r3_g80 - 2 x_r3_g82 - 1 x_r3_g107 - 1 x_r3_g108 - 2 x_r3_g115 - 1 x_r3_g122 - 1 x_r3_g124 - 1 x_r3_g125 - 1 x_r3_g131 - 1 x_r3_g132 - 1 x_r3_g136 - 1 x_r3_g139 - 2 x_r3_g141 - 1 x_r3_g146 - 1 x_r3_g149 - 1 x_r3_g150 - 1 x_r3_g152 - 1 p_r0_g39_h35_t4 - 1 p_r0_g44_h40_t4 - 1 p_r0_g50_h46_t4 - 1 p_r0_g54_h50_t4 - 1 p_r0_g77_h73_t4 - 1 p_r0_g115_h111_t4 - 1 p_r0_g116_h112_t4 - 1 p_r0_g132_h128_t4 - 1 p_r0_g136_h132_t4 - 1 p_r0_g139_h135_t4 - 1 p_r0_g140_h136_t4 - 1 p_r0_g144_h140_t4 - 1 p_r1_g20_h16_t4 - 1 p_r1_g42_h38_t4 - 1 p_r1_g46_h42_t4 - 1 p_r1_g98_h94_t4 - 1 p_r1_g130_h126_t4 - 1 p_r1_g135_h131_t4 - 1 p_r1_g164_h160_t4 - 1 p_r2_g17_h13_t4 - 1 p_r2_g33_h29_t4 - 1 p_r2_g51_h47_t4 - 1 p_r2_g61_h57_t4 - 1 p_r2_g80_h76_t4 - 1 p_r2_g84_h80_t4 - 1 p_r2_g91_h87_t4 - 1 p_r2_g116_h112_t4 - 1 p_r2_g118_h114_t4 - 1 p_r3_g27_h23_t4 - 1 p_r3_g31_h27_t4 - 1 p_r3_g35_h31_t4 - 1 p_r3_g53_h49_t4 - 1 p_r3_g84_h80_t4 - 1 p_r3_g136_h132_t4 - 1 p_r3_g150_h146_t4 = -54
 abs_pos_4: d_4 - u_4 <= 0
 abs_neg_4: - d_4 - u_4 <= 0
 max_def_4: u_4 - M <= 0
 cap_4: u_4 <= 1
 lin1_6_0_46: p_r0_g46_h40_t6 - x_r0_g46 <= 0
 lin2_6_0_46: p_r0_g46_h40_t6 - x_r0_g40 <= 0
 lin3_6_0_46: p_r0_g46_h40_t6 - x_r0_g46 - x_r0_g40 >= -1
 lin1_6_0_50: p_r0_g50_h44_t6 - x_r0_g50 <= 0
 lin2_6_0_50: p_r0_g50_h44_t6 - x_r0_g44 <= 0
 lin3_6_0_50: p_r0_g50_h44_t6 - x_r0_g50 - x_r0_g44 >= -1
 lin1_6_0_101: p_r0_g101_h95_t6 - x_r0_g101 <= 0
 lin2_6_0_101: p_r0_g101_h95_t6 - x_r0_g95 <= 0
 lin3_6_0_101: p_r0_g101_h95_t6 - x_r0_g101 - x_r0_g95 >= -1
 lin1_6_0_116: p_r0_g116_h110_t6 - x_r0_g116 <= 0
 lin2_6_0_116: p_r0_g116_h110_t6 - x_r0_g110 <= 0
 lin3_6_0_116: p_r0_g116_h110_t6 - x_r0_g116 - x_r0_g110 >= -1
 lin1_6_0_117: p_r0_g117_h111_t6 - x_r0_g117 <= 0
 lin2_6_0_117: p_r0_g117_h111_t6 - x_r0_g111 <= 0
 lin3_6_0_117: p_r0_g117_h111_t6 - x_r0_g117 - x_r0_g111 >= -1
 lin1_6_0_162: p_r0_g162_h156_t6 - x_r0_g162 <= 0
 lin2_6_0_162: p_r0_g162_h156_t6 - x_r0_g156 <= 0
 lin3_6_0_162: p_r0_g162_h156_t6 - x_r0_g162 - x_r0_g156 >= -1
 lin1_6_1_35: p_r1_g35_h29_t6 - x_r1_g35 <= 0
 lin2_6_1_35: p_r1_g35_h29_t6 - x_r1_g29 <= 0
 lin3_6_1_35: p_r1_g35_h29_t6 - x_r1_g35 - x_r1_g29 >= -1
 lin1_6_1_42: p_r1_g42_h36_t6 - x_r1_g42 <= 0
 lin2_6_1_42: p_r1_g42_h36_t6 - x_r1_g36 <= 0
 lin3_6_1_42: p_r1_g42_h36_t6 - x_r1_g42 - x_r1_g36 >= -1
 lin1_6_1_44: p_r1_g44_h38_t6 - x_r1_g44 <= 0
 lin2_6_1_44: p_r1_g44_h38_t6 - x_r1_g38 <= 0
 lin3_6_1_44: p_r1_g44_h38_t6 - x_r1_g44 - x_r1_g38 >= -1
 lin1_6_1_64: p_r1_g64_h58_t6 - x_r1_g64 <= 0
 lin2_6_1_64: p_r1_g64_h58_t6 - x_r1_g58 <= 0
 lin3_6_1_64: p_r1_g64_h58_t6 - x_r1_g64 - x_r1_g58 >= -1
 lin1_6_1_77: p_r1_g77_h71_t6 - x_r1_g77 <= 0
 lin2_6_1_77: p_r1_g77_h71_t6 - x_r1_g71 <= 0
 lin3_6_1_77: p_r1_g77_h71_t6 - x_r1_g77 - x_r1_g71 >= -1
 lin1_6_1_98: p_r1_g98_h92_t6 - x_r1_g98 <= 0
 lin2_6_1_98: p_r1_g98_h92_t6 - x_r1_g92 <= 0
 lin3_6_1_98: p_r1_g98_h92_t6 - x_r1_g98 - x_r1_g92 >= -1
 lin1_6_1_104: p_r1_g104_h98_t6 - x_r1_g104 <= 0
 lin2_6_1_104: p_r1_g104_h98_t6 - x_r1_g98 <= 0
 lin3_6_1_104: p_r1_g104_h98_t6 - x_r1_g104 - x_r1_g98 >= -1
 lin1_6_2_13: p_r2_g13_h7_t6 - x_r2_g13 <= 0
 lin2_6_2_13: p_r2_g13_h7_t6 - x_r2_g7 <= 0
 lin3_6_2_13: p_r2_g13_h7_t6 - x_r2_g13 - x_r2_g7 >= -1
 lin1_6_2_33: p_r2_g33_h27_t6 - x_r2_g33 <= 0
 lin2_6_2_33: p_r2_g33_h27_t6 - x_r2_g27 <= 0
 lin3_6_2_33: p_r2_g33_h27_t6 - x_r2_g33 - x_r2_g27 >= -1
 lin1_6_2_35: p_r2_g35_h29_t6 - x_r2_g35 <= 0
 lin2_6_2_35: p_r2_g35_h29_t6 - x_r2_g29 <= 0
 lin3_6_2_35: p_r2_g35_h29_t6 - x_r2_g35 - x_r2_g29 >= -1
 lin1_6_2_41: p_r2_g41_h35_t6 - x_r2_g41 <= 0
 lin2_6_2_41: p_r2_g41_h35_t6 - x_r2_g35 <= 0
 lin3_6_2_41: p_r2_g41_h35_t6 - x_r2_g41 - x_r2_g35 >= -1
 lin1_6_2_47: p_r2_g47_h41_t6 - x_r2_g47 <= 0
 lin2_6_2_47: p_r2_g47_h41_t6 - x_r2_g41 <= 0
 lin3_6_2_47: p_r2_g47_h41_t6 - x_r2_g47 - x_r2_g41 >= -1
 lin1_6_2_57: p_r2_g57_h51_t6 - x_r2_g57 <= 0
 lin2_6_2_57: p_r2_g57_h51_t6 - x_r2_g51 <= 0
 lin3_6_2_57: p_r2_g57_h51_t6 - x_r2_g57 - x_r2_g51 >= -1
 lin1_6_2_63: p_r2_g63_h57_t6 - x_r2_g63 <= 0
 lin2_6_2_63: p_r2_g63_h57_t6 - x_r2_g57 <= 0
 lin3_6_2_63: p_r2_g63_h57_t6 - x_r2_g63 - x_r2_g57 >= -1
 lin1_6_2_91: p_r2_g91_h85_t6 - x_r2_g91 <= 0
 lin2_6_2_91: p_r2_g91_h85_t6 - x_r2_g85 <= 0
 lin3_6_2_91: p_r2_g91_h85_t6 - x_r2_g91 - x_r2_g85 >= -1
 lin1_6_2_93: p_r2_g93_h87_t6 - x_r2_g93 <= 0
 lin2_6_2_93: p_r2_g93_h87_t6 - x_r2_g87 <= 0
 lin3_6_2_93: p_r2_g93_h87_t6 - x_r2_g93 - x_r2_g87 >= -1
 lin1_6_2_112: p_r2_g112_h106_t6 - x_r2_g112 <= 0
 lin2_6_2_112: p_r2_g112_h106_t6 - x_r2_g106 <= 0
 lin3_6_2_112: p_r2_g112_h106_t6 - x_r2_g112 - x_r2_g106 >= -1
 lin1_6_2_118: p_r2_g118_h112_t6 - x_r2_g118 <= 0
 lin2_6_2_118: p_r2_g118_h112_t6 - x_r2_g112 <= 0
 lin3_6_2_118: p_r2_g118_h112_t6 - x_r2_g118 - x_r2_g112 >= -1
 lin1_6_2_125: p_r2_g125_h119_t6 - x_r2_g125 <= 0
 lin2_6_2_125: p_r2_g125_h119_t6 - x_r2_g119 <= 0
 lin3_6_2_125: p_r2_g125_h119_t6 - x_r2_g125 - x_r2_g119 >= -1
 lin1_6_2_139: p_r2_g139_h133_t6 - x_r2_g139 <= 0
 lin2_6_2_139: p_r2_g139_h133_t6 - x_r2_g133 <= 0
 lin3_6_2_139: p_r2_g139_h133_t6 - x_r2_g139 - x_r2_g133 >= -1
 lin1_6_3_12: p_r3_g12_h6_t6 - x_r3_g12 <= 0
 lin2_6_3_12: p_r3_g12_h6_t6 - x_r3_g6 <= 0
 lin3_6_3_12: p_r3_g12_h6_t6 - x_r3_g12 - x_r3_g6 >= -1
 lin1_6_3_27: p_r3_g27_h21_t6 - x_r3_g27 <= 0
 lin2_6_3_27: p_r3_g27_h21_t6 - x_r3_g21 <= 0
 lin3_6_3_27: p_r3_g27_h21_t6 - x_r3_g27 - x_r3_g21 >= -1
 lin1_6_3_29: p_r3_g29_h23_t6 - x_r3_g29 <= 0
 lin2_6_3_29: p_r3_g29_h23_t6 - x_r3_g23 <= 0
 lin3_6_3_29: p_r3_g29_h23_t6 - x_r3_g29 - x_r3_g23 >= -1
 lin1_6_3_35: p_r3_g35_h29_t6 - x_r3_g35 <= 0
 lin2_6_3_35: p_r3_g35_h29_t6 - x_r3_g29 <= 0
 lin3_6_3_35: p_r3_g35_h29_t6 - x_r3_g35 - x_r3_g29 >= -1
 lin1_6_3_55: p_r3_g55_h49_t6 - x_r3_g55 <= 0
 lin2_6_3_55: p_r3_g55_h49_t6 - x_r3_g49 <= 0
 lin3_6_3_55: p_r3_g55_h49_t6 - x_r3_g55 - x_r3_g49 >= -1
 lin1_6_3_61: p_r3_g61_h55_t6 - x_r3_g61 <= 0
 lin2_6_3_61: p_r3_g61_h55_t6 - x_r3_g55 <= 0
 lin3_6_3_61: p_r3_g61_h55_t6 - x_r3_g61 - x_r3_g55 >= -1
 lin1_6_3_83: p_r3_g83_h77_t6 - x_r3_g83 <= 0
 lin2_6_3_83: p_r3_g83_h77_t6 - x_r3_g77 <= 0
 lin3_6_3_83: p_r3_g83_h77_t6 - x_r3_g83 - x_r3_g77 >= -1
 lin1_6_3_89: p_r3_g89_h83_t6 - x_r3_g89 <= 0
 lin2_6_3_89: p_r3_g89_h83_t6 - x_r3_g83 <= 0
 lin3_6_3_89: p_r3_g89_h83_t6 - x_r3_g89 - x_r3_g83 >= -1
 lin1_6_3_131: p_r3_g131_h125_t6 - x_r3_g131 <= 0
 lin2_6_3_131: p_r3_g131_h125_t6 - x_r3_g125 <= 0
 lin3_6_3_131: p_r3_g131_h125_t6 - x_r3_g131 - x_r3_g125 >= -1
 lin1_6_3_152: p_r3_g152_h146_t6 - x_r3_g152 <= 0
 lin2_6_3_152: p_r3_g152_h146_t6 - x_r3_g146 <= 0
 lin3_6_3_152: p_r3_g152_h146_t6 - x_r3_g152 - x_r3_g146 >= -1
 defect_6: 1 d_6 - 1 x_r0_g5 - 1 x_r0_g6 - 2 x_r0_g13 - 1 x_r0_g25 - 1 x_r0_g39 - 1 x_r0_g40 - 1 x_r0_g44 - 1 x_r0_g46 - 2 x_r0_g49 - 1 x_r0_g54 - 1 x_r0_g73 - 1 x_r0_g74 - 2 x_r0_g112 - 1 x_r0_g116 - 1 x_r0_g117 - 2 x_r0_g125 - 1 x_r0_g128 - 1 x_r0_g132 - 1 x_r0_g136 - 2 x_r0_g137 - 1 x_r0_g140 - 1 x_r0_g163 - 1 x_r1_g16 - 1 x_r1_g20 - 1 x_r1_g38 - 2 x_r1_g43 - 1 x_r1_g45 - 1 x_r1_g46 - 1 x_r1_g64 - 1 x_r1_g71 - 2 x_r1_g76 - 1 x_r1_g78 - 1 x_r1_g89 - 2 x_r1_g94 - 2 x_r1_g101 - 1 x_r1_g114 - 1 x_r1_g126 - 1 x_r1_g130 - 1 x_r1_g135 - 1 x_r1_g157 - 2 x_r1_g160 - 1 x_r1_g164 - 1 x_r1_g165 - 1 x_r2_g7 - 1 x_r2_g14 - 1 x_r2_g27 - 1 x_r2_g33 - 1 x_r2_g34 - 1 x_r2_g76 - 2 x_r2_g80 - 2 x_r2_g84 - 1 x_r2_g111 - 1 x_r2_g114 - 2 x_r2_g116 - 1 x_r2_g119 - 1 x_r2_g133 - 1 x_r2_g138 - 2 x_r2_g146 - 1 x_r2_g151 - 1 x_r2_g161 - 1 x_r2_g166 - 1 x_r3_g12 - 1 x_r3_g23 - 1 x_r3_g31 - 1 x_r3_g35 - 1 x_r3_g44 - 1 x_r3_g49 - 2 x_r3_g53 - 2 x_r3_g80 - 1 x_r3_g82 - 1 x_r3_g84 - 1 x_r3_g122 - 1 x_r3_g124 - 1 x_r3_g125 - 1 x_r3_g131 - 1 x_r3_g132 - 1 x_r3_g136 - 1 x_r3_g139 - 1 x_r3_g146 - 1 x_r3_g149 - 1 x_r3_g150 - 2 x_r3_g160 - 1 p_r0_g46_h40_t6 - 1 p_r0_g50_h44_t6 - 1 p_r0_g101_h95_t6 - 1 p_r0_g116_h110_t6 - 1 p_r0_g117_h111_t6 - 1 p_r0_g162_h156_t6 - 1 p_r1_g35_h29_t6 - 1 p_r1_g42_h36_t6 - 1 p_r1_g44_h38_t6 - 1 p_r1_g64_h58_t6 - 1 p_r1_g77_h71_t6 - 1 p_r1_g98_h92_t6 - 1 p_r1_g104_h98_t6 - 1 p_r2_g13_h7_t6 - 1 p_r2_g33_h27_t6 - 1 p_r2_g35_h29_t6 - 1 p_r2_g41_h35_t6 - 1 p_r2_g47_h41_t6 - 1 p_r2_g57_h51_t6 - 1 p_r2_g63_h57_t6 - 1 p_r2_g91_h85_t6 - 1 p_r2_g93_h87_t6 - 1 p_r2_g112_h106_t6 - 1 p_r2_g118_h112_t6 - 1 p_r2_g125_h119_t6 - 1 p_r2_g139_h133_t6 - 1 p_r3_g12_h6_t6 - 1 p_r3_g27_h21_t6 - 1 p_r3_g29_h23_t6 - 1 p_r3_g35_h29_t6 - 1 p_r3_g55_h49_t6 - 1 p_r3_g61_h55_t6 - 1 p_r3_g83_h77_t6 - 1 p_r3_g89_h83_t6 - 1 p_r3_g131_h125_t6 - 1 p_r3_g152_h146_t6 = -66
 abs_pos_6: d_6 - u_6 <= 0
 abs_neg_6: - d_6 - u_6 <= 0
 max_def_6: u_6 - M <= 0
 cap_6: u_6 <= 1
 lin1_8_0_13: p_r0_g13_h5_t8 - x_r0_g13 <= 0
 lin2_8_0_13: p_r0_g13_h5_t8 - x_r0_g5 <= 0
 lin3_8_0_13: p_r0_g13_h5_t8 - x_r0_g13 - x_r0_g5 >= -1
 lin1_8_0_47: p_r0_g47_h39_t8 - x_r0_g47 <= 0
 lin2_8_0_47: p_r0_g47_h39_t8 - x_r0_g39 <= 0
 lin3_8_0_47: p_r0_g47_h39_t8 - x_r0_g47 - x_r0_g39 >= -1
 lin1_8_0_54: p_r0_g54_h46_t8 - x_r0_g54 <= 0
 lin2_8_0_54: p_r0_g54_h46_t8 - x_r0_g46 <= 0
 lin3_8_0_54: p_r0_g54_h46_t8 - x_r0_g54 - x_r0_g46 >= -1
 lin1_8_0_74: p_r0_g74_h66_t8 - x_r0_g74 <= 0
 lin2_8_0_74: p_r0_g74_h66_t8 - x_r0_g66 <= 0
 lin3_8_0_74: p_r0_g74_h66_t8 - x_r0_g74 - x_r0_g66 >= -1
 lin1_8_0_125: p_r0_g125_h117_t8 - x_r0_g125 <= 0
 lin2_8_0_125: p_r0_g125_h117_t8 - x_r0_g117 <= 0
 lin3_8_0_125: p_r0_g125_h117_t8 - x_r0_g125 - x_r0_g117 >= -1
 lin1_8_0_136: p_r0_g136_h128_t8 - x_r0_g136 <= 0
 lin2_8_0_136: p_r0_g136_h128_t8 - x_r0_g128 <= 0
 lin3_8_0_136: p_r0_g136_h128_t8 - x_r0_g136 - x_r0_g128 >= -1
 lin1_8_0_140: p_r0_g140_h132_t8 - x_r0_g140 <= 0
 lin2_8_0_140: p_r0_g140_h132_t8 - x_r0_g132 <= 0
 lin3_8_0_140: p_r0_g140_h132_t8 - x_r0_g140 - x_r0_g132 >= -1
 lin1_8_0_144: p_r0_g144_h136_t8 - x_r0_g144 <= 0
 lin2_8_0_144: p_r0_g144_h136_t8 - x_r0_g136 <= 0
 lin3_8_0_144: p_r0_g144_h136_t8 - x_r0_g144 - x_r0_g136 >= -1
 lin1_8_1_27: p_r1_g27_h19_t8 - x_r1_g27 <= 0
 lin2_8_1_27: p_r1_g27_h19_t8 - x_r1_g19 <= 0
 lin3_8_1_27: p_r1_g27_h19_t8 - x_r1_g27 - x_r1_g19 >= -1
 lin1_8_1_28: p_r1_g28_h20_t8 - x_r1_g28 <= 0
 lin2_8_1_28: p_r1_g28_h20_t8 - x_r1_g20 <= 0
 lin3_8_1_28: p_r1_g28_h20_t8 - x_r1_g28 - x_r1_g20 >= -1
 lin1_8_1_35: p_r1_g35_h27_t8 - x_r1_g35 <= 0
 lin2_8_1_35: p_r1_g35_h27_t8 - x_r1_g27 <= 0
 lin3_8_1_35: p_r1_g35_h27_t8 - x_r1_g35 - x_r1_g27 >= -1
 lin1_8_1_36: p_r1_g36_h28_t8 - x_r1_g36 <= 0
 lin2_8_1_36: p_r1_g36_h28_t8 - x_r1_g28 <= 0
 lin3_8_1_36: p_r1_g36_h28_t8 - x_r1_g36 - x_r1_g28 >= -1
 lin1_8_1_43: p_r1_g43_h35_t8 - x_r1_g43 <= 0
 lin2_8_1_43: p_r1_g43_h35_t8 - x_r1_g35 <= 0
 lin3_8_1_43: p_r1_g43_h35_t8 - x_r1_g43 - x_r1_g35 >= -1
 lin1_8_1_44: p_r1_g44_h36_t8 - x_r1_g44 <= 0
 lin2_8_1_44: p_r1_g44_h36_t8 - x_r1_g36 <= 0
 lin3_8_1_44: p_r1_g44_h36_t8 - x_r1_g44 - x_r1_g36 >= -1
 lin1_8_1_46: p_r1_g46_h38_t8 - x_r1_g46 <= 0
 lin2_8_1_46: p_r1_g46_h38_t8 - x_r1_g38 <= 0
 lin3_8_1_46: p_r1_g46_h38_t8 - x_r1_g46 - x_r1_g38 >= -1
 lin1_8_1_99: p_r1_g99_h91_t8 - x_r1_g99 <= 0
 lin2_8_1_99: p_r1_g99_h91_t8 - x_r1_g91 <= 0
 lin3_8_1_99: p_r1_g99_h91_t8 - x_r1_g99 - x_r1_g91 >= -1
 lin1_8_1_165: p_r1_g165_h157_t8 - x_r1_g165 <= 0
 lin2_8_1_165: p_r1_g165_h157_t8 - x_r1_g157 <= 0
 lin3_8_1_165: p_r1_g165_h157_t8 - x_r1_g165 - x_r1_g157 >= -1
 lin1_8_2_7: p_r2_g7_h166_t8 - x_r2_g7 <= 0
 lin2_8_2_7: p_r2_g7_h166_t8 - x_r2_g166 <= 0
 lin3_8_2_7: p_r2_g7_h166_t8 - x_r2_g7 - x_r2_g166 >= -1
 lin1_8_2_35: p_r2_g35_h27_t8 - x_r2_g35 <= 0
 lin2_8_2_35: p_r2_g35_h27_t8 - x_r2_g27 <= 0
 lin3_8_2_35: p_r2_g35_h27_t8 - x_r2_g35 - x_r2_g27 >= -1
 lin1_8_2_41: p_r2_g41_h33_t8 - x_r2_g41 <= 0
 lin2_8_2_41: p_r2_g41_h33_t8 - x_r2_g33 <= 0
 lin3_8_2_41: p_r2_g41_h33_t8 - x_r2_g41 - x_r2_g33 >= -1
 lin1_8_2_84: p_r2_g84_h76_t8 - x_r2_g84 <= 0
 lin2_8_2_84: p_r2_g84_h76_t8 - x_r2_g76 <= 0
 lin3_8_2_84: p_r2_g84_h76_t8 - x_r2_g84 - x_r2_g76 >= -1
 lin1_8_2_93: p_r2_g93_h85_t8 - x_r2_g93 <= 0
 lin2_8_2_93: p_r2_g93_h85_t8 - x_r2_g85 <= 0
 lin3_8_2_93: p_r2_g93_h85_t8 - x_r2_g93 - x_r2_g85 >= -1
 lin1_8_2_114: p_r2_g114_h106_t8 - x_r2_g114 <= 0
 lin2_8_2_114: p_r2_g114_h106_t8 - x_r2_g106 <= 0
 lin3_8_2_114: p_r2_g114_h106_t8 - x_r2_g114 - x_r2_g106 >= -1
 lin1_8_2_119: p_r2_g119_h111_t8 - x_r2_g119 <= 0
 lin2_8_2_119: p_r2_g119_h111_t8 - x_r2_g111 <= 0
 lin3_8_2_119: p_r2_g119_h111_t8 - x_r2_g119 - x_r2_g111 >= -1
 lin1_8_2_133: p_r2_g133_h125_t8 - x_r2_g133 <= 0
 lin2_8_2_133: p_r2_g133_h125_t8 - x_r2_g125 <= 0
 lin3_8_2_133: p_r2_g133_h125_t8 - x_r2_g133 - x_r2_g125 >= -1
 lin1_8_2_141: p_r2_g141_h133_t8 - x_r2_g141 <= 0
 lin2_8_2_141: p_r2_g141_h133_t8 - x_r2_g133 <= 0
 lin3_8_2_141: p_r2_g141_h133_t8 - x_r2_g141 - x_r2_g133 >= -1
 lin1_8_2_146: p_r2_g146_h138_t8 - x_r2_g146 <= 0
 lin2_8_2_146: p_r2_g146_h138_t8 - x_r2_g138 <= 0
 lin3_8_2_146: p_r2_g146_h138_t8 - x_r2_g146 - x_r2_g138 >= -1
 lin1_8_2_149: p_r2_g149_h141_t8 - x_r2_g149 <= 0
 lin2_8_2_149: p_r2_g149_h141_t8 - x_r2_g141 <= 0
 lin3_8_2_149: p_r2_g149_h141_t8 - x_r2_g149 - x_r2_g141 >= -1
 lin1_8_3_12: p_r3_g12_h4_t8 - x_r3_g12 <= 0
 lin2_8_3_12: p_r3_g12_h4_t8 - x_r3_g4 <= 0
 lin3_8_3_12: p_r3_g12_h4_t8 - x_r3_g12 - x_r3_g4 >= -1
 lin1_8_3_29: p_r3_g29_h21_t8 - x_r3_g29 <= 0
 lin2_8_3_29: p_r3_g29_h21_t8 - x_r3_g21 <= 0
 lin3_8_3_29: p_r3_g29_h21_t8 - x_r3_g29 - x_r3_g21 >= -1
 lin1_8_3_31: p_r3_g31_h23_t8 - x_r3_g31 <= 0
 lin2_8_3_31: p_r3_g31_h23_t8 - x_r3_g23 <= 0
 lin3_8_3_31: p_r3_g31_h23_t8 - x_r3_g31 - x_r3_g23 >= -1
 lin1_8_3_35: p_r3_g35_h27_t8 - x_r3_g35 <= 0
 lin2_8_3_35: p_r3_g35_h27_t8 - x_r3_g27 <= 0
 lin3_8_3_35: p_r3_g35_h27_t8 - x_r3_g35 - x_r3_g27 >= -1
 lin1_8_3_61: p_r3_g61_h53_t8 - x_r3_g61 <= 0
 lin2_8_3_61: p_r3_g61_h53_t8 - x_r3_g53 <= 0
 lin3_8_3_61: p_r3_g61_h53_t8 - x_r3_g61 - x_r3_g53 >= -1
 lin1_8_3_63: p_r3_g63_h55_t8 - x_r3_g63 <= 0
 lin2_8_3_63: p_r3_g63_h55_t8 - x_r3_g55 <= 0
 lin3_8_3_63: p_r3_g63_h55_t8 - x_r3_g63 - x_r3_g55 >= -1
 lin1_8_3_97: p_r3_g97_h89_t8 - x_r3_g97 <= 0
 lin2_8_3_97: p_r3_g97_h89_t8 - x_r3_g89 <= 0
 lin3_8_3_97: p_r3_g97_h89_t8 - x_r3_g97 - x_r3_g89 >= -1
 lin1_8_3_107: p_r3_g107_h99_t8 - x_r3_g107 <= 0
 lin2_8_3_107: p_r3_g107_h99_t8 - x_r3_g99 <= 0
 lin3_8_3_107: p_r3_g107_h99_t8 - x_r3_g107 - x_r3_g99 >= -1
 lin1_8_3_115: p_r3_g115_h107_t8 - x_r3_g115 <= 0
 lin2_8_3_115: p_r3_g115_h107_t8 - x_r3_g107 <= 0
 lin3_8_3_115: p_r3_g115_h107_t8 - x_r3_g115 - x_r3_g107 >= -1
 lin1_8_3_132: p_r3_g132_h124_t8 - x_r3_g132 <= 0
 lin2_8_3_132: p_r3_g132_h124_t8 - x_r3_g124 <= 0
 lin3_8_3_132: p_r3_g132_h124_t8 - x_r3_g132 - x_r3_g124 >= -1
 lin1_8_3_139: p_r3_g139_h131_t8 - x_r3_g139 <= 0
 lin2_8_3_139: p_r3_g139_h131_t8 - x_r3_g131 <= 0
 lin3_8_3_139: p_r3_g139_h131_t8 - x_r3_g139 - x_r3_g131 >= -1
 lin1_8_3_149: p_r3_g149_h141_t8 - x_r3_g149 <= 0
 lin2_8_3_149: p_r3_g149_h141_t8 - x_r3_g141 <= 0
 lin3_8_3_149: p_r3_g149_h141_t8 - x_r3_g149 - x_r3_g141 >= -1
 lin1_8_3_160: p_r3_g160_h152_t8 - x_r3_g160 <= 0
 lin2_8_3_160: p_r3_g160_h152_t8 - x_r3_g152 <= 0
 lin3_8_3_160: p_r3_g160_h152_t8 - x_r3_g160 - x_r3_g152 >= -1
 defect_8: 1 d_8 - 2 x_r0_g6 - 1 x_r0_g23 - 1 x_r0_g35 - 1 x_r0_g40 - 2 x_r0_g44 - 1 x_r0_g46 - 1 x_r0_g47 - 2 x_r0_g50 - 1 x_r0_g54 - 1 x_r0_g66 - 1 x_r0_g73 - 1 x_r0_g95 - 2 x_r0_g110 - 2 x_r0_g111 - 1 x_r0_g112 - 1 x_r0_g115 - 1 x_r0_g128 - 2 x_r0_g135 - 1 x_r0_g139 - 1 x_r0_g144 - 1 x_r0_g162 - 1 x_r0_g163 - 1 x_r1_g0 - 1 x_r1_g19 - 1 x_r1_g29 - 2 x_r1_g45 - 1 x_r1_g58 - 1 x_r1_g64 - 1 x_r1_g71 - 2 x_r1_g76 - 1 x_r1_g77 - 1 x_r1_g78 - 1 x_r1_g89 - 2 x_r1_g92 - 1 x_r1_g98 - 1 x_r1_g99 - 1 x_r1_g101 - 2 x_r1_g104 - 2 x_r1_g116 - 1 x_r1_g130 - 1 x_r1_g131 - 1 x_r1_g135 - 1 x_r1_g160 - 1 x_r1_g164 - 1 x_r2_g13 - 1 x_r2_g17 - 1 x_r2_g29 - 1 x_r2_g33 - 1 x_r2_g34 - 1 x_r2_g35 - 1 x_r2_g41 - 1 x_r2_g47 - 1 x_r2_g51 - 2 x_r2_g57 - 1 x_r2_g75 - 1 x_r2_g76 - 1 x_r2_g91 - 1 x_r2_g93 - 1 x_r2_g106 - 2 x_r2_g112 - 1 x_r2_g114 - 2 x_r2_g118 - 1 x_r2_g119 - 1 x_r2_g138 - 1 x_r2_g149 - 1 x_r2_g161 - 1 x_r2_g166 - 1 x_r3_g4 - 1 x_r3_g12 - 1 x_r3_g21 - 1 x_r3_g27 - 1 x_r3_g29 - 1 x_r3_g31 - 1 x_r3_g35 - 1 x_r3_g44 - 1 x_r3_g49 - 1 x_r3_g53 - 2 x_r3_g54 - 1 x_r3_g55 - 1 x_r3_g82 - 1 x_r3_g83 - 1 x_r3_g84 - 1 x_r3_g89 - 1 x_r3_g115 - 1 x_r3_g131 - 1 x_r3_g132 - 2 x_r3_g136 - 2 x_r3_g146 - 1 x_r3_g150 - 1 x_r3_g152 - 1 x_r3_g160 - 1 p_r0_g13_h5_t8 - 1 p_r0_g47_h39_t8 - 1 p_r0_g54_h46_t8 - 1 p_r0_g74_h66_t8 - 1 p_r0_g125_h117_t8 - 1 p_r0_g136_h128_t8 - 1 p_r0_g140_h132_t8 - 1 p_r0_g144_h136_t8 - 1 p_r1_g27_h19_t8 - 1 p_r1_g28_h20_t8 - 1 p_r1_g35_h27_t8 - 1 p_r1_g36_h28_t8 - 1 p_r1_g43_h35_t8 - 1 p_r1_g44_h36_t8 - 1 p_r1_g46_h38_t8 - 1 p_r1_g99_h91_t8 - 1 p_r1_g165_h157_t8 - 1 p_r2_g7_h166_t8 - 1 p_r2_g35_h27_t8 - 1 p_r2_g41_h33_t8 - 1 p_r2_g84_h76_t8 - 1 p_r2_g93_h85_t8 - 1 p_r2_g114_h106_t8 - 1 p_r2_g119_h111_t8 - 1 p_r2_g133_h125_t8 - 1 p_r2_g141_h133_t8 - 1 p_r2_g146_h138_t8 - 1 p_r2_g149_h141_t8 - 1 p_r3_g12_h4_t8 - 1 p_r3_g29_h21_t8 - 1 p_r3_g31_h23_t8 - 1 p_r3_g35_h27_t8 - 1 p_r3_g61_h53_t8 - 1 p_r3_g63_h55_t8 - 1 p_r3_g97_h89_t8 - 1 p_r3_g107_h99_t8 - 1 p_r3_g115_h107_t8 - 1 p_r3_g132_h124_t8 - 1 p_r3_g139_h131_t8 - 1 p_r3_g149_h141_t8 - 1 p_r3_g160_h152_t8 = -45
 abs_pos_8: d_8 - u_8 <= 0
 abs_neg_8: - d_8 - u_8 <= 0
 max_def_8: u_8 - M <= 0
 cap_8: u_8 <= 2
 lin1_34_0_6: p_r0_g6_h139_t34 - x_r0_g6 <= 0
 lin2_34_0_6: p_r0_g6_h139_t34 - x_r0_g139 <= 0
 lin3_34_0_6: p_r0_g6_h139_t34 - x_r0_g6 - x_r0_g139 >= -1
 lin1_34_0_23: p_r0_g23_h156_t34 - x_r0_g23 <= 0
 lin2_34_0_23: p_r0_g23_h156_t34 - x_r0_g156 <= 0
 lin3_34_0_23: p_r0_g23_h156_t34 - x_r0_g23 - x_r0_g156 >= -1
 lin1_34_0_39: p_r0_g39_h5_t34 - x_r0_g39 <= 0
 lin2_34_0_39: p_r0_g39_h5_t34 - x_r0_g5 <= 0
 lin3_34_0_39: p_r0_g39_h5_t34 - x_r0_g39 - x_r0_g5 >= -1
 lin1_34_0_40: p_r0_g40_h6_t34 - x_r0_g40 <= 0
 lin2_34_0_40: p_r0_g40_h6_t34 - x_r0_g6 <= 0
 lin3_34_0_40: p_r0_g40_h6_t34 - x_r0_g40 - x_r0_g6 >= -1
 lin1_34_0_47: p_r0_g47_h13_t34 - x_r0_g47 <= 0
 lin2_34_0_47: p_r0_g47_h13_t34 - x_r0_g13 <= 0
 lin3_34_0_47: p_r0_g47_h13_t34 - x_r0_g47 - x_r0_g13 >= -1
 lin1_34_0_50: p_r0_g50_h16_t34 - x_r0_g50 <= 0
 lin2_34_0_50: p_r0_g50_h16_t34 - x_r0_g16 <= 0
 lin3_34_0_50: p_r0_g50_h16_t34 - x_r0_g50 - x_r0_g16 >= -1
 lin1_34_0_73: p_r0_g73_h39_t34 - x_r0_g73 <= 0
 lin2_34_0_73: p_r0_g73_h39_t34 - x_r0_g39 <= 0
 lin3_34_0_73: p_r0_g73_h39_t34 - x_r0_g73 - x_r0_g39 >= -1
 lin1_34_0_74: p_r0_g74_h40_t34 - x_r0_g74 <= 0
 lin2_34_0_74: p_r0_g74_h40_t34 - x_r0_g40 <= 0
 lin3_34_0_74: p_r0_g74_h40_t34 - x_r0_g74 - x_r0_g40 >= -1
 lin1_34_0_88: p_r0_g88_h54_t34 - x_r0_g88 <= 0
 lin2_34_0_88: p_r0_g88_h54_t34 - x_r0_g54 <= 0
 lin3_34_0_88: p_r0_g88_h54_t34 - x_r0_g88 - x_r0_g54 >= -1
 lin1_34_0_111: p_r0_g111_h77_t34 - x_r0_g111 <= 0
 lin2_34_0_111: p_r0_g111_h77_t34 - x_r0_g77 <= 0
 lin3_34_0_111: p_r0_g111_h77_t34 - x_r0_g111 - x_r0_g77 >= -1
 lin1_34_0_135: p_r0_g135_h101_t34 - x_r0_g135 <= 0
 lin2_34_0_135: p_r0_g135_h101_t34 - x_r0_g101 <= 0
 lin3_34_0_135: p_r0_g135_h101_t34 - x_r0_g135 - x_r0_g101 >= -1
 lin1_34_0_144: p_r0_g144_h110_t34 - x_r0_g144 <= 0
 lin2_34_0_144: p_r0_g144_h110_t34 - x_r0_g110 <= 0
 lin3_34_0_144: p_r0_g144_h110_t34 - x_r0_g144 - x_r0_g110 >= -1
 lin1_34_0_162: p_r0_g162_h128_t34 - x_r0_g162 <= 0
 lin2_34_0_162: p_r0_g162_h128_t34 - x_r0_g128 <= 0
 lin3_34_0_162: p_r0_g162_h128_t34 - x_r0_g162 - x_r0_g128 >= -1
 lin1_34_1_27: p_r1_g27_h160_t34 - x_r1_g27 <= 0
 lin2_34_1_27: p_r1_g27_h160_t34 - x_r1_g160 <= 0
 lin3_34_1_27: p_r1_g27_h160_t34 - x_r1_g27 - x_r1_g160 >= -1
 lin1_34_1_76: p_r1_g76_h42_t34 - x_r1_g76 <= 0
 lin2_34_1_76: p_r1_g76_h42_t34 - x_r1_g42 <= 0
 lin3_34_1_76: p_r1_g76_h42_t34 - x_r1_g76 - x_r1_g42 >= -1
 lin1_34_1_77: p_r1_g77_h43_t34 - x_r1_g77 <= 0
 lin2_34_1_77: p_r1_g77_h43_t34 - x_r1_g43 <= 0
 lin3_34_1_77: p_r1_g77_h43_t34 - x_r1_g77 - x_r1_g43 >= -1
 lin1_34_1_78: p_r1_g78_h44_t34 - x_r1_g78 <= 0
 lin2_34_1_78: p_r1_g78_h44_t34 - x_r1_g44 <= 0
 lin3_34_1_78: p_r1_g78_h44_t34 - x_r1_g78 - x_r1_g44 >= -1
 lin1_34_1_92: p_r1_g92_h58_t34 - x_r1_g92 <= 0
 lin2_34_1_92: p_r1_g92_h58_t34 - x_r1_g58 <= 0
 lin3_34_1_92: p_r1_g92_h58_t34 - x_r1_g92 - x_r1_g58 >= -1
 lin1_34_1_98: p_r1_g98_h64_t34 - x_r1_g98 <= 0
 lin2_34_1_98: p_r1_g98_h64_t34 - x_r1_g64 <= 0
 lin3_34_1_98: p_r1_g98_h64_t34 - x_r1_g98 - x_r1_g64 >= -1
 lin1_34_1_126: p_r1_g126_h92_t34 - x_r1_g126 <= 0
 lin2_34_1_126: p_r1_g126_h92_t34 - x_r1_g92 <= 0
 lin3_34_1_126: p_r1_g126_h92_t34 - x_r1_g126 - x_r1_g92 >= -1
 lin1_34_1_128: p_r1_g128_h94_t34 - x_r1_g128 <= 0
 lin2_34_1_128: p_r1_g128_h94_t34 - x_r1_g94 <= 0
 lin3_34_1_128: p_r1_g128_h94_t34 - x_r1_g128 - x_r1_g94 >= -1
 lin1_34_1_135: p_r1_g135_h101_t34 - x_r1_g135 <= 0
 lin2_34_1_135: p_r1_g135_h101_t34 - x_r1_g101 <= 0
 lin3_34_1_135: p_r1_g135_h101_t34 - x_r1_g135 - x_r1_g101 >= -1
 lin1_34_1_160: p_r1_g160_h126_t34 - x_r1_g160 <= 0
 lin2_34_1_160: p_r1_g160_h126_t34 - x_r1_g126 <= 0
 lin3_34_1_160: p_r1_g160_h126_t34 - x_r1_g160 - x_r1_g126 >= -1
 lin1_34_1_164: p_r1_g164_h130_t34 - x_r1_g164 <= 0
 lin2_34_1_164: p_r1_g164_h130_t34 - x_r1_g130 <= 0
 lin3_34_1_164: p_r1_g164_h130_t34 - x_r1_g164 - x_r1_g130 >= -1
 lin1_34_1_165: p_r1_g165_h131_t34 - x_r1_g165 <= 0
 lin2_34_1_165: p_r1_g165_h131_t34 - x_r1_g131 <= 0
 lin3_34_1_165: p_r1_g165_h131_t34 - x_r1_g165 - x_r1_g131 >= -1
 lin1_34_2_13: p_r2_g13_h146_t34 - x_r2_g13 <= 0
 lin2_34_2_13: p_r2_g13_h146_t34 - x_r2_g146 <= 0
 lin3_34_2_13: p_r2_g13_h146_t34 - x_r2_g13 - x_r2_g146 >= -1
 lin1_34_2_33: p_r2_g33_h166_t34 - x_r2_g33 <= 0
 lin2_34_2_33: p_r2_g33_h166_t34 - x_r2_g166 <= 0
 lin3_34_2_33: p_r2_g33_h166_t34 - x_r2_g33 - x_r2_g166 >= -1
 lin1_34_2_41: p_r2_g41_h7_t34 - x_r2_g41 <= 0
 lin2_34_2_41: p_r2_g41_h7_t34 - x_r2_g7 <= 0
 lin3_34_2_41: p_r2_g41_h7_t34 - x_r2_g41 - x_r2_g7 >= -1
 lin1_34_2_47: p_r2_g47_h13_t34 - x_r2_g47 <= 0
 lin2_34_2_47: p_r2_g47_h13_t34 - x_r2_g13 <= 0
 lin3_34_2_47: p_r2_g47_h13_t34 - x_r2_g47 - x_r2_g13 >= -1
 lin1_34_2_51: p_r2_g51_h17_t34 - x_r2_g51 <= 0
 lin2_34_2_51: p_r2_g51_h17_t34 - x_r2_g17 <= 0
 lin3_34_2_51: p_r2_g51_h17_t34 - x_r2_g51 - x_r2_g17 >= -1
 lin1_34_2_61: p_r2_g61_h27_t34 - x_r2_g61 <= 0
 lin2_34_2_61: p_r2_g61_h27_t34 - x_r2_g27 <= 0
 lin3_34_2_61: p_r2_g61_h27_t34 - x_r2_g61 - x_r2_g27 >= -1
 lin1_34_2_63: p_r2_g63_h29_t34 - x_r2_g63 <= 0
 lin2_34_2_63: p_r2_g63_h29_t34 - x_r2_g29 <= 0
 lin3_34_2_63: p_r2_g63_h29_t34 - x_r2_g63 - x_r2_g29 >= -1
 lin1_34_2_75: p_r2_g75_h41_t34 - x_r2_g75 <= 0
 lin2_34_2_75: p_r2_g75_h41_t34 - x_r2_g41 <= 0
 lin3_34_2_75: p_r2_g75_h41_t34 - x_r2_g75 - x_r2_g41 >= -1
 lin1_34_2_85: p_r2_g85_h51_t34 - x_r2_g85 <= 0
 lin2_34_2_85: p_r2_g85_h51_t34 - x_r2_g51 <= 0
 lin3_34_2_85: p_r2_g85_h51_t34 - x_r2_g85 - x_r2_g51 >= -1
 lin1_34_2_91: p_r2_g91_h57_t34 - x_r2_g91 <= 0
 lin2_34_2_91: p_r2_g91_h57_t34 - x_r2_g57 <= 0
 lin3_34_2_91: p_r2_g91_h57_t34 - x_r2_g91 - x_r2_g57 >= -1
 lin1_34_2_114: p_r2_g114_h80_t34 - x_r2_g114 <= 0
 lin2_34_2_114: p_r2_g114_h80_t34 - x_r2_g80 <= 0
 lin3_34_2_114: p_r2_g114_h80_t34 - x_r2_g114 - x_r2_g80 >= -1
 lin1_34_2_118: p_r2_g118_h84_t34 - x_r2_g118 <= 0
 lin2_34_2_118: p_r2_g118_h84_t34 - x_r2_g84 <= 0
 lin3_34_2_118: p_r2_g118_h84_t34 - x_r2_g118 - x_r2_g84 >= -1
 lin1_34_2_119: p_r2_g119_h85_t34 - x_r2_g119 <= 0
 lin2_34_2_119: p_r2_g119_h85_t34 - x_r2_g85 <= 0
 lin3_34_2_119: p_r2_g119_h85_t34 - x_r2_g119 - x_r2_g85 >= -1
 lin1_34_2_125: p_r2_g125_h91_t34 - x_r2_g125 <= 0
 lin2_34_2_125: p_r2_g125_h91_t34 - x_r2_g91 <= 0
 lin3_34_2_125: p_r2_g125_h91_t34 - x_r2_g125 - x_r2_g91 >= -1
 lin1_34_2_146: p_r2_g146_h112_t34 - x_r2_g146 <= 0
 lin2_34_2_146: p_r2_g146_h112_t34 - x_r2_g112 <= 0
 lin3_34_2_146: p_r2_g146_h112_t34 - x_r2_g146 - x_r2_g112 >= -1
 lin1_34_3_6: p_r3_g6_h139_t34 - x_r3_g6 <= 0
 lin2_34_3_6: p_r3_g6_h139_t34 - x_r3_g139 <= 0
 lin3_34_3_6: p_r3_g6_h139_t34 - x_r3_g6 - x_r3_g139 >= -1
 lin1_34_3_27: p_r3_g27_h160_t34 - x_r3_g27 <= 0
 lin2_34_3_27: p_r3_g27_h160_t34 - x_r3_g160 <= 0
 lin3_34_3_27: p_r3_g27_h160_t34 - x_r3_g27 - x_r3_g160 >= -1
 lin1_34_3_55: p_r3_g55_h21_t34 - x_r3_g55 <= 0
 lin2_34_3_55: p_r3_g55_h21_t34 - x_r3_g21 <= 0
 lin3_34_3_55: p_r3_g55_h21_t34 - x_r3_g55 - x_r3_g21 >= -1
 lin1_34_3_61: p_r3_g61_h27_t34 - x_r3_g61 <= 0
 lin2_34_3_61: p_r3_g61_h27_t34 - x_r3_g27 <= 0
 lin3_34_3_61: p_r3_g61_h27_t34 - x_r3_g61 - x_r3_g27 >= -1
 lin1_34_3_63: p_r3_g63_h29_t34 - x_r3_g63 <= 0
 lin2_34_3_63: p_r3_g63_h29_t34 - x_r3_g29 <= 0
 lin3_34_3_63: p_r3_g63_h29_t34 - x_r3_g63 - x_r3_g29 >= -1
 lin1_34_3_83: p_r3_g83_h49_t34 - x_r3_g83 <= 0
 lin2_34_3_83: p_r3_g83_h49_t34 - x_r3_g49 <= 0
 lin3_34_3_83: p_r3_g83_h49_t34 - x_r3_g83 - x_r3_g49 >= -1
 lin1_34_3_89: p_r3_g89_h55_t34 - x_r3_g89 <= 0
 lin2_34_3_89: p_r3_g89_h55_t34 - x_r3_g55 <= 0
 lin3_34_3_89: p_r3_g89_h55_t34 - x_r3_g89 - x_r3_g55 >= -1
 lin1_34_3_97: p_r3_g97_h63_t34 - x_r3_g97 <= 0
 lin2_34_3_97: p_r3_g97_h63_t34 - x_r3_g63 <= 0
 lin3_34_3_97: p_r3_g97_h63_t34 - x_r3_g97 - x_r3_g63 >= -1
 lin1_34_3_131: p_r3_g131_h97_t34 - x_r3_g131 <= 0
 lin2_34_3_131: p_r3_g131_h97_t34 - x_r3_g97 <= 0
 lin3_34_3_131: p_r3_g131_h97_t34 - x_r3_g131 - x_r3_g97 >= -1
 lin1_34_3_141: p_r3_g141_h107_t34 - x_r3_g141 <= 0
 lin2_34_3_141: p_r3_g141_h107_t34 - x_r3_g107 <= 0
 lin3_34_3_141: p_r3_g141_h107_t34 - x_r3_g141 - x_r3_g107 >= -1
 lin1_34_3_149: p_r3_g149_h115_t34 - x_r3_g149 <= 0
 lin2_34_3_149: p_r3_g149_h115_t34 - x_r3_g115 <= 0
 lin3_34_3_149: p_r3_g149_h115_t34 - x_r3_g149 - x_r3_g115 >= -1
 defect_34: 1 d_34 - 1 x_r0_g13 - 1 x_r0_g16 - 2 x_r0_g25 - 1 x_r0_g46 - 1 x_r0_g49 - 1 x_r0_g54 - 1 x_r0_g66 - 1 x_r0_g77 - 1 x_r0_g88 - 1 x_r0_g101 - 1 x_r0_g112 - 1 x_r0_g115 - 1 x_r0_g117 - 1 x_r0_g125 - 1 x_r0_g132 - 2 x_r0_g136 - 1 x_r0_g137 - 2 x_r0_g140 - 1 x_r0_g144 - 1 x_r0_g156 - 1 x_r0_g163 - 1 x_r1_g19 - 1 x_r1_g28 - 2 x_r1_g35 - 1 x_r1_g36 - 1 x_r1_g44 - 2 x_r1_g45 - 1 x_r1_g46 - 1 x_r1_g71 - 1 x_r1_g78 - 1 x_r1_g89 - 1 x_r1_g91 - 1 x_r1_g98 - 1 x_r1_g99 - 2 x_r1_g104 - 1 x_r1_g114 - 1 x_r1_g116 - 1 x_r1_g130 - 1 x_r1_g157 - 1 x_r1_g164 - 1 x_r1_g165 - 1 x_r2_g7 - 1 x_r2_g14 - 1 x_r2_g17 - 1 x_r2_g27 - 2 x_r2_g34 - 1 x_r2_g35 - 1 x_r2_g76 - 1 x_r2_g80 - 1 x_r2_g87 - 1 x_r2_g93 - 1 x_r2_g106 - 1 x_r2_g112 - 1 x_r2_g114 - 2 x_r2_g116 - 1 x_r2_g118 - 1 x_r2_g119 - 1 x_r2_g133 - 1 x_r2_g138 - 1 x_r2_g139 - 1 x_r2_g149 - 1 x_r2_g151 - 2 x_r2_g161 - 1 x_r2_g166 - 2 x_r3_g4 - 1 x_r3_g6 - 2 x_r3_g12 - 1 x_r3_g21 - 1 x_r3_g29 - 1 x_r3_g31 - 1 x_r3_g35 - 1 x_r3_g44 - 1 x_r3_g53 - 1 x_r3_g54 - 2 x_r3_g77 - 1 x_r3_g80 - 1 x_r3_g84 - 1 x_r3_g89 - 1 x_r3_g99 - 2 x_r3_g108 - 1 x_r3_g115 - 2 x_r3_g132 - 1 x_r3_g141 - 2 x_r3_g146 - 1 x_r3_g150 - 2 x_r3_g152 - 1 p_r0_g6_h139_t34 - 1 p_r0_g23_h156_t34 - 1 p_r0_g39_h5_t34 - 1 p_r0_g40_h6_t34 - 1 p_r0_g47_h13_t34 - 1 p_r0_g50_h16_t34 - 1 p_r0_g73_h39_t34 - 1 p_r0_g74_h40_t34 - 1 p_r0_g88_h54_t34 - 1 p_r0_g111_h77_t34 - 1 p_r0_g135_h101_t34 - 1 p_r0_g144_h110_t34 - 1 p_r0_g162_h128_t34 - 1 p_r1_g27_h160_t34 - 1 p_r1_g76_h42_t34 - 1 p_r1_g77_h43_t34 - 1 p_r1_g78_h44_t34 - 1 p_r1_g92_h58_t34 - 1 p_r1_g98_h64_t34 - 1 p_r1_g126_h92_t34 - 1 p_r1_g128_h94_t34 - 1 p_r1_g135_h101_t34 - 1 p_r1_g160_h126_t34 - 1 p_r1_g164_h130_t34 - 1 p_r1_g165_h131_t34 - 1 p_r2_g13_h146_t34 - 1 p_r2_g33_h166_t34 - 1 p_r2_g41_h7_t34 - 1 p_r2_g47_h13_t34 - 1 p_r2_g51_h17_t34 - 1 p_r2_g61_h27_t34 - 1 p_r2_g63_h29_t34 - 1 p_r2_g75_h41_t34 - 1 p_r2_g85_h51_t34 - 1 p_r2_g91_h57_t34 - 1 p_r2_g114_h80_t34 - 1 p_r2_g118_h84_t34 - 1 p_r2_g119_h85_t34 - 1 p_r2_g125_h91_t34 - 1 p_r2_g146_h112_t34 - 1 p_r3_g6_h139_t34 - 1 p_r3_g27_h160_t34 - 1 p_r3_g55_h21_t34 - 1 p_r3_g61_h27_t34 - 1 p_r3_g63_h29_t34 - 1 p_r3_g83_h49_t34 - 1 p_r3_g89_h55_t34 - 1 p_r3_g97_h63_t34 - 1 p_r3_g131_h97_t34 - 1 p_r3_g141_h107_t34 - 1 p_r3_g149_h115_t34 = -75
 abs_pos_34: d_34 - u_34 <= 0
 abs_neg_34: - d_34 - u_34 <= 0
 max_def_34: u_34 - M <= 0
 cap_34: u_34 <= 2
 lin1_41_0_6: p_r0_g6_h132_t41 - x_r0_g6 <= 0
 lin2_41_0_6: p_r0_g6_h132_t41 - x_r0_g132 <= 0
 lin3_41_0_6: p_r0_g6_h132_t41 - x_r0_g6 - x_r0_g132 >= -1
 lin1_41_0_13: p_r0_g13_h139_t41 - x_r0_g13 <= 0
 lin2_41_0_13: p_r0_g13_h139_t41 - x_r0_g139 <= 0
 lin3_41_0_13: p_r0_g13_h139_t41 - x_r0_g13 - x_r0_g139 >= -1
 lin1_41_0_46: p_r0_g46_h5_t41 - x_r0_g46 <= 0
 lin2_41_0_46: p_r0_g46_h5_t41 - x_r0_g5 <= 0
 lin3_41_0_46: p_r0_g46_h5_t41 - x_r0_g46 - x_r0_g5 >= -1
 lin1_41_0_47: p_r0_g47_h6_t41 - x_r0_g47 <= 0
 lin2_41_0_47: p_r0_g47_h6_t41 - x_r0_g6 <= 0
 lin3_41_0_47: p_r0_g47_h6_t41 - x_r0_g47 - x_r0_g6 >= -1
 lin1_41_0_54: p_r0_g54_h13_t41 - x_r0_g54 <= 0
 lin2_41_0_54: p_r0_g54_h13_t41 - x_r0_g13 <= 0
 lin3_41_0_54: p_r0_g54_h13_t41 - x_r0_g54 - x_r0_g13 >= -1
 lin1_41_0_66: p_r0_g66_h25_t41 - x_r0_g66 <= 0
 lin2_41_0_66: p_r0_g66_h25_t41 - x_r0_g25 <= 0
 lin3_41_0_66: p_r0_g66_h25_t41 - x_r0_g66 - x_r0_g25 >= -1
 lin1_41_0_88: p_r0_g88_h47_t41 - x_r0_g88 <= 0
 lin2_41_0_88: p_r0_g88_h47_t41 - x_r0_g47 <= 0
 lin3_41_0_88: p_r0_g88_h47_t41 - x_r0_g88 - x_r0_g47 >= -1
 lin1_41_0_95: p_r0_g95_h54_t41 - x_r0_g95 <= 0
 lin2_41_0_95: p_r0_g95_h54_t41 - x_r0_g54 <= 0
 lin3_41_0_95: p_r0_g95_h54_t41 - x_r0_g95 - x_r0_g54 >= -1
 lin1_41_0_115: p_r0_g115_h74_t41 - x_r0_g115 <= 0
 lin2_41_0_115: p_r0_g115_h74_t41 - x_r0_g74 <= 0
 lin3_41_0_115: p_r0_g115_h74_t41 - x_r0_g115 - x_r0_g74 >= -1
 lin1_41_0_136: p_r0_g136_h95_t41 - x_r0_g136 <= 0
 lin2_41_0_136: p_r0_g136_h95_t41 - x_r0_g95 <= 0
 lin3_41_0_136: p_r0_g136_h95_t41 - x_r0_g136 - x_r0_g95 >= -1
 lin1_41_0_156: p_r0_g156_h115_t41 - x_r0_g156 <= 0
 lin2_41_0_156: p_r0_g156_h115_t41 - x_r0_g115 <= 0
 lin3_41_0_156: p_r0_g156_h115_t41 - x_r0_g156 - x_r0_g115 >= -1
 lin1_41_1_0: p_r1_g0_h126_t41 - x_r1_g0 <= 0
 lin2_41_1_0: p_r1_g0_h126_t41 - x_r1_g126 <= 0
 lin3_41_1_0: p_r1_g0_h126_t41 - x_r1_g0 - x_r1_g126 >= -1
 lin1_41_1_38: p_r1_g38_h164_t41 - x_r1_g38 <= 0
 lin2_41_1_38: p_r1_g38_h164_t41 - x_r1_g164 <= 0
 lin3_41_1_38: p_r1_g38_h164_t41 - x_r1_g38 - x_r1_g164 >= -1
 lin1_41_1_76: p_r1_g76_h35_t41 - x_r1_g76 <= 0
 lin2_41_1_76: p_r1_g76_h35_t41 - x_r1_g35 <= 0
 lin3_41_1_76: p_r1_g76_h35_t41 - x_r1_g76 - x_r1_g35 >= -1
 lin1_41_1_77: p_r1_g77_h36_t41 - x_r1_g77 <= 0
 lin2_41_1_77: p_r1_g77_h36_t41 - x_r1_g36 <= 0
 lin3_41_1_77: p_r1_g77_h36_t41 - x_r1_g77 - x_r1_g36 >= -1
 lin1_41_1_99: p_r1_g99_h58_t41 - x_r1_g99 <= 0
 lin2_41_1_99: p_r1_g99_h58_t41 - x_r1_g58 <= 0
 lin3_41_1_99: p_r1_g99_h58_t41 - x_r1_g99 - x_r1_g58 >= -1
 lin1_41_1_130: p_r1_g130_h89_t41 - x_r1_g130 <= 0
 lin2_41_1_130: p_r1_g130_h89_t41 - x_r1_g89 <= 0
 lin3_41_1_130: p_r1_g130_h89_t41 - x_r1_g130 - x_r1_g89 >= -1
 lin1_41_1_135: p_r1_g135_h94_t41 - x_r1_g135 <= 0
 lin2_41_1_135: p_r1_g135_h94_t41 - x_r1_g94 <= 0
 lin3_41_1_135: p_r1_g135_h94_t41 - x_r1_g135 - x_r1_g94 >= -1
 lin1_41_1_157: p_r1_g157_h116_t41 - x_r1_g157 <= 0
 lin2_41_1_157: p_r1_g157_h116_t41 - x_r1_g116 <= 0
 lin3_41_1_157: p_r1_g157_h116_t41 - x_r1_g157 - x_r1_g116 >= -1
 lin1_41_2_7: p_r2_g7_h133_t41 - x_r2_g7 <= 0
 lin2_41_2_7: p_r2_g7_h133_t41 - x_r2_g133 <= 0
 lin3_41_2_7: p_r2_g7_h133_t41 - x_r2_g7 - x_r2_g133 >= -1
 lin1_41_2_13: p_r2_g13_h139_t41 - x_r2_g13 <= 0
 lin2_41_2_13: p_r2_g13_h139_t41 - x_r2_g139 <= 0
 lin3_41_2_13: p_r2_g13_h139_t41 - x_r2_g13 - x_r2_g139 >= -1
 lin1_41_2_35: p_r2_g35_h161_t41 - x_r2_g35 <= 0
 lin2_41_2_35: p_r2_g35_h161_t41 - x_r2_g161 <= 0
 lin3_41_2_35: p_r2_g35_h161_t41 - x_r2_g35 - x_r2_g161 >= -1
 lin1_41_2_75: p_r2_g75_h34_t41 - x_r2_g75 <= 0
 lin2_41_2_75: p_r2_g75_h34_t41 - x_r2_g34 <= 0
 lin3_41_2_75: p_r2_g75_h34_t41 - x_r2_g75 - x_r2_g34 >= -1
 lin1_41_2_76: p_r2_g76_h35_t41 - x_r2_g76 <= 0
 lin2_41_2_76: p_r2_g76_h35_t41 - x_r2_g35 <= 0
 lin3_41_2_76: p_r2_g76_h35_t41 - x_r2_g76 - x_r2_g35 >= -1
 lin1_41_2_116: p_r2_g116_h75_t41 - x_r2_g116 <= 0
 lin2_41_2_116: p_r2_g116_h75_t41 - x_r2_g75 <= 0
 lin3_41_2_116: p_r2_g116_h75_t41 - x_r2_g116 - x_r2_g75 >= -1
 lin1_41_2_125: p_r2_g125_h84_t41 - x_r2_g125 <= 0
 lin2_41_2_125: p_r2_g125_h84_t41 - x_r2_g84 <= 0
 lin3_41_2_125: p_r2_g125_h84_t41 - x_r2_g125 - x_r2_g84 >= -1
 lin1_41_2_166: p_r2_g166_h125_t41 - x_r2_g166 <= 0
 lin2_41_2_166: p_r2_g166_h125_t41 - x_r2_g125 <= 0
 lin3_41_2_166: p_r2_g166_h125_t41 - x_r2_g166 - x_r2_g125 >= -1
 lin1_41_3_6: p_r3_g6_h132_t41 - x_r3_g6 <= 0
 lin2_41_3_6: p_r3_g6_h132_t41 - x_r3_g132 <= 0
 lin3_41_3_6: p_r3_g6_h132_t41 - x_r3_g6 - x_r3_g132 >= -1
 lin1_41_3_23: p_r3_g23_h149_t41 - x_r3_g23 <= 0
 lin2_41_3_23: p_r3_g23_h149_t41 - x_r3_g149 <= 0
 lin3_41_3_23: p_r3_g23_h149_t41 - x_r3_g23 - x_r3_g149 >= -1
 lin1_41_3_53: p_r3_g53_h12_t41 - x_r3_g53 <= 0
 lin2_41_3_53: p_r3_g53_h12_t41 - x_r3_g12 <= 0
 lin3_41_3_53: p_r3_g53_h12_t41 - x_r3_g53 - x_r3_g12 >= -1
 lin1_41_3_124: p_r3_g124_h83_t41 - x_r3_g124 <= 0
 lin2_41_3_124: p_r3_g124_h83_t41 - x_r3_g83 <= 0
 lin3_41_3_124: p_r3_g124_h83_t41 - x_r3_g124 - x_r3_g83 >= -1
 lin1_41_3_125: p_r3_g125_h84_t41 - x_r3_g125 <= 0
 lin2_41_3_125: p_r3_g125_h84_t41 - x_r3_g84 <= 0
 lin3_41_3_125: p_r3_g125_h84_t41 - x_r3_g125 - x_r3_g84 >= -1
 lin1_41_3_149: p_r3_g149_h108_t41 - x_r3_g149 <= 0
 lin2_41_3_149: p_r3_g149_h108_t41 - x_r3_g108 <= 0
 lin3_41_3_149: p_r3_g149_h108_t41 - x_r3_g149 - x_r3_g108 >= -1
 defect_41: 1 d_41 - 1 x_r0_g5 - 1 x_r0_g16 - 1 x_r0_g23 - 1 x_r0_g25 - 1 x_r0_g39 - 1 x_r0_g44 - 1 x_r0_g49 - 2 x_r0_g77 - 1 x_r0_g101 - 1 x_r0_g110 - 2 x_r0_g111 - 1 x_r0_g116 - 1 x_r0_g117 - 1 x_r0_g137 - 1 x_r0_g139 - 1 x_r0_g140 - 1 x_r0_g144 - 1 x_r0_g156 - 1 x_r0_g162 - 2 x_r0_g163 - 1 x_r1_g16 - 1 x_r1_g20 - 1 x_r1_g27 - 2 x_r1_g28 - 2 x_r1_g29 - 1 x_r1_g38 - 1 x_r1_g42 - 1 x_r1_g43 - 1 x_r1_g44 - 1 x_r1_g46 - 1 x_r1_g71 - 2 x_r1_g78 - 1 x_r1_g91 - 1 x_r1_g94 - 1 x_r1_g98 - 1 x_r1_g99 - 1 x_r1_g114 - 1 x_r1_g128 - 1 x_r1_g131 - 1 x_r1_g157 - 1 x_r1_g160 - 1 x_r1_g164 - 2 x_r1_g165 - 1 x_r2_g7 - 1 x_r2_g14 - 1 x_r2_g17 - 2 x_r2_g27 - 1 x_r2_g33 - 1 x_r2_g34 - 2 x_r2_g41 - 1 x_r2_g57 - 2 x_r2_g61 - 1 x_r2_g63 - 2 x_r2_g80 - 1 x_r2_g84 - 1 x_r2_g85 - 2 x_r2_g87 - 1 x_r2_g91 - 1 x_r2_g93 - 1 x_r2_g106 - 1 x_r2_g111 - 1 x_r2_g112 - 1 x_r2_g116 - 2 x_r2_g119 - 1 x_r2_g139 - 2 x_r2_g146 - 2 x_r2_g151 - 1 x_r2_g161 - 1 x_r3_g4 - 1 x_r3_g6 - 1 x_r3_g12 - 1 x_r3_g21 - 1 x_r3_g27 - 1 x_r3_g35 - 1 x_r3_g49 - 1 x_r3_g53 - 1 x_r3_g54 - 1 x_r3_g61 - 1 x_r3_g63 - 2 x_r3_g77 - 1 x_r3_g80 - 2 x_r3_g82 - 1 x_r3_g84 - 1 x_r3_g97 - 1 x_r3_g99 - 2 x_r3_g107 - 1 x_r3_g115 - 2 x_r3_g122 - 1 x_r3_g125 - 1 x_r3_g131 - 2 x_r3_g139 - 1 x_r3_g146 - 2 x_r3_g152 - 1 x_r3_g160 - 1 p_r0_g6_h132_t41 - 1 p_r0_g13_h139_t41 - 1 p_r0_g46_h5_t41 - 1 p_r0_g47_h6_t41 - 1 p_r0_g54_h13_t41 - 1 p_r0_g66_h25_t41 - 1 p_r0_g88_h47_t41 - 1 p_r0_g95_h54_t41 - 1 p_r0_g115_h74_t41 - 1 p_r0_g136_h95_t41 - 1 p_r0_g156_h115_t41 - 1 p_r1_g0_h126_t41 - 1 p_r1_g38_h164_t41 - 1 p_r1_g76_h35_t41 - 1 p_r1_g77_h36_t41 - 1 p_r1_g99_h58_t41 - 1 p_r1_g130_h89_t41 - 1 p_r1_g135_h94_t41 - 1 p_r1_g157_h116_t41 - 1 p_r2_g7_h133_t41 - 1 p_r2_g13_h139_t41 - 1 p_r2_g35_h161_t41 - 1 p_r2_g75_h34_t41 - 1 p_r2_g76_h35_t41 - 1 p_r2_g116_h75_t41 - 1 p_r2_g125_h84_t41 - 1 p_r2_g166_h125_t41 - 1 p_r3_g6_h132_t41 - 1 p_r3_g23_h149_t41 - 1 p_r3_g53_h12_t41 - 1 p_r3_g124_h83_t41 - 1 p_r3_g125_h84_t41 - 1 p_r3_g149_h108_t41 = -84
 abs_pos_41: d_41 - u_41 <= 0
 abs_neg_41: - d_41 - u_41 <= 0
 max_def_41: u_41 - M <= 0
 cap_41: u_41 <= 2
 lin1_49_0_44: p_r0_g44_h162_t49 - x_r0_g44 <= 0
 lin2_49_0_44: p_r0_g44_h162_t49 - x_r0_g162 <= 0
 lin3_49_0_44: p_r0_g44_h162_t49 - x_r0_g44 - x_r0_g162 >= -1
 lin1_49_0_54: p_r0_g54_h5_t49 - x_r0_g54 <= 0
 lin2_49_0_54: p_r0_g54_h5_t49 - x_r0_g5 <= 0
 lin3_49_0_54: p_r0_g54_h5_t49 - x_r0_g54 - x_r0_g5 >= -1
 lin1_49_0_74: p_r0_g74_h25_t49 - x_r0_g74 <= 0
 lin2_49_0_74: p_r0_g74_h25_t49 - x_r0_g25 <= 0
 lin3_49_0_74: p_r0_g74_h25_t49 - x_r0_g74 - x_r0_g25 >= -1
 lin1_49_0_88: p_r0_g88_h39_t49 - x_r0_g88 <= 0
 lin2_49_0_88: p_r0_g88_h39_t49 - x_r0_g39 <= 0
 lin3_49_0_88: p_r0_g88_h39_t49 - x_r0_g88 - x_r0_g39 >= -1
 lin1_49_0_95: p_r0_g95_h46_t49 - x_r0_g95 <= 0
 lin2_49_0_95: p_r0_g95_h46_t49 - x_r0_g46 <= 0
 lin3_49_0_95: p_r0_g95_h46_t49 - x_r0_g95 - x_r0_g46 >= -1
 lin1_49_0_115: p_r0_g115_h66_t49 - x_r0_g115 <= 0
 lin2_49_0_115: p_r0_g115_h66_t49 - x_r0_g66 <= 0
 lin3_49_0_115: p_r0_g115_h66_t49 - x_r0_g115 - x_r0_g66 >= -1
 lin1_49_0_137: p_r0_g137_h88_t49 - x_r0_g137 <= 0
 lin2_49_0_137: p_r0_g137_h88_t49 - x_r0_g88 <= 0
 lin3_49_0_137: p_r0_g137_h88_t49 - x_r0_g137 - x_r0_g88 >= -1
 lin1_49_0_144: p_r0_g144_h95_t49 - x_r0_g144 <= 0
 lin2_49_0_144: p_r0_g144_h95_t49 - x_r0_g95 <= 0
 lin3_49_0_144: p_r0_g144_h95_t49 - x_r0_g144 - x_r0_g95 >= -1
 lin1_49_1_42: p_r1_g42_h160_t49 - x_r1_g42 <= 0
 lin2_49_1_42: p_r1_g42_h160_t49 - x_r1_g160 <= 0
 lin3_49_1_42: p_r1_g42_h160_t49 - x_r1_g42 - x_r1_g160 >= -1
 lin1_49_1_46: p_r1_g46_h164_t49 - x_r1_g46 <= 0
 lin2_49_1_46: p_r1_g46_h164_t49 - x_r1_g164 <= 0
 lin3_49_1_46: p_r1_g46_h164_t49 - x_r1_g46 - x_r1_g164 >= -1
 lin1_49_1_76: p_r1_g76_h27_t49 - x_r1_g76 <= 0
 lin2_49_1_76: p_r1_g76_h27_t49 - x_r1_g27 <= 0
 lin3_49_1_76: p_r1_g76_h27_t49 - x_r1_g76 - x_r1_g27 >= -1
 lin1_49_1_77: p_r1_g77_h28_t49 - x_r1_g77 <= 0
 lin2_49_1_77: p_r1_g77_h28_t49 - x_r1_g28 <= 0
 lin3_49_1_77: p_r1_g77_h28_t49 - x_r1_g77 - x_r1_g28 >= -1
 lin1_49_1_78: p_r1_g78_h29_t49 - x_r1_g78 <= 0
 lin2_49_1_78: p_r1_g78_h29_t49 - x_r1_g29 <= 0
 lin3_49_1_78: p_r1_g78_h29_t49 - x_r1_g78 - x_r1_g29 >= -1
 lin1_49_1_91: p_r1_g91_h42_t49 - x_r1_g91 <= 0
 lin2_49_1_91: p_r1_g91_h42_t49 - x_r1_g42 <= 0
 lin3_49_1_91: p_r1_g91_h42_t49 - x_r1_g91 - x_r1_g42 >= -1
 lin1_49_1_92: p_r1_g92_h43_t49 - x_r1_g92 <= 0
 lin2_49_1_92: p_r1_g92_h43_t49 - x_r1_g43 <= 0
 lin3_49_1_92: p_r1_g92_h43_t49 - x_r1_g92 - x_r1_g43 >= -1
 lin1_49_1_94: p_r1_g94_h45_t49 - x_r1_g94 <= 0
 lin2_49_1_94: p_r1_g94_h45_t49 - x_r1_g45 <= 0
 lin3_49_1_94: p_r1_g94_h45_t49 - x_r1_g94 - x_r1_g45 >= -1
 lin1_49_1_126: p_r1_g126_h77_t49 - x_r1_g126 <= 0
 lin2_49_1_126: p_r1_g126_h77_t49 - x_r1_g77 <= 0
 lin3_49_1_126: p_r1_g126_h77_t49 - x_r1_g126 - x_r1_g77 >= -1
 lin1_49_1_165: p_r1_g165_h116_t49 - x_r1_g165 <= 0
 lin2_49_1_165: p_r1_g165_h116_t49 - x_r1_g116 <= 0
 lin3_49_1_165: p_r1_g165_h116_t49 - x_r1_g165 - x_r1_g116 >= -1
 lin1_49_2_7: p_r2_g7_h125_t49 - x_r2_g7 <= 0
 lin2_49_2_7: p_r2_g7_h125_t49 - x_r2_g125 <= 0
 lin3_49_2_7: p_r2_g7_h125_t49 - x_r2_g7 - x_r2_g125 >= -1
 lin1_49_2_33: p_r2_g33_h151_t49 - x_r2_g33 <= 0
 lin2_49_2_33: p_r2_g33_h151_t49 - x_r2_g151 <= 0
 lin3_49_2_33: p_r2_g33_h151_t49 - x_r2_g33 - x_r2_g151 >= -1
 lin1_49_2_63: p_r2_g63_h14_t49 - x_r2_g63 <= 0
 lin2_49_2_63: p_r2_g63_h14_t49 - x_r2_g14 <= 0
 lin3_49_2_63: p_r2_g63_h14_t49 - x_r2_g63 - x_r2_g14 >= -1
 lin1_49_2_76: p_r2_g76_h27_t49 - x_r2_g76 <= 0
 lin2_49_2_76: p_r2_g76_h27_t49 - x_r2_g27 <= 0
 lin3_49_2_76: p_r2_g76_h27_t49 - x_r2_g76 - x_r2_g27 >= -1
 lin1_49_2_84: p_r2_g84_h35_t49 - x_r2_g84 <= 0
 lin2_49_2_84: p_r2_g84_h35_t49 - x_r2_g35 <= 0
 lin3_49_2_84: p_r2_g84_h35_t49 - x_r2_g84 - x_r2_g35 >= -1
 lin1_49_2_106: p_r2_g106_h57_t49 - x_r2_g106 <= 0
 lin2_49_2_106: p_r2_g106_h57_t49 - x_r2_g57 <= 0
 lin3_49_2_106: p_r2_g106_h57_t49 - x_r2_g106 - x_r2_g57 >= -1
 lin1_49_2_112: p_r2_g112_h63_t49 - x_r2_g112 <= 0
 lin2_49_2_112: p_r2_g112_h63_t49 - x_r2_g63 <= 0
 lin3_49_2_112: p_r2_g112_h63_t49 - x_r2_g112 - x_r2_g63 >= -1
 lin1_49_2_125: p_r2_g125_h76_t49 - x_r2_g125 <= 0
 lin2_49_2_125: p_r2_g125_h76_t49 - x_r2_g76 <= 0
 lin3_49_2_125: p_r2_g125_h76_t49 - x_r2_g125 - x_r2_g76 >= -1
 lin1_49_2_133: p_r2_g133_h84_t49 - x_r2_g133 <= 0
 lin2_49_2_133: p_r2_g133_h84_t49 - x_r2_g84 <= 0
 lin3_49_2_133: p_r2_g133_h84_t49 - x_r2_g133 - x_r2_g84 >= -1
 lin1_49_2_161: p_r2_g161_h112_t49 - x_r2_g161 <= 0
 lin2_49_2_161: p_r2_g161_h112_t49 - x_r2_g112 <= 0
 lin3_49_2_161: p_r2_g161_h112_t49 - x_r2_g161 - x_r2_g112 >= -1
 lin1_49_3_4: p_r3_g4_h122_t49 - x_r3_g4 <= 0
 lin2_49_3_4: p_r3_g4_h122_t49 - x_r3_g122 <= 0
 lin3_49_3_4: p_r3_g4_h122_t49 - x_r3_g4 - x_r3_g122 >= -1
 lin1_49_3_6: p_r3_g6_h124_t49 - x_r3_g6 <= 0
 lin2_49_3_6: p_r3_g6_h124_t49 - x_r3_g124 <= 0
 lin3_49_3_6: p_r3_g6_h124_t49 - x_r3_g6 - x_r3_g124 >= -1
 lin1_49_3_21: p_r3_g21_h139_t49 - x_r3_g21 <= 0
 lin2_49_3_21: p_r3_g21_h139_t49 - x_r3_g139 <= 0
 lin3_49_3_21: p_r3_g21_h139_t49 - x_r3_g21 - x_r3_g139 >= -1
 lin1_49_3_23: p_r3_g23_h141_t49 - x_r3_g23 <= 0
 lin2_49_3_23: p_r3_g23_h141_t49 - x_r3_g141 <= 0
 lin3_49_3_23: p_r3_g23_h141_t49 - x_r3_g23 - x_r3_g141 >= -1
 lin1_49_3_31: p_r3_g31_h149_t49 - x_r3_g31 <= 0
 lin2_49_3_31: p_r3_g31_h149_t49 - x_r3_g149 <= 0
 lin3_49_3_31: p_r3_g31_h149_t49 - x_r3_g31 - x_r3_g149 >= -1
 lin1_49_3_53: p_r3_g53_h4_t49 - x_r3_g53 <= 0
 lin2_49_3_53: p_r3_g53_h4_t49 - x_r3_g4 <= 0
 lin3_49_3_53: p_r3_g53_h4_t49 - x_r3_g53 - x_r3_g4 >= -1
 lin1_49_3_55: p_r3_g55_h6_t49 - x_r3_g55 <= 0
 lin2_49_3_55: p_r3_g55_h6_t49 - x_r3_g6 <= 0
 lin3_49_3_55: p_r3_g55_h6_t49 - x_r3_g55 - x_r3_g6 >= -1
 lin1_49_3_61: p_r3_g61_h12_t49 - x_r3_g61 <= 0
 lin2_49_3_61: p_r3_g61_h12_t49 - x_r3_g12 <= 0
 lin3_49_3_61: p_r3_g61_h12_t49 - x_r3_g61 - x_r3_g12 >= -1
 lin1_49_3_80: p_r3_g80_h31_t49 - x_r3_g80 <= 0
 lin2_49_3_80: p_r3_g80_h31_t49 - x_r3_g31 <= 0
 lin3_49_3_80: p_r3_g80_h31_t49 - x_r3_g80 - x_r3_g31 >= -1
 lin1_49_3_84: p_r3_g84_h35_t49 - x_r3_g84 <= 0
 lin2_49_3_84: p_r3_g84_h35_t49 - x_r3_g35 <= 0
 lin3_49_3_84: p_r3_g84_h35_t49 - x_r3_g84 - x_r3_g35 >= -1
 lin1_49_3_131: p_r3_g131_h82_t49 - x_r3_g131 <= 0
 lin2_49_3_131: p_r3_g131_h82_t49 - x_r3_g82 <= 0
 lin3_49_3_131: p_r3_g131_h82_t49 - x_r3_g131 - x_r3_g82 >= -1
 lin1_49_3_132: p_r3_g132_h83_t49 - x_r3_g132 <= 0
 lin2_49_3_132: p_r3_g132_h83_t49 - x_r3_g83 <= 0
 lin3_49_3_132: p_r3_g132_h83_t49 - x_r3_g132 - x_r3_g83 >= -1
 lin1_49_3_146: p_r3_g146_h97_t49 - x_r3_g146 <= 0
 lin2_49_3_146: p_r3_g146_h97_t49 - x_r3_g97 <= 0
 lin3_49_3_146: p_r3_g146_h97_t49 - x_r3_g146 - x_r3_g97 >= -1
 defect_49: 1 d_49 - 1 x_r0_g5 - 1 x_r0_g6 - 2 x_r0_g13 - 1 x_r0_g16 - 1 x_r0_g25 - 1 x_r0_g39 - 1 x_r0_g40 - 1 x_r0_g47 - 1 x_r0_g49 - 1 x_r0_g54 - 1 x_r0_g73 - 1 x_r0_g74 - 1 x_r0_g77 - 1 x_r0_g101 - 1 x_r0_g110 - 2 x_r0_g111 - 1 x_r0_g112 - 2 x_r0_g116 - 1 x_r0_g117 - 1 x_r0_g125 - 1 x_r0_g132 - 1 x_r0_g137 - 1 x_r0_g139 - 1 x_r0_g156 - 1 x_r0_g162 - 1 x_r0_g163 - 1 x_r1_g0 - 1 x_r1_g16 - 1 x_r1_g19 - 2 x_r1_g20 - 1 x_r1_g28 - 1 x_r1_g35 - 1 x_r1_g36 - 2 x_r1_g38 - 1 x_r1_g45 - 1 x_r1_g46 - 1 x_r1_g58 - 2 x_r1_g64 - 1 x_r1_g78 - 2 x_r1_g89 - 1 x_r1_g91 - 1 x_r1_g92 - 1 x_r1_g98 - 2 x_r1_g114 - 2 x_r1_g128 - 1 x_r1_g130 - 1 x_r1_g131 - 2 x_r1_g157 - 1 x_r1_g164 - 1 x_r2_g7 - 1 x_r2_g14 - 1 x_r2_g29 - 1 x_r2_g33 - 2 x_r2_g34 - 1 x_r2_g35 - 1 x_r2_g41 - 1 x_r2_g47 - 1 x_r2_g61 - 1 x_r2_g75 - 2 x_r2_g80 - 1 x_r2_g85 - 1 x_r2_g87 - 1 x_r2_g91 - 1 x_r2_g111 - 2 x_r2_g114 - 1 x_r2_g116 - 1 x_r2_g118 - 1 x_r2_g119 - 1 x_r2_g138 - 2 x_r2_g139 - 1 x_r2_g146 - 1 x_r2_g149 - 1 x_r2_g151 - 1 x_r2_g161 - 1 x_r2_g166 - 2 x_r3_g27 - 1 x_r3_g29 - 1 x_r3_g44 - 1 x_r3_g49 - 1 x_r3_g54 - 1 x_r3_g61 - 1 x_r3_g63 - 1 x_r3_g77 - 1 x_r3_g80 - 2 x_r3_g89 - 1 x_r3_g99 - 1 x_r3_g108 - 1 x_r3_g115 - 1 x_r3_g124 - 1 x_r3_g125 - 1 x_r3_g131 - 1 x_r3_g136 - 1 x_r3_g146 - 1 x_r3_g150 - 1 x_r3_g160 - 1 p_r0_g44_h162_t49 - 1 p_r0_g54_h5_t49 - 1 p_r0_g74_h25_t49 - 1 p_r0_g88_h39_t49 - 1 p_r0_g95_h46_t49 - 1 p_r0_g115_h66_t49 - 1 p_r0_g137_h88_t49 - 1 p_r0_g144_h95_t49 - 1 p_r1_g42_h160_t49 - 1 p_r1_g46_h164_t49 - 1 p_r1_g76_h27_t49 - 1 p_r1_g77_h28_t49 - 1 p_r1_g78_h29_t49 - 1 p_r1_g91_h42_t49 - 1 p_r1_g92_h43_t49 - 1 p_r1_g94_h45_t49 - 1 p_r1_g126_h77_t49 - 1 p_r1_g165_h116_t49 - 1 p_r2_g7_h125_t49 - 1 p_r2_g33_h151_t49 - 1 p_r2_g63_h14_t49 - 1 p_r2_g76_h27_t49 - 1 p_r2_g84_h35_t49 - 1 p_r2_g106_h57_t49 - 1 p_r2_g112_h63_t49 - 1 p_r2_g125_h76_t49 - 1 p_r2_g133_h84_t49 - 1 p_r2_g161_h112_t49 - 1 p_r3_g4_h122_t49 - 1 p_r3_g6_h124_t49 - 1 p_r3_g21_h139_t49 - 1 p_r3_g23_h141_t49 - 1 p_r3_g31_h149_t49 - 1 p_r3_g53_h4_t49 - 1 p_r3_g55_h6_t49 - 1 p_r3_g61_h12_t49 - 1 p_r3_g80_h31_t49 - 1 p_r3_g84_h35_t49 - 1 p_r3_g131_h82_t49 - 1 p_r3_g132_h83_t49 - 1 p_r3_g146_h97_t49 = -90
 abs_pos_49: d_49 - u_49 <= 0
 abs_neg_49: - d_49 - u_49 <= 0
 max_def_49: u_49 - M <= 0
 cap_49: u_49 <= 3
 lin1_70_0_13: p_r0_g13_h110_t70 - x_r0_g13 <= 0
 lin2_70_0_13: p_r0_g13_h110_t70 - x_r0_g110 <= 0
 lin3_70_0_13: p_r0_g13_h110_t70 - x_r0_g13 - x_r0_g110 >= -1
 lin1_70_0_35: p_r0_g35_h132_t70 - x_r0_g35 <= 0
 lin2_70_0_35: p_r0_g35_h132_t70 - x_r0_g132 <= 0
 lin3_70_0_35: p_r0_g35_h132_t70 - x_r0_g35 - x_r0_g132 >= -1
 lin1_70_0_39: p_r0_g39_h136_t70 - x_r0_g39 <= 0
 lin2_70_0_39: p_r0_g39_h136_t70 - x_r0_g136 <= 0
 lin3_70_0_39: p_r0_g39_h136_t70 - x_r0_g39 - x_r0_g136 >= -1
 lin1_70_0_40: p_r0_g40_h137_t70 - x_r0_g40 <= 0
 lin2_70_0_40: p_r0_g40_h137_t70 - x_r0_g137 <= 0
 lin3_70_0_40: p_r0_g40_h137_t70 - x_r0_g40 - x_r0_g137 >= -1
 lin1_70_0_47: p_r0_g47_h144_t70 - x_r0_g47 <= 0
 lin2_70_0_47: p_r0_g47_h144_t70 - x_r0_g144 <= 0
 lin3_70_0_47: p_r0_g47_h144_t70 - x_r0_g47 - x_r0_g144 >= -1
 lin1_70_0_66: p_r0_g66_h163_t70 - x_r0_g66 <= 0
 lin2_70_0_66: p_r0_g66_h163_t70 - x_r0_g163 <= 0
 lin3_70_0_66: p_r0_g66_h163_t70 - x_r0_g66 - x_r0_g163 >= -1
 lin1_70_0_95: p_r0_g95_h25_t70 - x_r0_g95 <= 0
 lin2_70_0_95: p_r0_g95_h25_t70 - x_r0_g25 <= 0
 lin3_70_0_95: p_r0_g95_h25_t70 - x_r0_g95 - x_r0_g25 >= -1
 lin1_70_0_110: p_r0_g110_h40_t70 - x_r0_g110 <= 0
 lin2_70_0_110: p_r0_g110_h40_t70 - x_r0_g40 <= 0
 lin3_70_0_110: p_r0_g110_h40_t70 - x_r0_g110 - x_r0_g40 >= -1
 lin1_70_0_116: p_r0_g116_h46_t70 - x_r0_g116 <= 0
 lin2_70_0_116: p_r0_g116_h46_t70 - x_r0_g46 <= 0
 lin3_70_0_116: p_r0_g116_h46_t70 - x_r0_g116 - x_r0_g46 >= -1
 lin1_70_0_117: p_r0_g117_h47_t70 - x_r0_g117 <= 0
 lin2_70_0_117: p_r0_g117_h47_t70 - x_r0_g47 <= 0
 lin3_70_0_117: p_r0_g117_h47_t70 - x_r0_g117 - x_r0_g47 >= -1
 lin1_70_0_136: p_r0_g136_h66_t70 - x_r0_g136 <= 0
 lin2_70_0_136: p_r0_g136_h66_t70 - x_r0_g66 <= 0
 lin3_70_0_136: p_r0_g136_h66_t70 - x_r0_g136 - x_r0_g66 >= -1
 lin1_70_0_144: p_r0_g144_h74_t70 - x_r0_g144 <= 0
 lin2_70_0_144: p_r0_g144_h74_t70 - x_r0_g74 <= 0
 lin3_70_0_144: p_r0_g144_h74_t70 - x_r0_g144 - x_r0_g74 >= -1
 lin1_70_1_19: p_r1_g19_h116_t70 - x_r1_g19 <= 0
 lin2_70_1_19: p_r1_g19_h116_t70 - x_r1_g116 <= 0
 lin3_70_1_19: p_r1_g19_h116_t70 - x_r1_g19 - x_r1_g116 >= -1
 lin1_70_1_29: p_r1_g29_h126_t70 - x_r1_g29 <= 0
 lin2_70_1_29: p_r1_g29_h126_t70 - x_r1_g126 <= 0
 lin3_70_1_29: p_r1_g29_h126_t70 - x_r1_g29 - x_r1_g126 >= -1
 lin1_70_1_38: p_r1_g38_h135_t70 - x_r1_g38 <= 0
 lin2_70_1_38: p_r1_g38_h135_t70 - x_r1_g135 <= 0
 lin3_70_1_38: p_r1_g38_h135_t70 - x_r1_g38 - x_r1_g135 >= -1
 lin1_70_1_89: p_r1_g89_h19_t70 - x_r1_g89 <= 0
 lin2_70_1_89: p_r1_g89_h19_t70 - x_r1_g19 <= 0
 lin3_70_1_89: p_r1_g89_h19_t70 - x_r1_g89 - x_r1_g19 >= -1
 lin1_70_1_98: p_r1_g98_h28_t70 - x_r1_g98 <= 0
 lin2_70_1_98: p_r1_g98_h28_t70 - x_r1_g28 <= 0
 lin3_70_1_98: p_r1_g98_h28_t70 - x_r1_g98 - x_r1_g28 >= -1
 lin1_70_1_99: p_r1_g99_h29_t70 - x_r1_g99 <= 0
 lin2_70_1_99: p_r1_g99_h29_t70 - x_r1_g29 <= 0
 lin3_70_1_99: p_r1_g99_h29_t70 - x_r1_g99 - x_r1_g29 >= -1
 lin1_70_1_114: p_r1_g114_h44_t70 - x_r1_g114 <= 0
 lin2_70_1_114: p_r1_g114_h44_t70 - x_r1_g44 <= 0
 lin3_70_1_114: p_r1_g114_h44_t70 - x_r1_g114 - x_r1_g44 >= -1
 lin1_70_1_116: p_r1_g116_h46_t70 - x_r1_g116 <= 0
 lin2_70_1_116: p_r1_g116_h46_t70 - x_r1_g46 <= 0
 lin3_70_1_116: p_r1_g116_h46_t70 - x_r1_g116 - x_r1_g46 >= -1
 lin1_70_1_128: p_r1_g128_h58_t70 - x_r1_g128 <= 0
 lin2_70_1_128: p_r1_g128_h58_t70 - x_r1_g58 <= 0
 lin3_70_1_128: p_r1_g128_h58_t70 - x_r1_g128 - x_r1_g58 >= -1
 lin1_70_1_164: p_r1_g164_h94_t70 - x_r1_g164 <= 0
 lin2_70_1_164: p_r1_g164_h94_t70 - x_r1_g94 <= 0
 lin3_70_1_164: p_r1_g164_h94_t70 - x_r1_g164 - x_r1_g94 >= -1
 lin1_70_2_14: p_r2_g14_h111_t70 - x_r2_g14 <= 0
 lin2_70_2_14: p_r2_g14_h111_t70 - x_r2_g111 <= 0
 lin3_70_2_14: p_r2_g14_h111_t70 - x_r2_g14 - x_r2_g111 >= -1
 lin1_70_2_17: p_r2_g17_h114_t70 - x_r2_g17 <= 0
 lin2_70_2_17: p_r2_g17_h114_t70 - x_r2_g114 <= 0
 lin3_70_2_17: p_r2_g17_h114_t70 - x_r2_g17 - x_r2_g114 >= -1
 lin1_70_2_41: p_r2_g41_h138_t70 - x_r2_g41 <= 0
 lin2_70_2_41: p_r2_g41_h138_t70 - x_r2_g138 <= 0
 lin3_70_2_41: p_r2_g41_h138_t70 - x_r2_g41 - x_r2_g138 >= -1
 lin1_70_2_84: p_r2_g84_h14_t70 - x_r2_g84 <= 0
 lin2_70_2_84: p_r2_g84_h14_t70 - x_r2_g14 <= 0
 lin3_70_2_84: p_r2_g84_h14_t70 - x_r2_g84 - x_r2_g14 >= -1
 lin1_70_2_87: p_r2_g87_h17_t70 - x_r2_g87 <= 0
 lin2_70_2_87: p_r2_g87_h17_t70 - x_r2_g17 <= 0
 lin3_70_2_87: p_r2_g87_h17_t70 - x_r2_g87 - x_r2_g17 >= -1
 lin1_70_2_111: p_r2_g111_h41_t70 - x_r2_g111 <= 0
 lin2_70_2_111: p_r2_g111_h41_t70 - x_r2_g41 <= 0
 lin3_70_2_111: p_r2_g111_h41_t70 - x_r2_g111 - x_r2_g41 >= -1
 lin1_70_2_133: p_r2_g133_h63_t70 - x_r2_g133 <= 0
 lin2_70_2_133: p_r2_g133_h63_t70 - x_r2_g63 <= 0
 lin3_70_2_133: p_r2_g133_h63_t70 - x_r2_g133 - x_r2_g63 >= -1
 lin1_70_2_146: p_r2_g146_h76_t70 - x_r2_g146 <= 0
 lin2_70_2_146: p_r2_g146_h76_t70 - x_r2_g76 <= 0
 lin3_70_2_146: p_r2_g146_h76_t70 - x_r2_g146 - x_r2_g76 >= -1
 lin1_70_2_161: p_r2_g161_h91_t70 - x_r2_g161 <= 0
 lin2_70_2_161: p_r2_g161_h91_t70 - x_r2_g91 <= 0
 lin3_70_2_161: p_r2_g161_h91_t70 - x_r2_g161 - x_r2_g91 >= -1
 lin1_70_3_27: p_r3_g27_h124_t70 - x_r3_g27 <= 0
 lin2_70_3_27: p_r3_g27_h124_t70 - x_r3_g124 <= 0
 lin3_70_3_27: p_r3_g27_h124_t70 - x_r3_g27 - x_r3_g124 >= -1
 lin1_70_3_35: p_r3_g35_h132_t70 - x_r3_g35 <= 0
 lin2_70_3_35: p_r3_g35_h132_t70 - x_r3_g132 <= 0
 lin3_70_3_35: p_r3_g35_h132_t70 - x_r3_g35 - x_r3_g132 >= -1
 lin1_70_3_44: p_r3_g44_h141_t70 - x_r3_g44 <= 0
 lin2_70_3_44: p_r3_g44_h141_t70 - x_r3_g141 <= 0
 lin3_70_3_44: p_r3_g44_h141_t70 - x_r3_g44 - x_r3_g141 >= -1
 lin1_70_3_49: p_r3_g49_h146_t70 - x_r3_g49 <= 0
 lin2_70_3_49: p_r3_g49_h146_t70 - x_r3_g146 <= 0
 lin3_70_3_49: p_r3_g49_h146_t70 - x_r3_g49 - x_r3_g146 >= -1
 lin1_70_3_53: p_r3_g53_h150_t70 - x_r3_g53 <= 0
 lin2_70_3_53: p_r3_g53_h150_t70 - x_r3_g150 <= 0
 lin3_70_3_53: p_r3_g53_h150_t70 - x_r3_g53 - x_r3_g150 >= -1
 lin1_70_3_55: p_r3_g55_h152_t70 - x_r3_g55 <= 0
 lin2_70_3_55: p_r3_g55_h152_t70 - x_r3_g152 <= 0
 lin3_70_3_55: p_r3_g55_h152_t70 - x_r3_g55 - x_r3_g152 >= -1
 lin1_70_3_63: p_r3_g63_h160_t70 - x_r3_g63 <= 0
 lin2_70_3_63: p_r3_g63_h160_t70 - x_r3_g160 <= 0
 lin3_70_3_63: p_r3_g63_h160_t70 - x_r3_g63 - x_r3_g160 >= -1
 lin1_70_3_82: p_r3_g82_h12_t70 - x_r3_g82 <= 0
 lin2_70_3_82: p_r3_g82_h12_t70 - x_r3_g12 <= 0
 lin3_70_3_82: p_r3_g82_h12_t70 - x_r3_g82 - x_r3_g12 >= -1
 lin1_70_3_97: p_r3_g97_h27_t70 - x_r3_g97 <= 0
 lin2_70_3_97: p_r3_g97_h27_t70 - x_r3_g27 <= 0
 lin3_70_3_97: p_r3_g97_h27_t70 - x_r3_g97 - x_r3_g27 >= -1
 lin1_70_3_99: p_r3_g99_h29_t70 - x_r3_g99 <= 0
 lin2_70_3_99: p_r3_g99_h29_t70 - x_r3_g29 <= 0
 lin3_70_3_99: p_r3_g99_h29_t70 - x_r3_g99 - x_r3_g29 >= -1
 lin1_70_3_124: p_r3_g124_h54_t70 - x_r3_g124 <= 0
 lin2_70_3_124: p_r3_g124_h54_t70 - x_r3_g54 <= 0
 lin3_70_3_124: p_r3_g124_h54_t70 - x_r3_g124 - x_r3_g54 >= -1
 lin1_70_3_125: p_r3_g125_h55_t70 - x_r3_g125 <= 0
 lin2_70_3_125: p_r3_g125_h55_t70 - x_r3_g55 <= 0
 lin3_70_3_125: p_r3_g125_h55_t70 - x_r3_g125 - x_r3_g55 >= -1
 lin1_70_3_131: p_r3_g131_h61_t70 - x_r3_g131 <= 0
 lin2_70_3_131: p_r3_g131_h61_t70 - x_r3_g61 <= 0
 lin3_70_3_131: p_r3_g131_h61_t70 - x_r3_g131 - x_r3_g61 >= -1
 lin1_70_3_150: p_r3_g150_h80_t70 - x_r3_g150 <= 0
 lin2_70_3_150: p_r3_g150_h80_t70 - x_r3_g80 <= 0
 lin3_70_3_150: p_r3_g150_h80_t70 - x_r3_g150 - x_r3_g80 >= -1
 lin1_70_3_152: p_r3_g152_h82_t70 - x_r3_g152 <= 0
 lin2_70_3_152: p_r3_g152_h82_t70 - x_r3_g82 <= 0
 lin3_70_3_152: p_r3_g152_h82_t70 - x_r3_g152 - x_r3_g82 >= -1
 defect_70: 1 d_70 - 1 x_r0_g5 - 1 x_r0_g6 - 1 x_r0_g16 - 1 x_r0_g23 - 1 x_r0_g25 - 1 x_r0_g46 - 2 x_r0_g49 - 1 x_r0_g50 - 1 x_r0_g54 - 2 x_r0_g73 - 1 x_r0_g77 - 1 x_r0_g88 - 1 x_r0_g95 - 1 x_r0_g111 - 2 x_r0_g112 - 1 x_r0_g115 - 1 x_r0_g116 - 1 x_r0_g117 - 1 x_r0_g125 - 1 x_r0_g128 - 1 x_r0_g132 - 2 x_r0_g135 - 1 x_r0_g137 - 1 x_r0_g139 - 2 x_r0_g140 - 1 x_r0_g156 - 1 x_r0_g162 - 1 x_r1_g0 - 1 x_r1_g16 - 1 x_r1_g20 - 1 x_r1_g27 - 1 x_r1_g35 - 1 x_r1_g38 - 1 x_r1_g42 - 2 x_r1_g43 - 1 x_r1_g44 - 1 x_r1_g45 - 1 x_r1_g58 - 2 x_r1_g71 - 1 x_r1_g76 - 1 x_r1_g89 - 1 x_r1_g98 - 1 x_r1_g101 - 1 x_r1_g126 - 1 x_r1_g128 - 1 x_r1_g135 - 1 x_r1_g157 - 1 x_r1_g160 - 2 x_r1_g165 - 1 x_r2_g7 - 2 x_r2_g13 - 1 x_r2_g29 - 1 x_r2_g33 - 1 x_r2_g34 - 2 x_r2_g35 - 2 x_r2_g51 - 1 x_r2_g57 - 1 x_r2_g61 - 1 x_r2_g63 - 1 x_r2_g80 - 1 x_r2_g87 - 1 x_r2_g91 - 1 x_r2_g93 - 1 x_r2_g116 - 2 x_r2_g118 - 1 x_r2_g119 - 1 x_r2_g125 - 1 x_r2_g138 - 1 x_r2_g146 - 1 x_r2_g161 - 1 x_r3_g4 - 1 x_r3_g6 - 1 x_r3_g21 - 1 x_r3_g31 - 1 x_r3_g49 - 1 x_r3_g53 - 1 x_r3_g54 - 1 x_r3_g83 - 1 x_r3_g84 - 1 x_r3_g89 - 1 x_r3_g99 - 1 x_r3_g107 - 1 x_r3_g108 - 2 x_r3_g115 - 1 x_r3_g125 - 1 x_r3_g132 - 2 x_r3_g136 - 1 x_r3_g146 - 1 p_r0_g13_h110_t70 - 1 p_r0_g35_h132_t70 - 1 p_r0_g39_h136_t70 - 1 p_r0_g40_h137_t70 - 1 p_r0_g47_h144_t70 - 1 p_r0_g66_h163_t70 - 1 p_r0_g95_h25_t70 - 1 p_r0_g110_h40_t70 - 1 p_r0_g116_h46_t70 - 1 p_r0_g117_h47_t70 - 1 p_r0_g136_h66_t70 - 1 p_r0_g144_h74_t70 - 1 p_r1_g19_h116_t70 - 1 p_r1_g29_h126_t70 - 1 p_r1_g38_h135_t70 - 1 p_r1_g89_h19_t70 - 1 p_r1_g98_h28_t70 - 1 p_r1_g99_h29_t70 - 1 p_r1_g114_h44_t70 - 1 p_r1_g116_h46_t70 - 1 p_r1_g128_h58_t70 - 1 p_r1_g164_h94_t70 - 1 p_r2_g14_h111_t70 - 1 p_r2_g17_h114_t70 - 1 p_r2_g41_h138_t70 - 1 p_r2_g84_h14_t70 - 1 p_r2_g87_h17_t70 - 1 p_r2_g111_h41_t70 - 1 p_r2_g133_h63_t70 - 1 p_r2_g146_h76_t70 - 1 p_r2_g161_h91_t70 - 1 p_r3_g27_h124_t70 - 1 p_r3_g35_h132_t70 - 1 p_r3_g44_h141_t70 - 1 p_r3_g49_h146_t70 - 1 p_r3_g53_h150_t70 - 1 p_r3_g55_h152_t70 - 1 p_r3_g63_h160_t70 - 1 p_r3_g82_h12_t70 - 1 p_r3_g97_h27_t70 - 1 p_r3_g99_h29_t70 - 1 p_r3_g124_h54_t70 - 1 p_r3_g125_h55_t70 - 1 p_r3_g131_h61_t70 - 1 p_r3_g150_h80_t70 - 1 p_r3_g152_h82_t70 = -50
 abs_pos_70: d_70 - u_70 <= 0
 abs_neg_70: - d_70 - u_70 <= 0
 max_def_70: u_70 - M <= 0
 cap_70: u_70 <= 2
 lin1_71_0_5: p_r0_g5_h101_t71 - x_r0_g5 <= 0
 lin2_71_0_5: p_r0_g5_h101_t71 - x_r0_g101 <= 0
 lin3_71_0_5: p_r0_g5_h101_t71 - x_r0_g5 - x_r0_g101 >= -1
 lin1_71_0_16: p_r0_g16_h112_t71 - x_r0_g16 <= 0
 lin2_71_0_16: p_r0_g16_h112_t71 - x_r0_g112 <= 0
 lin3_71_0_16: p_r0_g16_h112_t71 - x_r0_g16 - x_r0_g112 >= -1
 lin1_71_0_39: p_r0_g39_h135_t71 - x_r0_g39 <= 0
 lin2_71_0_39: p_r0_g39_h135_t71 - x_r0_g135 <= 0
 lin3_71_0_39: p_r0_g39_h135_t71 - x_r0_g39 - x_r0_g135 >= -1
 lin1_71_0_40: p_r0_g40_h136_t71 - x_r0_g40 <= 0
 lin2_71_0_40: p_r0_g40_h136_t71 - x_r0_g136 <= 0
 lin3_71_0_40: p_r0_g40_h136_t71 - x_r0_g40 - x_r0_g136 >= -1
 lin1_71_0_44: p_r0_g44_h140_t71 - x_r0_g44 <= 0
 lin2_71_0_44: p_r0_g44_h140_t71 - x_r0_g140 <= 0
 lin3_71_0_44: p_r0_g44_h140_t71 - x_r0_g44 - x_r0_g140 >= -1
 lin1_71_0_66: p_r0_g66_h162_t71 - x_r0_g66 <= 0
 lin2_71_0_66: p_r0_g66_h162_t71 - x_r0_g162 <= 0
 lin3_71_0_66: p_r0_g66_h162_t71 - x_r0_g66 - x_r0_g162 >= -1
 lin1_71_0_77: p_r0_g77_h6_t71 - x_r0_g77 <= 0
 lin2_71_0_77: p_r0_g77_h6_t71 - x_r0_g6 <= 0
 lin3_71_0_77: p_r0_g77_h6_t71 - x_r0_g77 - x_r0_g6 >= -1
 lin1_71_0_110: p_r0_g110_h39_t71 - x_r0_g110 <= 0
 lin2_71_0_110: p_r0_g110_h39_t71 - x_r0_g39 <= 0
 lin3_71_0_110: p_r0_g110_h39_t71 - x_r0_g110 - x_r0_g39 >= -1
 lin1_71_0_111: p_r0_g111_h40_t71 - x_r0_g111 <= 0
 lin2_71_0_111: p_r0_g111_h40_t71 - x_r0_g40 <= 0
 lin3_71_0_111: p_r0_g111_h40_t71 - x_r0_g111 - x_r0_g40 >= -1
 lin1_71_0_115: p_r0_g115_h44_t71 - x_r0_g115 <= 0
 lin2_71_0_115: p_r0_g115_h44_t71 - x_r0_g44 <= 0
 lin3_71_0_115: p_r0_g115_h44_t71 - x_r0_g115 - x_r0_g44 >= -1
 lin1_71_0_117: p_r0_g117_h46_t71 - x_r0_g117 <= 0
 lin2_71_0_117: p_r0_g117_h46_t71 - x_r0_g46 <= 0
 lin3_71_0_117: p_r0_g117_h46_t71 - x_r0_g117 - x_r0_g46 >= -1
 lin1_71_0_125: p_r0_g125_h54_t71 - x_r0_g125 <= 0
 lin2_71_0_125: p_r0_g125_h54_t71 - x_r0_g54 <= 0
 lin3_71_0_125: p_r0_g125_h54_t71 - x_r0_g125 - x_r0_g54 >= -1
 lin1_71_0_137: p_r0_g137_h66_t71 - x_r0_g137 <= 0
 lin2_71_0_137: p_r0_g137_h66_t71 - x_r0_g66 <= 0
 lin3_71_0_137: p_r0_g137_h66_t71 - x_r0_g137 - x_r0_g66 >= -1
 lin1_71_0_144: p_r0_g144_h73_t71 - x_r0_g144 <= 0
 lin2_71_0_144: p_r0_g144_h73_t71 - x_r0_g73 <= 0
 lin3_71_0_144: p_r0_g144_h73_t71 - x_r0_g144 - x_r0_g73 >= -1
 lin1_71_1_20: p_r1_g20_h116_t71 - x_r1_g20 <= 0
 lin2_71_1_20: p_r1_g20_h116_t71 - x_r1_g116 <= 0
 lin3_71_1_20: p_r1_g20_h116_t71 - x_r1_g20 - x_r1_g116 >= -1
 lin1_71_1_35: p_r1_g35_h131_t71 - x_r1_g35 <= 0
 lin2_71_1_35: p_r1_g35_h131_t71 - x_r1_g131 <= 0
 lin3_71_1_35: p_r1_g35_h131_t71 - x_r1_g35 - x_r1_g131 >= -1
 lin1_71_1_64: p_r1_g64_h160_t71 - x_r1_g64 <= 0
 lin2_71_1_64: p_r1_g64_h160_t71 - x_r1_g160 <= 0
 lin3_71_1_64: p_r1_g64_h160_t71 - x_r1_g64 - x_r1_g160 >= -1
 lin1_71_1_71: p_r1_g71_h0_t71 - x_r1_g71 <= 0
 lin2_71_1_71: p_r1_g71_h0_t71 - x_r1_g0 <= 0
 lin3_71_1_71: p_r1_g71_h0_t71 - x_r1_g71 - x_r1_g0 >= -1
 lin1_71_1_91: p_r1_g91_h20_t71 - x_r1_g91 <= 0
 lin2_71_1_91: p_r1_g91_h20_t71 - x_r1_g20 <= 0
 lin3_71_1_91: p_r1_g91_h20_t71 - x_r1_g91 - x_r1_g20 >= -1
 lin1_71_1_98: p_r1_g98_h27_t71 - x_r1_g98 <= 0
 lin2_71_1_98: p_r1_g98_h27_t71 - x_r1_g27 <= 0
 lin3_71_1_98: p_r1_g98_h27_t71 - x_r1_g98 - x_r1_g27 >= -1
 lin1_71_1_99: p_r1_g99_h28_t71 - x_r1_g99 <= 0
 lin2_71_1_99: p_r1_g99_h28_t71 - x_r1_g28 <= 0
 lin3_71_1_99: p_r1_g99_h28_t71 - x_r1_g99 - x_r1_g28 >= -1
 lin1_71_1_114: p_r1_g114_h43_t71 - x_r1_g114 <= 0
 lin2_71_1_114: p_r1_g114_h43_t71 - x_r1_g43 <= 0
 lin3_71_1_114: p_r1_g114_h43_t71 - x_r1_g114 - x_r1_g43 >= -1
 lin1_71_1_116: p_r1_g116_h45_t71 - x_r1_g116 <= 0
 lin2_71_1_116: p_r1_g116_h45_t71 - x_r1_g45 <= 0
 lin3_71_1_116: p_r1_g116_h45_t71 - x_r1_g116 - x_r1_g45 >= -1
 lin1_71_1_135: p_r1_g135_h64_t71 - x_r1_g135 <= 0
 lin2_71_1_135: p_r1_g135_h64_t71 - x_r1_g64 <= 0
 lin3_71_1_135: p_r1_g135_h64_t71 - x_r1_g135 - x_r1_g64 >= -1
 lin1_71_1_160: p_r1_g160_h89_t71 - x_r1_g160 <= 0
 lin2_71_1_160: p_r1_g160_h89_t71 - x_r1_g89 <= 0
 lin3_71_1_160: p_r1_g160_h89_t71 - x_r1_g160 - x_r1_g89 >= -1
 lin1_71_1_165: p_r1_g165_h94_t71 - x_r1_g165 <= 0
 lin2_71_1_165: p_r1_g165_h94_t71 - x_r1_g94 <= 0
 lin3_71_1_165: p_r1_g165_h94_t71 - x_r1_g165 - x_r1_g94 >= -1
 lin1_71_2_29: p_r2_g29_h125_t71 - x_r2_g29 <= 0
 lin2_71_2_29: p_r2_g29_h125_t71 - x_r2_g125 <= 0
 lin3_71_2_29: p_r2_g29_h125_t71 - x_r2_g29 - x_r2_g125 >= -1
 lin1_71_2_84: p_r2_g84_h13_t71 - x_r2_g84 <= 0
 lin2_71_2_84: p_r2_g84_h13_t71 - x_r2_g13 <= 0
 lin3_71_2_84: p_r2_g84_h13_t71 - x_r2_g84 - x_r2_g13 >= -1
 lin1_71_2_85: p_r2_g85_h14_t71 - x_r2_g85 <= 0
 lin2_71_2_85: p_r2_g85_h14_t71 - x_r2_g14 <= 0
 lin3_71_2_85: p_r2_g85_h14_t71 - x_r2_g85 - x_r2_g14 >= -1
 lin1_71_2_106: p_r2_g106_h35_t71 - x_r2_g106 <= 0
 lin2_71_2_106: p_r2_g106_h35_t71 - x_r2_g35 <= 0
 lin3_71_2_106: p_r2_g106_h35_t71 - x_r2_g106 - x_r2_g35 >= -1
 lin1_71_2_112: p_r2_g112_h41_t71 - x_r2_g112 <= 0
 lin2_71_2_112: p_r2_g112_h41_t71 - x_r2_g41 <= 0
 lin3_71_2_112: p_r2_g112_h41_t71 - x_r2_g112 - x_r2_g41 >= -1
 lin1_71_2_118: p_r2_g118_h47_t71 - x_r2_g118 <= 0
 lin2_71_2_118: p_r2_g118_h47_t71 - x_r2_g47 <= 0
 lin3_71_2_118: p_r2_g118_h47_t71 - x_r2_g118 - x_r2_g47 >= -1
 lin1_71_2_146: p_r2_g146_h75_t71 - x_r2_g146 <= 0
 lin2_71_2_146: p_r2_g146_h75_t71 - x_r2_g75 <= 0
 lin3_71_2_146: p_r2_g146_h75_t71 - x_r2_g146 - x_r2_g75 >= -1
 lin1_71_2_151: p_r2_g151_h80_t71 - x_r2_g151 <= 0
 lin2_71_2_151: p_r2_g151_h80_t71 - x_r2_g80 <= 0
 lin3_71_2_151: p_r2_g151_h80_t71 - x_r2_g151 - x_r2_g80 >= -1
 lin1_71_3_12: p_r3_g12_h108_t71 - x_r3_g12 <= 0
 lin2_71_3_12: p_r3_g12_h108_t71 - x_r3_g108 <= 0
 lin3_71_3_12: p_r3_g12_h108_t71 - x_r3_g12 - x_r3_g108 >= -1
 lin1_71_3_29: p_r3_g29_h125_t71 - x_r3_g29 <= 0
 lin2_71_3_29: p_r3_g29_h125_t71 - x_r3_g125 <= 0
 lin3_71_3_29: p_r3_g29_h125_t71 - x_r3_g29 - x_r3_g125 >= -1
 lin1_71_3_35: p_r3_g35_h131_t71 - x_r3_g35 <= 0
 lin2_71_3_35: p_r3_g35_h131_t71 - x_r3_g131 <= 0
 lin3_71_3_35: p_r3_g35_h131_t71 - x_r3_g35 - x_r3_g131 >= -1
 lin1_71_3_53: p_r3_g53_h149_t71 - x_r3_g53 <= 0
 lin2_71_3_53: p_r3_g53_h149_t71 - x_r3_g149 <= 0
 lin3_71_3_53: p_r3_g53_h149_t71 - x_r3_g53 - x_r3_g149 >= -1
 lin1_71_3_54: p_r3_g54_h150_t71 - x_r3_g54 <= 0
 lin2_71_3_54: p_r3_g54_h150_t71 - x_r3_g150 <= 0
 lin3_71_3_54: p_r3_g54_h150_t71 - x_r3_g54 - x_r3_g150 >= -1
 lin1_71_3_77: p_r3_g77_h6_t71 - x_r3_g77 <= 0
 lin2_71_3_77: p_r3_g77_h6_t71 - x_r3_g6 <= 0
 lin3_71_3_77: p_r3_g77_h6_t71 - x_r3_g77 - x_r3_g6 >= -1
 lin1_71_3_83: p_r3_g83_h12_t71 - x_r3_g83 <= 0
 lin2_71_3_83: p_r3_g83_h12_t71 - x_r3_g12 <= 0
 lin3_71_3_83: p_r3_g83_h12_t71 - x_r3_g83 - x_r3_g12 >= -1
 lin1_71_3_115: p_r3_g115_h44_t71 - x_r3_g115 <= 0
 lin2_71_3_115: p_r3_g115_h44_t71 - x_r3_g44 <= 0
 lin3_71_3_115: p_r3_g115_h44_t71 - x_r3_g115 - x_r3_g44 >= -1
 lin1_71_3_124: p_r3_g124_h53_t71 - x_r3_g124 <= 0
 lin2_71_3_124: p_r3_g124_h53_t71 - x_r3_g53 <= 0
 lin3_71_3_124: p_r3_g124_h53_t71 - x_r3_g124 - x_r3_g53 >= -1
 lin1_71_3_125: p_r3_g125_h54_t71 - x_r3_g125 <= 0
 lin2_71_3_125: p_r3_g125_h54_t71 - x_r3_g54 <= 0
 lin3_71_3_125: p_r3_g125_h54_t71 - x_r3_g125 - x_r3_g54 >= -1
 lin1_71_3_132: p_r3_g132_h61_t71 - x_r3_g132 <= 0
 lin2_71_3_132: p_r3_g132_h61_t71 - x_r3_g61 <= 0
 lin3_71_3_132: p_r3_g132_h61_t71 - x_r3_g132 - x_r3_g61 >= -1
 lin1_71_3_160: p_r3_g160_h89_t71 - x_r3_g160 <= 0
 lin2_71_3_160: p_r3_g160_h89_t71 - x_r3_g89 <= 0
 lin3_71_3_160: p_r3_g160_h89_t71 - x_r3_g160 - x_r3_g89 >= -1
 defect_71: 1 d_71 - 1 x_r0_g6 - 1 x_r0_g23 - 2 x_r0_g35 - 1 x_r0_g46 - 2 x_r0_g47 - 1 x_r0_g49 - 1 x_r0_g50 - 1 x_r0_g74 - 1 x_r0_g88 - 1 x_r0_g101 - 1 x_r0_g110 - 1 x_r0_g111 - 1 x_r0_g115 - 2 x_r0_g116 - 1 x_r0_g132 - 1 x_r0_g136 - 2 x_r0_g139 - 1 x_r0_g144 - 1 x_r0_g163 - 1 x_r1_g0 - 2 x_r1_g16 - 2 x_r1_g19 - 1 x_r1_g27 - 1 x_r1_g28 - 1 x_r1_g29 - 2 x_r1_g36 - 1 x_r1_g38 - 2 x_r1_g42 - 2 x_r1_g44 - 1 x_r1_g45 - 1 x_r1_g58 - 1 x_r1_g89 - 1 x_r1_g92 - 1 x_r1_g99 - 1 x_r1_g114 - 2 x_r1_g128 - 1 x_r1_g135 - 1 x_r1_g164 - 1 x_r1_g165 - 1 x_r2_g7 - 1 x_r2_g14 - 1 x_r2_g17 - 1 x_r2_g27 - 2 x_r2_g33 - 2 x_r2_g34 - 1 x_r2_g41 - 1 x_r2_g51 - 2 x_r2_g57 - 2 x_r2_g61 - 1 x_r2_g63 - 1 x_r2_g75 - 1 x_r2_g87 - 1 x_r2_g91 - 2 x_r2_g114 - 1 x_r2_g116 - 1 x_r2_g119 - 2 x_r2_g139 - 1 x_r2_g149 - 2 x_r2_g161 - 1 x_r3_g4 - 2 x_r3_g23 - 2 x_r3_g27 - 1 x_r3_g31 - 1 x_r3_g35 - 1 x_r3_g44 - 1 x_r3_g49 - 1 x_r3_g55 - 1 x_r3_g63 - 1 x_r3_g77 - 2 x_r3_g80 - 1 x_r3_g83 - 1 x_r3_g84 - 1 x_r3_g89 - 2 x_r3_g97 - 1 x_r3_g99 - 1 x_r3_g107 - 1 x_r3_g108 - 1 x_r3_g115 - 1 x_r3_g122 - 1 x_r3_g124 - 1 x_r3_g132 - 2 x_r3_g136 - 2 x_r3_g139 - 1 x_r3_g141 - 1 x_r3_g146 - 1 x_r3_g149 - 1 x_r3_g152 - 1 p_r0_g5_h101_t71 - 1 p_r0_g16_h112_t71 - 1 p_r0_g39_h135_t71 - 1 p_r0_g40_h136_t71 - 1 p_r0_g44_h140_t71 - 1 p_r0_g66_h162_t71 - 1 p_r0_g77_h6_t71 - 1 p_r0_g110_h39_t71 - 1 p_r0_g111_h40_t71 - 1 p_r0_g115_h44_t71 - 1 p_r0_g117_h46_t71 - 1 p_r0_g125_h54_t71 - 1 p_r0_g137_h66_t71 - 1 p_r0_g144_h73_t71 - 1 p_r1_g20_h116_t71 - 1 p_r1_g35_h131_t71 - 1 p_r1_g64_h160_t71 - 1 p_r1_g71_h0_t71 - 1 p_r1_g91_h20_t71 - 1 p_r1_g98_h27_t71 - 1 p_r1_g99_h28_t71 - 1 p_r1_g114_h43_t71 - 1 p_r1_g116_h45_t71 - 1 p_r1_g135_h64_t71 - 1 p_r1_g160_h89_t71 - 1 p_r1_g165_h94_t71 - 1 p_r2_g29_h125_t71 - 1 p_r2_g84_h13_t71 - 1 p_r2_g85_h14_t71 - 1 p_r2_g106_h35_t71 - 1 p_r2_g112_h41_t71 - 1 p_r2_g118_h47_t71 - 1 p_r2_g146_h75_t71 - 1 p_r2_g151_h80_t71 - 1 p_r3_g12_h108_t71 - 1 p_r3_g29_h125_t71 - 1 p_r3_g35_h131_t71 - 1 p_r3_g53_h149_t71 - 1 p_r3_g54_h150_t71 - 1 p_r3_g77_h6_t71 - 1 p_r3_g83_h12_t71 - 1 p_r3_g115_h44_t71 - 1 p_r3_g124_h53_t71 - 1 p_r3_g125_h54_t71 - 1 p_r3_g132_h61_t71 - 1 p_r3_g160_h89_t71 = -87
 abs_pos_71: d_71 - u_71 <= 0
 abs_neg_71: - d_71 - u_71 <= 0
 max_def_71: u_71 - M <= 0
 cap_71: u_71 <= 3
 lin1_73_0_16: p_r0_g16_h110_t73 - x_r0_g16 <= 0
 lin2_73_0_16: p_r0_g16_h110_t73 - x_r0_g110 <= 0
 lin3_73_0_16: p_r0_g16_h110_t73 - x_r0_g16 - x_r0_g110 >= -1
 lin1_73_0_23: p_r0_g23_h117_t73 - x_r0_g23 <= 0
 lin2_73_0_23: p_r0_g23_h117_t73 - x_r0_g117 <= 0
 lin3_73_0_23: p_r0_g23_h117_t73 - x_r0_g23 - x_r0_g117 >= -1
 lin1_73_0_46: p_r0_g46_h140_t73 - x_r0_g46 <= 0
 lin2_73_0_46: p_r0_g46_h140_t73 - x_r0_g140 <= 0
 lin3_73_0_46: p_r0_g46_h140_t73 - x_r0_g46 - x_r0_g140 >= -1
 lin1_73_0_50: p_r0_g50_h144_t73 - x_r0_g50 <= 0
 lin2_73_0_50: p_r0_g50_h144_t73 - x_r0_g144 <= 0
 lin3_73_0_50: p_r0_g50_h144_t73 - x_r0_g50 - x_r0_g144 >= -1
 lin1_73_0_112: p_r0_g112_h39_t73 - x_r0_g112 <= 0
 lin2_73_0_112: p_r0_g112_h39_t73 - x_r0_g39 <= 0
 lin3_73_0_112: p_r0_g112_h39_t73 - x_r0_g112 - x_r0_g39 >= -1
 lin1_73_0_117: p_r0_g117_h44_t73 - x_r0_g117 <= 0
 lin2_73_0_117: p_r0_g117_h44_t73 - x_r0_g44 <= 0
 lin3_73_0_117: p_r0_g117_h44_t73 - x_r0_g117 - x_r0_g44 >= -1
 lin1_73_0_139: p_r0_g139_h66_t73 - x_r0_g139 <= 0
 lin2_73_0_139: p_r0_g139_h66_t73 - x_r0_g66 <= 0
 lin3_73_0_139: p_r0_g139_h66_t73 - x_r0_g139 - x_r0_g66 >= -1
 lin1_73_1_0: p_r1_g0_h94_t73 - x_r1_g0 <= 0
 lin2_73_1_0: p_r1_g0_h94_t73 - x_r1_g94 <= 0
 lin3_73_1_0: p_r1_g0_h94_t73 - x_r1_g0 - x_r1_g94 >= -1
 lin1_73_1_20: p_r1_g20_h114_t73 - x_r1_g20 <= 0
 lin2_73_1_20: p_r1_g20_h114_t73 - x_r1_g114 <= 0
 lin3_73_1_20: p_r1_g20_h114_t73 - x_r1_g20 - x_r1_g114 >= -1
 lin1_73_1_36: p_r1_g36_h130_t73 - x_r1_g36 <= 0
 lin2_73_1_36: p_r1_g36_h130_t73 - x_r1_g130 <= 0
 lin3_73_1_36: p_r1_g36_h130_t73 - x_r1_g36 - x_r1_g130 >= -1
 lin1_73_1_71: p_r1_g71_h165_t73 - x_r1_g71 <= 0
 lin2_73_1_71: p_r1_g71_h165_t73 - x_r1_g165 <= 0
 lin3_73_1_71: p_r1_g71_h165_t73 - x_r1_g71 - x_r1_g165 >= -1
 lin1_73_1_89: p_r1_g89_h16_t73 - x_r1_g89 <= 0
 lin2_73_1_89: p_r1_g89_h16_t73 - x_r1_g16 <= 0
 lin3_73_1_89: p_r1_g89_h16_t73 - x_r1_g89 - x_r1_g16 >= -1
 lin1_73_1_92: p_r1_g92_h19_t73 - x_r1_g92 <= 0
 lin2_73_1_92: p_r1_g92_h19_t73 - x_r1_g19 <= 0
 lin3_73_1_92: p_r1_g92_h19_t73 - x_r1_g92 - x_r1_g19 >= -1
 lin1_73_1_101: p_r1_g101_h28_t73 - x_r1_g101 <= 0
 lin2_73_1_101: p_r1_g101_h28_t73 - x_r1_g28 <= 0
 lin3_73_1_101: p_r1_g101_h28_t73 - x_r1_g101 - x_r1_g28 >= -1
 lin1_73_1_116: p_r1_g116_h43_t73 - x_r1_g116 <= 0
 lin2_73_1_116: p_r1_g116_h43_t73 - x_r1_g43 <= 0
 lin3_73_1_116: p_r1_g116_h43_t73 - x_r1_g116 - x_r1_g43 >= -1
 lin1_73_1_131: p_r1_g131_h58_t73 - x_r1_g131 <= 0
 lin2_73_1_131: p_r1_g131_h58_t73 - x_r1_g58 <= 0
 lin3_73_1_131: p_r1_g131_h58_t73 - x_r1_g131 - x_r1_g58 >= -1
 lin1_73_1_164: p_r1_g164_h91_t73 - x_r1_g164 <= 0
 lin2_73_1_164: p_r1_g164_h91_t73 - x_r1_g91 <= 0
 lin3_73_1_164: p_r1_g164_h91_t73 - x_r1_g164 - x_r1_g91 >= -1
 lin1_73_1_165: p_r1_g165_h92_t73 - x_r1_g165 <= 0
 lin2_73_1_165: p_r1_g165_h92_t73 - x_r1_g92 <= 0
 lin3_73_1_165: p_r1_g165_h92_t73 - x_r1_g165 - x_r1_g92 >= -1
 lin1_73_2_17: p_r2_g17_h111_t73 - x_r2_g17 <= 0
 lin2_73_2_17: p_r2_g17_h111_t73 - x_r2_g111 <= 0
 lin3_73_2_17: p_r2_g17_h111_t73 - x_r2_g17 - x_r2_g111 >= -1
 lin1_73_2_47: p_r2_g47_h141_t73 - x_r2_g47 <= 0
 lin2_73_2_47: p_r2_g47_h141_t73 - x_r2_g141 <= 0
 lin3_73_2_47: p_r2_g47_h141_t73 - x_r2_g47 - x_r2_g141 >= -1
 lin1_73_2_57: p_r2_g57_h151_t73 - x_r2_g57 <= 0
 lin2_73_2_57: p_r2_g57_h151_t73 - x_r2_g151 <= 0
 lin3_73_2_57: p_r2_g57_h151_t73 - x_r2_g57 - x_r2_g151 >= -1
 lin1_73_2_80: p_r2_g80_h7_t73 - x_r2_g80 <= 0
 lin2_73_2_80: p_r2_g80_h7_t73 - x_r2_g7 <= 0
 lin3_73_2_80: p_r2_g80_h7_t73 - x_r2_g80 - x_r2_g7 >= -1
 lin1_73_2_87: p_r2_g87_h14_t73 - x_r2_g87 <= 0
 lin2_73_2_87: p_r2_g87_h14_t73 - x_r2_g14 <= 0
 lin3_73_2_87: p_r2_g87_h14_t73 - x_r2_g87 - x_r2_g14 >= -1
 lin1_73_2_106: p_r2_g106_h33_t73 - x_r2_g106 <= 0
 lin2_73_2_106: p_r2_g106_h33_t73 - x_r2_g33 <= 0
 lin3_73_2_106: p_r2_g106_h33_t73 - x_r2_g106 - x_r2_g33 >= -1
 lin1_73_2_114: p_r2_g114_h41_t73 - x_r2_g114 <= 0
 lin2_73_2_114: p_r2_g114_h41_t73 - x_r2_g41 <= 0
 lin3_73_2_114: p_r2_g114_h41_t73 - x_r2_g114 - x_r2_g41 >= -1
 lin1_73_2_149: p_r2_g149_h76_t73 - x_r2_g149 <= 0
 lin2_73_2_149: p_r2_g149_h76_t73 - x_r2_g76 <= 0
 lin3_73_2_149: p_r2_g149_h76_t73 - x_r2_g149 - x_r2_g76 >= -1
 lin1_73_2_166: p_r2_g166_h93_t73 - x_r2_g166 <= 0
 lin2_73_2_166: p_r2_g166_h93_t73 - x_r2_g93 <= 0
 lin3_73_2_166: p_r2_g166_h93_t73 - x_r2_g166 - x_r2_g93 >= -1
 lin1_73_3_21: p_r3_g21_h115_t73 - x_r3_g21 <= 0
 lin2_73_3_21: p_r3_g21_h115_t73 - x_r3_g115 <= 0
 lin3_73_3_21: p_r3_g21_h115_t73 - x_r3_g21 - x_r3_g115 >= -1
 lin1_73_3_31: p_r3_g31_h125_t73 - x_r3_g31 <= 0
 lin2_73_3_31: p_r3_g31_h125_t73 - x_r3_g125 <= 0
 lin3_73_3_31: p_r3_g31_h125_t73 - x_r3_g31 - x_r3_g125 >= -1
 lin1_73_3_55: p_r3_g55_h149_t73 - x_r3_g55 <= 0
 lin2_73_3_55: p_r3_g55_h149_t73 - x_r3_g149 <= 0
 lin3_73_3_55: p_r3_g55_h149_t73 - x_r3_g55 - x_r3_g149 >= -1
 lin1_73_3_77: p_r3_g77_h4_t73 - x_r3_g77 <= 0
 lin2_73_3_77: p_r3_g77_h4_t73 - x_r3_g4 <= 0
 lin3_73_3_77: p_r3_g77_h4_t73 - x_r3_g77 - x_r3_g4 >= -1
 lin1_73_3_108: p_r3_g108_h35_t73 - x_r3_g108 <= 0
 lin2_73_3_108: p_r3_g108_h35_t73 - x_r3_g35 <= 0
 lin3_73_3_108: p_r3_g108_h35_t73 - x_r3_g108 - x_r3_g35 >= -1
 lin1_73_3_122: p_r3_g122_h49_t73 - x_r3_g122 <= 0
 lin2_73_3_122: p_r3_g122_h49_t73 - x_r3_g49 <= 0
 lin3_73_3_122: p_r3_g122_h49_t73 - x_r3_g122 - x_r3_g49 >= -1
 lin1_73_3_136: p_r3_g136_h63_t73 - x_r3_g136 <= 0
 lin2_73_3_136: p_r3_g136_h63_t73 - x_r3_g63 <= 0
 lin3_73_3_136: p_r3_g136_h63_t73 - x_r3_g136 - x_r3_g63 >= -1
 lin1_73_3_150: p_r3_g150_h77_t73 - x_r3_g150 <= 0
 lin2_73_3_150: p_r3_g150_h77_t73 - x_r3_g77 <= 0
 lin3_73_3_150: p_r3_g150_h77_t73 - x_r3_g150 - x_r3_g77 >= -1
 defect_73: 1 d_73 - 1 x_r0_g6 - 2 x_r0_g25 - 1 x_r0_g40 - 1 x_r0_g46 - 1 x_r0_g47 - 2 x_r0_g49 - 1 x_r0_g50 - 1 x_r0_g54 - 1 x_r0_g66 - 1 x_r0_g73 - 1 x_r0_g88 - 1 x_r0_g101 - 1 x_r0_g110 - 1 x_r0_g111 - 1 x_r0_g115 - 1 x_r0_g116 - 1 x_r0_g125 - 2 x_r0_g128 - 2 x_r0_g132 - 1 x_r0_g135 - 2 x_r0_g136 - 1 x_r0_g137 - 1 x_r0_g139 - 1 x_r0_g140 - 1 x_r0_g156 - 1 x_r0_g162 - 1 x_r0_g163 - 1 x_r1_g19 - 1 x_r1_g27 - 1 x_r1_g29 - 1 x_r1_g35 - 1 x_r1_g36 - 1 x_r1_g38 - 1 x_r1_g42 - 1 x_r1_g44 - 2 x_r1_g46 - 1 x_r1_g76 - 1 x_r1_g91 - 1 x_r1_g99 - 2 x_r1_g104 - 2 x_r1_g126 - 1 x_r1_g130 - 1 x_r1_g131 - 1 x_r1_g135 - 1 x_r1_g157 - 2 x_r1_g160 - 1 x_r1_g164 - 1 x_r2_g7 - 1 x_r2_g13 - 1 x_r2_g17 - 1 x_r2_g27 - 1 x_r2_g29 - 1 x_r2_g33 - 1 x_r2_g34 - 1 x_r2_g35 - 1 x_r2_g47 - 1 x_r2_g57 - 1 x_r2_g61 - 2 x_r2_g63 - 1 x_r2_g75 - 1 x_r2_g80 - 1 x_r2_g84 - 1 x_r2_g85 - 1 x_r2_g87 - 1 x_r2_g91 - 1 x_r2_g93 - 2 x_r2_g112 - 1 x_r2_g114 - 1 x_r2_g116 - 2 x_r2_g119 - 1 x_r2_g125 - 2 x_r2_g133 - 1 x_r2_g138 - 1 x_r2_g141 - 1 x_r2_g151 - 1 x_r3_g4 - 1 x_r3_g12 - 1 x_r3_g21 - 1 x_r3_g29 - 1 x_r3_g35 - 1 x_r3_g44 - 1 x_r3_g49 - 2 x_r3_g54 - 1 x_r3_g55 - 1 x_r3_g61 - 1 x_r3_g82 - 1 x_r3_g89 - 2 x_r3_g99 - 1 x_r3_g107 - 1 x_r3_g122 - 1 x_r3_g124 - 1 x_r3_g131 - 2 x_r3_g132 - 2 x_r3_g139 - 2 x_r3_g141 - 1 x_r3_g149 - 1 x_r3_g160 - 1 p_r0_g16_h110_t73 - 1 p_r0_g23_h117_t73 - 1 p_r0_g46_h140_t73 - 1 p_r0_g50_h144_t73 - 1 p_r0_g112_h39_t73 - 1 p_r0_g117_h44_t73 - 1 p_r0_g139_h66_t73 - 1 p_r1_g0_h94_t73 - 1 p_r1_g20_h114_t73 - 1 p_r1_g36_h130_t73 - 1 p_r1_g71_h165_t73 - 1 p_r1_g89_h16_t73 - 1 p_r1_g92_h19_t73 - 1 p_r1_g101_h28_t73 - 1 p_r1_g116_h43_t73 - 1 p_r1_g131_h58_t73 - 1 p_r1_g164_h91_t73 - 1 p_r1_g165_h92_t73 - 1 p_r2_g17_h111_t73 - 1 p_r2_g47_h141_t73 - 1 p_r2_g57_h151_t73 - 1 p_r2_g80_h7_t73 - 1 p_r2_g87_h14_t73 - 1 p_r2_g106_h33_t73 - 1 p_r2_g114_h41_t73 - 1 p_r2_g149_h76_t73 - 1 p_r2_g166_h93_t73 - 1 p_r3_g21_h115_t73 - 1 p_r3_g31_h125_t73 - 1 p_r3_g55_h149_t73 - 1 p_r3_g77_h4_t73 - 1 p_r3_g108_h35_t73 - 1 p_r3_g122_h49_t73 - 1 p_r3_g136_h63_t73 - 1 p_r3_g150_h77_t73 = -76
 abs_pos_73: d_73 - u_73 <= 0
 abs_neg_73: - d_73 - u_73 <= 0
 max_def_73: u_73 - M <= 0
 cap_73: u_73 <= 2
 tier_M_cap: M <= 2
 flip_def: 1 F - 1 x_r0_g16 - 1 x_r0_g23 - 1 x_r0_g35 - 1 x_r0_g39 - 1 x_r0_g44 - 1 x_r0_g46 - 1 x_r0_g50 - 1 x_r0_g66 - 1 x_r0_g73 - 1 x_r0_g95 - 1 x_r0_g110 - 1 x_r0_g112 - 1 x_r0_g115 - 1 x_r0_g117 - 1 x_r0_g128 - 1 x_r0_g135 - 1 x_r0_g140 - 1 x_r0_g144 - 1 x_r0_g156 - 1 x_r0_g162 - 1 x_r1_g0 - 1 x_r1_g19 - 1 x_r1_g28 - 1 x_r1_g35 - 1 x_r1_g43 - 1 x_r1_g45 - 1 x_r1_g58 - 1 x_r1_g71 - 1 x_r1_g76 - 1 x_r1_g77 - 1 x_r1_g92 - 1 x_r1_g94 - 1 x_r1_g99 - 1 x_r1_g101 - 1 x_r1_g104 - 1 x_r1_g116 - 1 x_r1_g126 - 1 x_r1_g131 - 1 x_r1_g135 - 1 x_r1_g165 - 1 x_r2_g13 - 1 x_r2_g17 - 1 x_r2_g29 - 1 x_r2_g35 - 1 x_r2_g47 - 1 x_r2_g51 - 1 x_r2_g57 - 1 x_r2_g76 - 1 x_r2_g84 - 1 x_r2_g91 - 1 x_r2_g93 - 1 x_r2_g106 - 1 x_r2_g111 - 1 x_r2_g118 - 1 x_r2_g125 - 1 x_r2_g133 - 1 x_r2_g138 - 1 x_r2_g141 - 1 x_r2_g149 - 1 x_r2_g166 - 1 x_r3_g21 - 1 x_r3_g23 - 1 x_r3_g29 - 1 x_r3_g31 - 1 x_r3_g35 - 1 x_r3_g44 - 1 x_r3_g54 - 1 x_r3_g63 - 1 x_r3_g82 - 1 x_r3_g84 - 1 x_r3_g97 - 1 x_r3_g107 - 1 x_r3_g115 - 1 x_r3_g125 - 1 x_r3_g131 - 1 x_r3_g136 - 1 x_r3_g141 - 1 x_r3_g146 - 1 x_r3_g150 - 1 x_r3_g152 + 1 x_r0_g5 + 1 x_r0_g6 + 1 x_r0_g13 + 1 x_r0_g25 + 1 x_r0_g40 + 1 x_r0_g47 + 1 x_r0_g49 + 1 x_r0_g54 + 1 x_r0_g74 + 1 x_r0_g77 + 1 x_r0_g88 + 1 x_r0_g101 + 1 x_r0_g111 + 1 x_r0_g116 + 1 x_r0_g125 + 1 x_r0_g132 + 1 x_r0_g136 + 1 x_r0_g137 + 1 x_r0_g139 + 1 x_r0_g163 + 1 x_r1_g16 + 1 x_r1_g20 + 1 x_r1_g27 + 1 x_r1_g29 + 1 x_r1_g36 + 1 x_r1_g38 + 1 x_r1_g42 + 1 x_r1_g44 + 1 x_r1_g46 + 1 x_r1_g64 + 1 x_r1_g78 + 1 x_r1_g89 + 1 x_r1_g91 + 1 x_r1_g98 + 1 x_r1_g114 + 1 x_r1_g128 + 1 x_r1_g130 + 1 x_r1_g157 + 1 x_r1_g160 + 1 x_r1_g164 + 1 x_r2_g7 + 1 x_r2_g14 + 1 x_r2_g27 + 1 x_r2_g33 + 1 x_r2_g34 + 1 x_r2_g41 + 1 x_r2_g61 + 1 x_r2_g63 + 1 x_r2_g75 + 1 x_r2_g80 + 1 x_r2_g85 + 1 x_r2_g87 + 1 x_r2_g112 + 1 x_r2_g114 + 1 x_r2_g116 + 1 x_r2_g119 + 1 x_r2_g139 + 1 x_r2_g146 + 1 x_r2_g151 + 1 x_r2_g161 + 1 x_r3_g4 + 1 x_r3_g6 + 1 x_r3_g12 + 1 x_r3_g27 + 1 x_r3_g49 + 1 x_r3_g53 + 1 x_r3_g55 + 1 x_r3_g61 + 1 x_r3_g77 + 1 x_r3_g80 + 1 x_r3_g83 + 1 x_r3_g89 + 1 x_r3_g99 + 1 x_r3_g108 + 1 x_r3_g122 + 1 x_r3_g124 + 1 x_r3_g132 + 1 x_r3_g139 + 1 x_r3_g149 + 1 x_r3_g160 = 80
 flip_cap: F <= 4
Bounds
 d_1 free
 0 <= u_1
 d_2 free
 0 <= u_2
 d_3 free
 0 <= u_3
 d_4 free
 0 <= u_4
 d_6 free
 0 <= u_6
 d_8 free
 0 <= u_8
 d_34 free
 0 <= u_34
 d_41 free
 0 <= u_41
 d_49 free
 0 <= u_49
 d_70 free
 0 <= u_70
 d_71 free
 0 <= u_71
 d_73 free
 0 <= u_73
 0 <= M
 0 <= F
Binaries
 x_r0_g5
 x_r0_g6
 x_r0_g13
 x_r0_g16
 x_r0_g23
 x_r0_g25
 x_r0_g35
 x_r0_g39
 x_r0_g40
 x_r0_g44
 x_r0_g46
 x_r0_g47
 x_r0_g49
 x_r0_g50
 x_r0_g54
 x_r0_g66
 x_r0_g73
 x_r0_g74
 x_r0_g77
 x_r0_g88
 x_r0_g95
 x_r0_g101
 x_r0_g110
 x_r0_g111
 x_r0_g112
 x_r0_g115
 x_r0_g116
 x_r0_g117
 x_r0_g125
 x_r0_g128
 x_r0_g132
 x_r0_g135
 x_r0_g136
 x_r0_g137
 x_r0_g139
 x_r0_g140
 x_r0_g144
 x_r0_g156
 x_r0_g162
 x_r0_g163
 x_r1_g0
 x_r1_g16
 x_r1_g19
 x_r1_g20
 x_r1_g27
 x_r1_g28
 x_r1_g29
 x_r1_g35
 x_r1_g36
 x_r1_g38
 x_r1_g42
 x_r1_g43
 x_r1_g44
 x_r1_g45
 x_r1_g46
 x_r1_g58
 x_r1_g64
 x_r1_g71
 x_r1_g76
 x_r1_g77
 x_r1_g78
 x_r1_g89
 x_r1_g91
 x_r1_g92
 x_r1_g94
 x_r1_g98
 x_r1_g99
 x_r1_g101
 x_r1_g104
 x_r1_g114
 x_r1_g116
 x_r1_g126
 x_r1_g128
 x_r1_g130
 x_r1_g131
 x_r1_g135
 x_r1_g157
 x_r1_g160
 x_r1_g164
 x_r1_g165
 x_r2_g7
 x_r2_g13
 x_r2_g14
 x_r2_g17
 x_r2_g27
 x_r2_g29
 x_r2_g33
 x_r2_g34
 x_r2_g35
 x_r2_g41
 x_r2_g47
 x_r2_g51
 x_r2_g57
 x_r2_g61
 x_r2_g63
 x_r2_g75
 x_r2_g76
 x_r2_g80
 x_r2_g84
 x_r2_g85
 x_r2_g87
 x_r2_g91
 x_r2_g93
 x_r2_g106
 x_r2_g111
 x_r2_g112
 x_r2_g114
 x_r2_g116
 x_r2_g118
 x_r2_g119
 x_r2_g125
 x_r2_g133
 x_r2_g138
 x_r2_g139
 x_r2_g141
 x_r2_g146
 x_r2_g149
 x_r2_g151
 x_r2_g161
 x_r2_g166
 x_r3_g4
 x_r3_g6
 x_r3_g12
 x_r3_g21
 x_r3_g23
 x_r3_g27
 x_r3_g29
 x_r3_g31
 x_r3_g35
 x_r3_g44
 x_r3_g49
 x_r3_g53
 x_r3_g54
 x_r3_g55
 x_r3_g61
 x_r3_g63
 x_r3_g77
 x_r3_g80
 x_r3_g82
 x_r3_g83
 x_r3_g84
 x_r3_g89
 x_r3_g97
 x_r3_g99
 x_r3_g107
 x_r3_g108
 x_r3_g115
 x_r3_g122
 x_r3_g124
 x_r3_g125
 x_r3_g131
 x_r3_g132
 x_r3_g136
 x_r3_g139
 x_r3_g141
 x_r3_g146
 x_r3_g149
 x_r3_g150
 x_r3_g152
 x_r3_g160
 p_r0_g6_h5_t1
 p_r0_g40_h39_t1
 p_r0_g47_h46_t1
 p_r0_g50_h49_t1
 p_r0_g74_h73_t1
 p_r0_g111_h110_t1
 p_r0_g112_h111_t1
 p_r0_g116_h115_t1
 p_r0_g117_h116_t1
 p_r0_g136_h135_t1
 p_r0_g137_h136_t1
 p_r0_g140_h139_t1
 p_r0_g163_h162_t1
 p_r1_g20_h19_t1
 p_r1_g28_h27_t1
 p_r1_g29_h28_t1
 p_r1_g36_h35_t1
 p_r1_g43_h42_t1
 p_r1_g44_h43_t1
 p_r1_g45_h44_t1
 p_r1_g46_h45_t1
 p_r1_g77_h76_t1
 p_r1_g78_h77_t1
 p_r1_g92_h91_t1
 p_r1_g99_h98_t1
 p_r1_g131_h130_t1
 p_r1_g165_h164_t1
 p_r2_g14_h13_t1
 p_r2_g34_h33_t1
 p_r2_g35_h34_t1
 p_r2_g76_h75_t1
 p_r2_g85_h84_t1
 p_r2_g112_h111_t1
 p_r2_g119_h118_t1
 p_r2_g139_h138_t1
 p_r3_g54_h53_t1
 p_r3_g55_h54_t1
 p_r3_g83_h82_t1
 p_r3_g84_h83_t1
 p_r3_g108_h107_t1
 p_r3_g125_h124_t1
 p_r3_g132_h131_t1
 p_r3_g150_h149_t1
 p_r0_g25_h23_t2
 p_r0_g46_h44_t2
 p_r0_g49_h47_t2
 p_r0_g112_h110_t2
 p_r0_g117_h115_t2
 p_r0_g137_h135_t2
 p_r0_g139_h137_t2
 p_r1_g0_h165_t2
 p_r1_g29_h27_t2
 p_r1_g38_h36_t2
 p_r1_g44_h42_t2
 p_r1_g45_h43_t2
 p_r1_g46_h44_t2
 p_r1_g78_h76_t2
 p_r1_g91_h89_t2
 p_r1_g94_h92_t2
 p_r1_g101_h99_t2
 p_r1_g116_h114_t2
 p_r1_g128_h126_t2
 p_r1_g130_h128_t2
 p_r2_g29_h27_t2
 p_r2_g35_h33_t2
 p_r2_g63_h61_t2
 p_r2_g87_h85_t2
 p_r2_g93_h91_t2
 p_r2_g114_h112_t2
 p_r2_g116_h114_t2
 p_r2_g118_h116_t2
 p_r2_g141_h139_t2
 p_r2_g151_h149_t2
 p_r3_g6_h4_t2
 p_r3_g23_h21_t2
 p_r3_g29_h27_t2
 p_r3_g31_h29_t2
 p_r3_g55_h53_t2
 p_r3_g63_h61_t2
 p_r3_g82_h80_t2
 p_r3_g84_h82_t2
 p_r3_g99_h97_t2
 p_r3_g124_h122_t2
 p_r3_g141_h139_t2
 p_r3_g152_h150_t2
 p_r0_g16_h13_t3
 p_r0_g47_h44_t3
 p_r0_g49_h46_t3
 p_r0_g50_h47_t3
 p_r0_g77_h74_t3
 p_r0_g115_h112_t3
 p_r0_g128_h125_t3
 p_r0_g135_h132_t3
 p_r0_g139_h136_t3
 p_r0_g140_h137_t3
 p_r1_g0_h164_t3
 p_r1_g19_h16_t3
 p_r1_g38_h35_t3
 p_r1_g45_h42_t3
 p_r1_g46_h43_t3
 p_r1_g92_h89_t3
 p_r1_g94_h91_t3
 p_r1_g101_h98_t3
 p_r1_g104_h101_t3
 p_r1_g131_h128_t3
 p_r1_g160_h157_t3
 p_r2_g17_h14_t3
 p_r2_g87_h84_t3
 p_r2_g114_h111_t3
 p_r2_g119_h116_t3
 p_r2_g141_h138_t3
 p_r2_g149_h146_t3
 p_r3_g80_h77_t3
 p_r3_g83_h80_t3
 p_r3_g125_h122_t3
 p_r3_g139_h136_t3
 p_r3_g149_h146_t3
 p_r3_g152_h149_t3
 p_r0_g39_h35_t4
 p_r0_g44_h40_t4
 p_r0_g50_h46_t4
 p_r0_g54_h50_t4
 p_r0_g77_h73_t4
 p_r0_g115_h111_t4
 p_r0_g116_h112_t4
 p_r0_g132_h128_t4
 p_r0_g136_h132_t4
 p_r0_g139_h135_t4
 p_r0_g140_h136_t4
 p_r0_g144_h140_t4
 p_r1_g20_h16_t4
 p_r1_g42_h38_t4
 p_r1_g46_h42_t4
 p_r1_g98_h94_t4
 p_r1_g130_h126_t4
 p_r1_g135_h131_t4
 p_r1_g164_h160_t4
 p_r2_g17_h13_t4
 p_r2_g33_h29_t4
 p_r2_g51_h47_t4
 p_r2_g61_h57_t4
 p_r2_g80_h76_t4
 p_r2_g84_h80_t4
 p_r2_g91_h87_t4
 p_r2_g116_h112_t4
 p_r2_g118_h114_t4
 p_r3_g27_h23_t4
 p_r3_g31_h27_t4
 p_r3_g35_h31_t4
 p_r3_g53_h49_t4
 p_r3_g84_h80_t4
 p_r3_g136_h132_t4
 p_r3_g150_h146_t4
 p_r0_g46_h40_t6
 p_r0_g50_h44_t6
 p_r0_g101_h95_t6
 p_r0_g116_h110_t6
 p_r0_g117_h111_t6
 p_r0_g162_h156_t6
 p_r1_g35_h29_t6
 p_r1_g42_h36_t6
 p_r1_g44_h38_t6
 p_r1_g64_h58_t6
 p_r1_g77_h71_t6
 p_r1_g98_h92_t6
 p_r1_g104_h98_t6
 p_r2_g13_h7_t6
 p_r2_g33_h27_t6
 p_r2_g35_h29_t6
 p_r2_g41_h35_t6
 p_r2_g47_h41_t6
 p_r2_g57_h51_t6
 p_r2_g63_h57_t6
 p_r2_g91_h85_t6
 p_r2_g93_h87_t6
 p_r2_g112_h106_t6
 p_r2_g118_h112_t6
 p_r2_g125_h119_t6
 p_r2_g139_h133_t6
 p_r3_g12_h6_t6
 p_r3_g27_h21_t6
 p_r3_g29_h23_t6
 p_r3_g35_h29_t6
 p_r3_g55_h49_t6
 p_r3_g61_h55_t6
 p_r3_g83_h77_t6
 p_r3_g89_h83_t6
 p_r3_g131_h125_t6
 p_r3_g152_h146_t6
 p_r0_g13_h5_t8
 p_r0_g47_h39_t8
 p_r0_g54_h46_t8
 p_r0_g74_h66_t8
 p_r0_g125_h117_t8
 p_r0_g136_h128_t8
 p_r0_g140_h132_t8
 p_r0_g144_h136_t8
 p_r1_g27_h19_t8
 p_r1_g28_h20_t8
 p_r1_g35_h27_t8
 p_r1_g36_h28_t8
 p_r1_g43_h35_t8
 p_r1_g44_h36_t8
 p_r1_g46_h38_t8
 p_r1_g99_h91_t8
 p_r1_g165_h157_t8
 p_r2_g7_h166_t8
 p_r2_g35_h27_t8
 p_r2_g41_h33_t8
 p_r2_g84_h76_t8
 p_r2_g93_h85_t8
 p_r2_g114_h106_t8
 p_r2_g119_h111_t8
 p_r2_g133_h125_t8
 p_r2_g141_h133_t8
 p_r2_g146_h138_t8
 p_r2_g149_h141_t8
 p_r3_g12_h4_t8
 p_r3_g29_h21_t8
 p_r3_g31_h23_t8
 p_r3_g35_h27_t8
 p_r3_g61_h53_t8
 p_r3_g63_h55_t8
 p_r3_g97_h89_t8
 p_r3_g107_h99_t8
 p_r3_g115_h107_t8
 p_r3_g132_h124_t8
 p_r3_g139_h131_t8
 p_r3_g149_h141_t8
 p_r3_g160_h152_t8
 p_r0_g6_h139_t34
 p_r0_g23_h156_t34
 p_r0_g39_h5_t34
 p_r0_g40_h6_t34
 p_r0_g47_h13_t34
 p_r0_g50_h16_t34
 p_r0_g73_h39_t34
 p_r0_g74_h40_t34
 p_r0_g88_h54_t34
 p_r0_g111_h77_t34
 p_r0_g135_h101_t34
 p_r0_g144_h110_t34
 p_r0_g162_h128_t34
 p_r1_g27_h160_t34
 p_r1_g76_h42_t34
 p_r1_g77_h43_t34
 p_r1_g78_h44_t34
 p_r1_g92_h58_t34
 p_r1_g98_h64_t34
 p_r1_g126_h92_t34
 p_r1_g128_h94_t34
 p_r1_g135_h101_t34
 p_r1_g160_h126_t34
 p_r1_g164_h130_t34
 p_r1_g165_h131_t34
 p_r2_g13_h146_t34
 p_r2_g33_h166_t34
 p_r2_g41_h7_t34
 p_r2_g47_h13_t34
 p_r2_g51_h17_t34
 p_r2_g61_h27_t34
 p_r2_g63_h29_t34
 p_r2_g75_h41_t34
 p_r2_g85_h51_t34
 p_r2_g91_h57_t34
 p_r2_g114_h80_t34
 p_r2_g118_h84_t34
 p_r2_g119_h85_t34
 p_r2_g125_h91_t34
 p_r2_g146_h112_t34
 p_r3_g6_h139_t34
 p_r3_g27_h160_t34
 p_r3_g55_h21_t34
 p_r3_g61_h27_t34
 p_r3_g63_h29_t34
 p_r3_g83_h49_t34
 p_r3_g89_h55_t34
 p_r3_g97_h63_t34
 p_r3_g131_h97_t34
 p_r3_g141_h107_t34
 p_r3_g149_h115_t34
 p_r0_g6_h132_t41
 p_r0_g13_h139_t41
 p_r0_g46_h5_t41
 p_r0_g47_h6_t41
 p_r0_g54_h13_t41
 p_r0_g66_h25_t41
 p_r0_g88_h47_t41
 p_r0_g95_h54_t41
 p_r0_g115_h74_t41
 p_r0_g136_h95_t41
 p_r0_g156_h115_t41
 p_r1_g0_h126_t41
 p_r1_g38_h164_t41
 p_r1_g76_h35_t41
 p_r1_g77_h36_t41
 p_r1_g99_h58_t41
 p_r1_g130_h89_t41
 p_r1_g135_h94_t41
 p_r1_g157_h116_t41
 p_r2_g7_h133_t41
 p_r2_g13_h139_t41
 p_r2_g35_h161_t41
 p_r2_g75_h34_t41
 p_r2_g76_h35_t41
 p_r2_g116_h75_t41
 p_r2_g125_h84_t41
 p_r2_g166_h125_t41
 p_r3_g6_h132_t41
 p_r3_g23_h149_t41
 p_r3_g53_h12_t41
 p_r3_g124_h83_t41
 p_r3_g125_h84_t41
 p_r3_g149_h108_t41
 p_r0_g44_h162_t49
 p_r0_g54_h5_t49
 p_r0_g74_h25_t49
 p_r0_g88_h39_t49
 p_r0_g95_h46_t49
 p_r0_g115_h66_t49
 p_r0_g137_h88_t49
 p_r0_g144_h95_t49
 p_r1_g42_h160_t49
 p_r1_g46_h164_t49
 p_r1_g76_h27_t49
 p_r1_g77_h28_t49
 p_r1_g78_h29_t49
 p_r1_g91_h42_t49
 p_r1_g92_h43_t49
 p_r1_g94_h45_t49
 p_r1_g126_h77_t49
 p_r1_g165_h116_t49
 p_r2_g7_h125_t49
 p_r2_g33_h151_t49
 p_r2_g63_h14_t49
 p_r2_g76_h27_t49
 p_r2_g84_h35_t49
 p_r2_g106_h57_t49
 p_r2_g112_h63_t49
 p_r2_g125_h76_t49
 p_r2_g133_h84_t49
 p_r2_g161_h112_t49
 p_r3_g4_h122_t49
 p_r3_g6_h124_t49
 p_r3_g21_h139_t49
 p_r3_g23_h141_t49
 p_r3_g31_h149_t49
 p_r3_g53_h4_t49
 p_r3_g55_h6_t49
 p_r3_g61_h12_t49
 p_r3_g80_h31_t49
 p_r3_g84_h35_t49
 p_r3_g131_h82_t49
 p_r3_g132_h83_t49
 p_r3_g146_h97_t49
 p_r0_g13_h110_t70
 p_r0_g35_h132_t70
 p_r0_g39_h136_t70
 p_r0_g40_h137_t70
 p_r0_g47_h144_t70
 p_r0_g66_h163_t70
 p_r0_g95_h25_t70
 p_r0_g110_h40_t70
 p_r0_g116_h46_t70
 p_r0_g117_h47_t70
 p_r0_g136_h66_t70
 p_r0_g144_h74_t70
 p_r1_g19_h116_t70
 p_r1_g29_h126_t70
 p_r1_g38_h135_t70
 p_r1_g89_h19_t70
 p_r1_g98_h28_t70
 p_r1_g99_h29_t70
 p_r1_g114_h44_t70
 p_r1_g116_h46_t70
 p_r1_g128_h58_t70
 p_r1_g164_h94_t70
 p_r2_g14_h111_t70
 p_r2_g17_h114_t70
 p_r2_g41_h138_t70
 p_r2_g84_h14_t70
 p_r2_g87_h17_t70
 p_r2_g111_h41_t70
 p_r2_g133_h63_t70
 p_r2_g146_h76_t70
 p_r2_g161_h91_t70
 p_r3_g27_h124_t70
 p_r3_g35_h132_t70
 p_r3_g44_h141_t70
 p_r3_g49_h146_t70
 p_r3_g53_h150_t70
 p_r3_g55_h152_t70
 p_r3_g63_h160_t70
 p_r3_g82_h12_t70
 p_r3_g97_h27_t70
 p_r3_g99_h29_t70
 p_r3_g124_h54_t70
 p_r3_g125_h55_t70
 p_r3_g131_h61_t70
 p_r3_g150_h80_t70
 p_r3_g152_h82_t70
 p_r0_g5_h101_t71
 p_r0_g16_h112_t71
 p_r0_g39_h135_t71
 p_r0_g40_h136_t71
 p_r0_g44_h140_t71
 p_r0_g66_h162_t71
 p_r0_g77_h6_t71
 p_r0_g110_h39_t71
 p_r0_g111_h40_t71
 p_r0_g115_h44_t71
 p_r0_g117_h46_t71
 p_r0_g125_h54_t71
 p_r0_g137_h66_t71
 p_r0_g144_h73_t71
 p_r1_g20_h116_t71
 p_r1_g35_h131_t71
 p_r1_g64_h160_t71
 p_r1_g71_h0_t71
 p_r1_g91_h20_t71
 p_r1_g98_h27_t71
 p_r1_g99_h28_t71
 p_r1_g114_h43_t71
 p_r1_g116_h45_t71
 p_r1_g135_h64_t71
 p_r1_g160_h89_t71
 p_r1_g165_h94_t71
 p_r2_g29_h125_t71
 p_r2_g84_h13_t71
 p_r2_g85_h14_t71
 p_r2_g106_h35_t71
 p_r2_g112_h41_t71
 p_r2_g118_h47_t71
 p_r2_g146_h75_t71
 p_r2_g151_h80_t71
 p_r3_g12_h108_t71
 p_r3_g29_h125_t71
 p_r3_g35_h131_t71
 p_r3_g53_h149_t71
 p_r3_g54_h150_t71
 p_r3_g77_h6_t71
 p_r3_g83_h12_t71
 p_r3_g115_h44_t71
 p_r3_g124_h53_t71
 p_r3_g125_h54_t71
 p_r3_g132_h61_t71
 p_r3_g160_h89_t71
 p_r0_g16_h110_t73
 p_r0_g23_h117_t73
 p_r0_g46_h140_t73
 p_r0_g50_h144_t73
 p_r0_g112_h39_t73
 p_r0_g117_h44_t73
 p_r0_g139_h66_t73
 p_r1_g0_h94_t73
 p_r1_g20_h114_t73
 p_r1_g36_h130_t73
 p_r1_g71_h165_t73
 p_r1_g89_h16_t73
 p_r1_g92_h19_t73
 p_r1_g101_h28_t73
 p_r1_g116_h43_t73
 p_r1_g131_h58_t73
 p_r1_g164_h91_t73
 p_r1_g165_h92_t73
 p_r2_g17_h111_t73
 p_r2_g47_h141_t73
 p_r2_g57_h151_t73
 p_r2_g80_h7_t73
 p_r2_g87_h14_t73
 p_r2_g106_h33_t73
 p_r2_g114_h41_t73
 p_r2_g149_h76_t73
 p_r2_g166_h93_t73
 p_r3_g21_h115_t73
 p_r3_g31_h125_t73
 p_r3_g55_h149_t73
 p_r3_g77_h4_t73
 p_r3_g108_h35_t73
 p_r3_g122_h49_t73
 p_r3_g136_h63_t73
 p_r3_g150_h77_t73
Generals
 d_1
 d_2
 d_3
 d_4
 d_6
 d_8
 d_34
 d_41
 d_49
 d_70
 d_71
 d_73
 u_1
 u_2
 u_3
 u_4
 u_6
 u_8
 u_34
 u_41
 u_49
 u_70
 u_71
 u_73
 M
 F
End
